p cnf 1200 4345
1 2 3 0
4 5 6 0
7 8 9 0
10 11 12 0
13 14 15 0
16 17 18 0
19 20 21 0
22 23 24 0
25 26 27 0
28 29 30 0
31 32 33 0
34 35 36 0
37 38 39 0
40 41 42 0
43 44 45 0
46 47 48 0
49 50 51 0
52 53 54 0
55 56 57 0
58 59 60 0
61 62 63 0
64 65 66 0
67 68 69 0
70 71 72 0
73 74 75 0
76 77 78 0
79 80 81 0
82 83 84 0
85 86 87 0
88 89 90 0
91 92 93 0
94 95 96 0
97 98 99 0
100 101 102 0
103 104 105 0
106 107 108 0
109 110 111 0
112 113 114 0
115 116 117 0
118 119 120 0
121 122 123 0
124 125 126 0
127 128 129 0
130 131 132 0
133 134 135 0
136 137 138 0
139 140 141 0
142 143 144 0
145 146 147 0
148 149 150 0
151 152 153 0
154 155 156 0
157 158 159 0
160 161 162 0
163 164 165 0
166 167 168 0
169 170 171 0
172 173 174 0
175 176 177 0
178 179 180 0
181 182 183 0
184 185 186 0
187 188 189 0
190 191 192 0
193 194 195 0
196 197 198 0
199 200 201 0
202 203 204 0
205 206 207 0
208 209 210 0
211 212 213 0
214 215 216 0
217 218 219 0
220 221 222 0
223 224 225 0
226 227 228 0
229 230 231 0
232 233 234 0
235 236 237 0
238 239 240 0
241 242 243 0
244 245 246 0
247 248 249 0
250 251 252 0
253 254 255 0
256 257 258 0
259 260 261 0
262 263 264 0
265 266 267 0
268 269 270 0
271 272 273 0
274 275 276 0
277 278 279 0
280 281 282 0
283 284 285 0
286 287 288 0
289 290 291 0
292 293 294 0
295 296 297 0
298 299 300 0
301 302 303 0
304 305 306 0
307 308 309 0
310 311 312 0
313 314 315 0
316 317 318 0
319 320 321 0
322 323 324 0
325 326 327 0
328 329 330 0
331 332 333 0
334 335 336 0
337 338 339 0
340 341 342 0
343 344 345 0
346 347 348 0
349 350 351 0
352 353 354 0
355 356 357 0
358 359 360 0
361 362 363 0
364 365 366 0
367 368 369 0
370 371 372 0
373 374 375 0
376 377 378 0
379 380 381 0
382 383 384 0
385 386 387 0
388 389 390 0
391 392 393 0
394 395 396 0
397 398 399 0
400 401 402 0
403 404 405 0
406 407 408 0
409 410 411 0
412 413 414 0
415 416 417 0
418 419 420 0
421 422 423 0
424 425 426 0
427 428 429 0
430 431 432 0
433 434 435 0
436 437 438 0
439 440 441 0
442 443 444 0
445 446 447 0
448 449 450 0
451 452 453 0
454 455 456 0
457 458 459 0
460 461 462 0
463 464 465 0
466 467 468 0
469 470 471 0
472 473 474 0
475 476 477 0
478 479 480 0
481 482 483 0
484 485 486 0
487 488 489 0
490 491 492 0
493 494 495 0
496 497 498 0
499 500 501 0
502 503 504 0
505 506 507 0
508 509 510 0
511 512 513 0
514 515 516 0
517 518 519 0
520 521 522 0
523 524 525 0
526 527 528 0
529 530 531 0
532 533 534 0
535 536 537 0
538 539 540 0
541 542 543 0
544 545 546 0
547 548 549 0
550 551 552 0
553 554 555 0
556 557 558 0
559 560 561 0
562 563 564 0
565 566 567 0
568 569 570 0
571 572 573 0
574 575 576 0
577 578 579 0
580 581 582 0
583 584 585 0
586 587 588 0
589 590 591 0
592 593 594 0
595 596 597 0
598 599 600 0
601 602 603 0
604 605 606 0
607 608 609 0
610 611 612 0
613 614 615 0
616 617 618 0
619 620 621 0
622 623 624 0
625 626 627 0
628 629 630 0
631 632 633 0
634 635 636 0
637 638 639 0
640 641 642 0
643 644 645 0
646 647 648 0
649 650 651 0
652 653 654 0
655 656 657 0
658 659 660 0
661 662 663 0
664 665 666 0
667 668 669 0
670 671 672 0
673 674 675 0
676 677 678 0
679 680 681 0
682 683 684 0
685 686 687 0
688 689 690 0
691 692 693 0
694 695 696 0
697 698 699 0
700 701 702 0
703 704 705 0
706 707 708 0
709 710 711 0
712 713 714 0
715 716 717 0
718 719 720 0
721 722 723 0
724 725 726 0
727 728 729 0
730 731 732 0
733 734 735 0
736 737 738 0
739 740 741 0
742 743 744 0
745 746 747 0
748 749 750 0
751 752 753 0
754 755 756 0
757 758 759 0
760 761 762 0
763 764 765 0
766 767 768 0
769 770 771 0
772 773 774 0
775 776 777 0
778 779 780 0
781 782 783 0
784 785 786 0
787 788 789 0
790 791 792 0
793 794 795 0
796 797 798 0
799 800 801 0
802 803 804 0
805 806 807 0
808 809 810 0
811 812 813 0
814 815 816 0
817 818 819 0
820 821 822 0
823 824 825 0
826 827 828 0
829 830 831 0
832 833 834 0
835 836 837 0
838 839 840 0
841 842 843 0
844 845 846 0
847 848 849 0
850 851 852 0
853 854 855 0
856 857 858 0
859 860 861 0
862 863 864 0
865 866 867 0
868 869 870 0
871 872 873 0
874 875 876 0
877 878 879 0
880 881 882 0
883 884 885 0
886 887 888 0
889 890 891 0
892 893 894 0
895 896 897 0
898 899 900 0
901 902 903 0
904 905 906 0
907 908 909 0
910 911 912 0
913 914 915 0
916 917 918 0
919 920 921 0
922 923 924 0
925 926 927 0
928 929 930 0
931 932 933 0
934 935 936 0
937 938 939 0
940 941 942 0
943 944 945 0
946 947 948 0
949 950 951 0
952 953 954 0
955 956 957 0
958 959 960 0
961 962 963 0
964 965 966 0
967 968 969 0
970 971 972 0
973 974 975 0
976 977 978 0
979 980 981 0
982 983 984 0
985 986 987 0
988 989 990 0
991 992 993 0
994 995 996 0
997 998 999 0
1000 1001 1002 0
1003 1004 1005 0
1006 1007 1008 0
1009 1010 1011 0
1012 1013 1014 0
1015 1016 1017 0
1018 1019 1020 0
1021 1022 1023 0
1024 1025 1026 0
1027 1028 1029 0
1030 1031 1032 0
1033 1034 1035 0
1036 1037 1038 0
1039 1040 1041 0
1042 1043 1044 0
1045 1046 1047 0
1048 1049 1050 0
1051 1052 1053 0
1054 1055 1056 0
1057 1058 1059 0
1060 1061 1062 0
1063 1064 1065 0
1066 1067 1068 0
1069 1070 1071 0
1072 1073 1074 0
1075 1076 1077 0
1078 1079 1080 0
1081 1082 1083 0
1084 1085 1086 0
1087 1088 1089 0
1090 1091 1092 0
1093 1094 1095 0
1096 1097 1098 0
1099 1100 1101 0
1102 1103 1104 0
1105 1106 1107 0
1108 1109 1110 0
1111 1112 1113 0
1114 1115 1116 0
1117 1118 1119 0
1120 1121 1122 0
1123 1124 1125 0
1126 1127 1128 0
1129 1130 1131 0
1132 1133 1134 0
1135 1136 1137 0
1138 1139 1140 0
1141 1142 1143 0
1144 1145 1146 0
1147 1148 1149 0
1150 1151 1152 0
1153 1154 1155 0
1156 1157 1158 0
1159 1160 1161 0
1162 1163 1164 0
1165 1166 1167 0
1168 1169 1170 0
1171 1172 1173 0
1174 1175 1176 0
1177 1178 1179 0
1180 1181 1182 0
1183 1184 1185 0
1186 1187 1188 0
1189 1190 1191 0
1192 1193 1194 0
1195 1196 1197 0
1198 1199 1200 0
-1 -2 0
-1 -3 0
-2 -3 0
-4 -5 0
-4 -6 0
-5 -6 0
-7 -8 0
-7 -9 0
-8 -9 0
-10 -11 0
-10 -12 0
-11 -12 0
-13 -14 0
-13 -15 0
-14 -15 0
-16 -17 0
-16 -18 0
-17 -18 0
-19 -20 0
-19 -21 0
-20 -21 0
-22 -23 0
-22 -24 0
-23 -24 0
-25 -26 0
-25 -27 0
-26 -27 0
-28 -29 0
-28 -30 0
-29 -30 0
-31 -32 0
-31 -33 0
-32 -33 0
-34 -35 0
-34 -36 0
-35 -36 0
-37 -38 0
-37 -39 0
-38 -39 0
-40 -41 0
-40 -42 0
-41 -42 0
-43 -44 0
-43 -45 0
-44 -45 0
-46 -47 0
-46 -48 0
-47 -48 0
-49 -50 0
-49 -51 0
-50 -51 0
-52 -53 0
-52 -54 0
-53 -54 0
-55 -56 0
-55 -57 0
-56 -57 0
-58 -59 0
-58 -60 0
-59 -60 0
-61 -62 0
-61 -63 0
-62 -63 0
-64 -65 0
-64 -66 0
-65 -66 0
-67 -68 0
-67 -69 0
-68 -69 0
-70 -71 0
-70 -72 0
-71 -72 0
-73 -74 0
-73 -75 0
-74 -75 0
-76 -77 0
-76 -78 0
-77 -78 0
-79 -80 0
-79 -81 0
-80 -81 0
-82 -83 0
-82 -84 0
-83 -84 0
-85 -86 0
-85 -87 0
-86 -87 0
-88 -89 0
-88 -90 0
-89 -90 0
-91 -92 0
-91 -93 0
-92 -93 0
-94 -95 0
-94 -96 0
-95 -96 0
-97 -98 0
-97 -99 0
-98 -99 0
-100 -101 0
-100 -102 0
-101 -102 0
-103 -104 0
-103 -105 0
-104 -105 0
-106 -107 0
-106 -108 0
-107 -108 0
-109 -110 0
-109 -111 0
-110 -111 0
-112 -113 0
-112 -114 0
-113 -114 0
-115 -116 0
-115 -117 0
-116 -117 0
-118 -119 0
-118 -120 0
-119 -120 0
-121 -122 0
-121 -123 0
-122 -123 0
-124 -125 0
-124 -126 0
-125 -126 0
-127 -128 0
-127 -129 0
-128 -129 0
-130 -131 0
-130 -132 0
-131 -132 0
-133 -134 0
-133 -135 0
-134 -135 0
-136 -137 0
-136 -138 0
-137 -138 0
-139 -140 0
-139 -141 0
-140 -141 0
-142 -143 0
-142 -144 0
-143 -144 0
-145 -146 0
-145 -147 0
-146 -147 0
-148 -149 0
-148 -150 0
-149 -150 0
-151 -152 0
-151 -153 0
-152 -153 0
-154 -155 0
-154 -156 0
-155 -156 0
-157 -158 0
-157 -159 0
-158 -159 0
-160 -161 0
-160 -162 0
-161 -162 0
-163 -164 0
-163 -165 0
-164 -165 0
-166 -167 0
-166 -168 0
-167 -168 0
-169 -170 0
-169 -171 0
-170 -171 0
-172 -173 0
-172 -174 0
-173 -174 0
-175 -176 0
-175 -177 0
-176 -177 0
-178 -179 0
-178 -180 0
-179 -180 0
-181 -182 0
-181 -183 0
-182 -183 0
-184 -185 0
-184 -186 0
-185 -186 0
-187 -188 0
-187 -189 0
-188 -189 0
-190 -191 0
-190 -192 0
-191 -192 0
-193 -194 0
-193 -195 0
-194 -195 0
-196 -197 0
-196 -198 0
-197 -198 0
-199 -200 0
-199 -201 0
-200 -201 0
-202 -203 0
-202 -204 0
-203 -204 0
-205 -206 0
-205 -207 0
-206 -207 0
-208 -209 0
-208 -210 0
-209 -210 0
-211 -212 0
-211 -213 0
-212 -213 0
-214 -215 0
-214 -216 0
-215 -216 0
-217 -218 0
-217 -219 0
-218 -219 0
-220 -221 0
-220 -222 0
-221 -222 0
-223 -224 0
-223 -225 0
-224 -225 0
-226 -227 0
-226 -228 0
-227 -228 0
-229 -230 0
-229 -231 0
-230 -231 0
-232 -233 0
-232 -234 0
-233 -234 0
-235 -236 0
-235 -237 0
-236 -237 0
-238 -239 0
-238 -240 0
-239 -240 0
-241 -242 0
-241 -243 0
-242 -243 0
-244 -245 0
-244 -246 0
-245 -246 0
-247 -248 0
-247 -249 0
-248 -249 0
-250 -251 0
-250 -252 0
-251 -252 0
-253 -254 0
-253 -255 0
-254 -255 0
-256 -257 0
-256 -258 0
-257 -258 0
-259 -260 0
-259 -261 0
-260 -261 0
-262 -263 0
-262 -264 0
-263 -264 0
-265 -266 0
-265 -267 0
-266 -267 0
-268 -269 0
-268 -270 0
-269 -270 0
-271 -272 0
-271 -273 0
-272 -273 0
-274 -275 0
-274 -276 0
-275 -276 0
-277 -278 0
-277 -279 0
-278 -279 0
-280 -281 0
-280 -282 0
-281 -282 0
-283 -284 0
-283 -285 0
-284 -285 0
-286 -287 0
-286 -288 0
-287 -288 0
-289 -290 0
-289 -291 0
-290 -291 0
-292 -293 0
-292 -294 0
-293 -294 0
-295 -296 0
-295 -297 0
-296 -297 0
-298 -299 0
-298 -300 0
-299 -300 0
-301 -302 0
-301 -303 0
-302 -303 0
-304 -305 0
-304 -306 0
-305 -306 0
-307 -308 0
-307 -309 0
-308 -309 0
-310 -311 0
-310 -312 0
-311 -312 0
-313 -314 0
-313 -315 0
-314 -315 0
-316 -317 0
-316 -318 0
-317 -318 0
-319 -320 0
-319 -321 0
-320 -321 0
-322 -323 0
-322 -324 0
-323 -324 0
-325 -326 0
-325 -327 0
-326 -327 0
-328 -329 0
-328 -330 0
-329 -330 0
-331 -332 0
-331 -333 0
-332 -333 0
-334 -335 0
-334 -336 0
-335 -336 0
-337 -338 0
-337 -339 0
-338 -339 0
-340 -341 0
-340 -342 0
-341 -342 0
-343 -344 0
-343 -345 0
-344 -345 0
-346 -347 0
-346 -348 0
-347 -348 0
-349 -350 0
-349 -351 0
-350 -351 0
-352 -353 0
-352 -354 0
-353 -354 0
-355 -356 0
-355 -357 0
-356 -357 0
-358 -359 0
-358 -360 0
-359 -360 0
-361 -362 0
-361 -363 0
-362 -363 0
-364 -365 0
-364 -366 0
-365 -366 0
-367 -368 0
-367 -369 0
-368 -369 0
-370 -371 0
-370 -372 0
-371 -372 0
-373 -374 0
-373 -375 0
-374 -375 0
-376 -377 0
-376 -378 0
-377 -378 0
-379 -380 0
-379 -381 0
-380 -381 0
-382 -383 0
-382 -384 0
-383 -384 0
-385 -386 0
-385 -387 0
-386 -387 0
-388 -389 0
-388 -390 0
-389 -390 0
-391 -392 0
-391 -393 0
-392 -393 0
-394 -395 0
-394 -396 0
-395 -396 0
-397 -398 0
-397 -399 0
-398 -399 0
-400 -401 0
-400 -402 0
-401 -402 0
-403 -404 0
-403 -405 0
-404 -405 0
-406 -407 0
-406 -408 0
-407 -408 0
-409 -410 0
-409 -411 0
-410 -411 0
-412 -413 0
-412 -414 0
-413 -414 0
-415 -416 0
-415 -417 0
-416 -417 0
-418 -419 0
-418 -420 0
-419 -420 0
-421 -422 0
-421 -423 0
-422 -423 0
-424 -425 0
-424 -426 0
-425 -426 0
-427 -428 0
-427 -429 0
-428 -429 0
-430 -431 0
-430 -432 0
-431 -432 0
-433 -434 0
-433 -435 0
-434 -435 0
-436 -437 0
-436 -438 0
-437 -438 0
-439 -440 0
-439 -441 0
-440 -441 0
-442 -443 0
-442 -444 0
-443 -444 0
-445 -446 0
-445 -447 0
-446 -447 0
-448 -449 0
-448 -450 0
-449 -450 0
-451 -452 0
-451 -453 0
-452 -453 0
-454 -455 0
-454 -456 0
-455 -456 0
-457 -458 0
-457 -459 0
-458 -459 0
-460 -461 0
-460 -462 0
-461 -462 0
-463 -464 0
-463 -465 0
-464 -465 0
-466 -467 0
-466 -468 0
-467 -468 0
-469 -470 0
-469 -471 0
-470 -471 0
-472 -473 0
-472 -474 0
-473 -474 0
-475 -476 0
-475 -477 0
-476 -477 0
-478 -479 0
-478 -480 0
-479 -480 0
-481 -482 0
-481 -483 0
-482 -483 0
-484 -485 0
-484 -486 0
-485 -486 0
-487 -488 0
-487 -489 0
-488 -489 0
-490 -491 0
-490 -492 0
-491 -492 0
-493 -494 0
-493 -495 0
-494 -495 0
-496 -497 0
-496 -498 0
-497 -498 0
-499 -500 0
-499 -501 0
-500 -501 0
-502 -503 0
-502 -504 0
-503 -504 0
-505 -506 0
-505 -507 0
-506 -507 0
-508 -509 0
-508 -510 0
-509 -510 0
-511 -512 0
-511 -513 0
-512 -513 0
-514 -515 0
-514 -516 0
-515 -516 0
-517 -518 0
-517 -519 0
-518 -519 0
-520 -521 0
-520 -522 0
-521 -522 0
-523 -524 0
-523 -525 0
-524 -525 0
-526 -527 0
-526 -528 0
-527 -528 0
-529 -530 0
-529 -531 0
-530 -531 0
-532 -533 0
-532 -534 0
-533 -534 0
-535 -536 0
-535 -537 0
-536 -537 0
-538 -539 0
-538 -540 0
-539 -540 0
-541 -542 0
-541 -543 0
-542 -543 0
-544 -545 0
-544 -546 0
-545 -546 0
-547 -548 0
-547 -549 0
-548 -549 0
-550 -551 0
-550 -552 0
-551 -552 0
-553 -554 0
-553 -555 0
-554 -555 0
-556 -557 0
-556 -558 0
-557 -558 0
-559 -560 0
-559 -561 0
-560 -561 0
-562 -563 0
-562 -564 0
-563 -564 0
-565 -566 0
-565 -567 0
-566 -567 0
-568 -569 0
-568 -570 0
-569 -570 0
-571 -572 0
-571 -573 0
-572 -573 0
-574 -575 0
-574 -576 0
-575 -576 0
-577 -578 0
-577 -579 0
-578 -579 0
-580 -581 0
-580 -582 0
-581 -582 0
-583 -584 0
-583 -585 0
-584 -585 0
-586 -587 0
-586 -588 0
-587 -588 0
-589 -590 0
-589 -591 0
-590 -591 0
-592 -593 0
-592 -594 0
-593 -594 0
-595 -596 0
-595 -597 0
-596 -597 0
-598 -599 0
-598 -600 0
-599 -600 0
-601 -602 0
-601 -603 0
-602 -603 0
-604 -605 0
-604 -606 0
-605 -606 0
-607 -608 0
-607 -609 0
-608 -609 0
-610 -611 0
-610 -612 0
-611 -612 0
-613 -614 0
-613 -615 0
-614 -615 0
-616 -617 0
-616 -618 0
-617 -618 0
-619 -620 0
-619 -621 0
-620 -621 0
-622 -623 0
-622 -624 0
-623 -624 0
-625 -626 0
-625 -627 0
-626 -627 0
-628 -629 0
-628 -630 0
-629 -630 0
-631 -632 0
-631 -633 0
-632 -633 0
-634 -635 0
-634 -636 0
-635 -636 0
-637 -638 0
-637 -639 0
-638 -639 0
-640 -641 0
-640 -642 0
-641 -642 0
-643 -644 0
-643 -645 0
-644 -645 0
-646 -647 0
-646 -648 0
-647 -648 0
-649 -650 0
-649 -651 0
-650 -651 0
-652 -653 0
-652 -654 0
-653 -654 0
-655 -656 0
-655 -657 0
-656 -657 0
-658 -659 0
-658 -660 0
-659 -660 0
-661 -662 0
-661 -663 0
-662 -663 0
-664 -665 0
-664 -666 0
-665 -666 0
-667 -668 0
-667 -669 0
-668 -669 0
-670 -671 0
-670 -672 0
-671 -672 0
-673 -674 0
-673 -675 0
-674 -675 0
-676 -677 0
-676 -678 0
-677 -678 0
-679 -680 0
-679 -681 0
-680 -681 0
-682 -683 0
-682 -684 0
-683 -684 0
-685 -686 0
-685 -687 0
-686 -687 0
-688 -689 0
-688 -690 0
-689 -690 0
-691 -692 0
-691 -693 0
-692 -693 0
-694 -695 0
-694 -696 0
-695 -696 0
-697 -698 0
-697 -699 0
-698 -699 0
-700 -701 0
-700 -702 0
-701 -702 0
-703 -704 0
-703 -705 0
-704 -705 0
-706 -707 0
-706 -708 0
-707 -708 0
-709 -710 0
-709 -711 0
-710 -711 0
-712 -713 0
-712 -714 0
-713 -714 0
-715 -716 0
-715 -717 0
-716 -717 0
-718 -719 0
-718 -720 0
-719 -720 0
-721 -722 0
-721 -723 0
-722 -723 0
-724 -725 0
-724 -726 0
-725 -726 0
-727 -728 0
-727 -729 0
-728 -729 0
-730 -731 0
-730 -732 0
-731 -732 0
-733 -734 0
-733 -735 0
-734 -735 0
-736 -737 0
-736 -738 0
-737 -738 0
-739 -740 0
-739 -741 0
-740 -741 0
-742 -743 0
-742 -744 0
-743 -744 0
-745 -746 0
-745 -747 0
-746 -747 0
-748 -749 0
-748 -750 0
-749 -750 0
-751 -752 0
-751 -753 0
-752 -753 0
-754 -755 0
-754 -756 0
-755 -756 0
-757 -758 0
-757 -759 0
-758 -759 0
-760 -761 0
-760 -762 0
-761 -762 0
-763 -764 0
-763 -765 0
-764 -765 0
-766 -767 0
-766 -768 0
-767 -768 0
-769 -770 0
-769 -771 0
-770 -771 0
-772 -773 0
-772 -774 0
-773 -774 0
-775 -776 0
-775 -777 0
-776 -777 0
-778 -779 0
-778 -780 0
-779 -780 0
-781 -782 0
-781 -783 0
-782 -783 0
-784 -785 0
-784 -786 0
-785 -786 0
-787 -788 0
-787 -789 0
-788 -789 0
-790 -791 0
-790 -792 0
-791 -792 0
-793 -794 0
-793 -795 0
-794 -795 0
-796 -797 0
-796 -798 0
-797 -798 0
-799 -800 0
-799 -801 0
-800 -801 0
-802 -803 0
-802 -804 0
-803 -804 0
-805 -806 0
-805 -807 0
-806 -807 0
-808 -809 0
-808 -810 0
-809 -810 0
-811 -812 0
-811 -813 0
-812 -813 0
-814 -815 0
-814 -816 0
-815 -816 0
-817 -818 0
-817 -819 0
-818 -819 0
-820 -821 0
-820 -822 0
-821 -822 0
-823 -824 0
-823 -825 0
-824 -825 0
-826 -827 0
-826 -828 0
-827 -828 0
-829 -830 0
-829 -831 0
-830 -831 0
-832 -833 0
-832 -834 0
-833 -834 0
-835 -836 0
-835 -837 0
-836 -837 0
-838 -839 0
-838 -840 0
-839 -840 0
-841 -842 0
-841 -843 0
-842 -843 0
-844 -845 0
-844 -846 0
-845 -846 0
-847 -848 0
-847 -849 0
-848 -849 0
-850 -851 0
-850 -852 0
-851 -852 0
-853 -854 0
-853 -855 0
-854 -855 0
-856 -857 0
-856 -858 0
-857 -858 0
-859 -860 0
-859 -861 0
-860 -861 0
-862 -863 0
-862 -864 0
-863 -864 0
-865 -866 0
-865 -867 0
-866 -867 0
-868 -869 0
-868 -870 0
-869 -870 0
-871 -872 0
-871 -873 0
-872 -873 0
-874 -875 0
-874 -876 0
-875 -876 0
-877 -878 0
-877 -879 0
-878 -879 0
-880 -881 0
-880 -882 0
-881 -882 0
-883 -884 0
-883 -885 0
-884 -885 0
-886 -887 0
-886 -888 0
-887 -888 0
-889 -890 0
-889 -891 0
-890 -891 0
-892 -893 0
-892 -894 0
-893 -894 0
-895 -896 0
-895 -897 0
-896 -897 0
-898 -899 0
-898 -900 0
-899 -900 0
-901 -902 0
-901 -903 0
-902 -903 0
-904 -905 0
-904 -906 0
-905 -906 0
-907 -908 0
-907 -909 0
-908 -909 0
-910 -911 0
-910 -912 0
-911 -912 0
-913 -914 0
-913 -915 0
-914 -915 0
-916 -917 0
-916 -918 0
-917 -918 0
-919 -920 0
-919 -921 0
-920 -921 0
-922 -923 0
-922 -924 0
-923 -924 0
-925 -926 0
-925 -927 0
-926 -927 0
-928 -929 0
-928 -930 0
-929 -930 0
-931 -932 0
-931 -933 0
-932 -933 0
-934 -935 0
-934 -936 0
-935 -936 0
-937 -938 0
-937 -939 0
-938 -939 0
-940 -941 0
-940 -942 0
-941 -942 0
-943 -944 0
-943 -945 0
-944 -945 0
-946 -947 0
-946 -948 0
-947 -948 0
-949 -950 0
-949 -951 0
-950 -951 0
-952 -953 0
-952 -954 0
-953 -954 0
-955 -956 0
-955 -957 0
-956 -957 0
-958 -959 0
-958 -960 0
-959 -960 0
-961 -962 0
-961 -963 0
-962 -963 0
-964 -965 0
-964 -966 0
-965 -966 0
-967 -968 0
-967 -969 0
-968 -969 0
-970 -971 0
-970 -972 0
-971 -972 0
-973 -974 0
-973 -975 0
-974 -975 0
-976 -977 0
-976 -978 0
-977 -978 0
-979 -980 0
-979 -981 0
-980 -981 0
-982 -983 0
-982 -984 0
-983 -984 0
-985 -986 0
-985 -987 0
-986 -987 0
-988 -989 0
-988 -990 0
-989 -990 0
-991 -992 0
-991 -993 0
-992 -993 0
-994 -995 0
-994 -996 0
-995 -996 0
-997 -998 0
-997 -999 0
-998 -999 0
-1000 -1001 0
-1000 -1002 0
-1001 -1002 0
-1003 -1004 0
-1003 -1005 0
-1004 -1005 0
-1006 -1007 0
-1006 -1008 0
-1007 -1008 0
-1009 -1010 0
-1009 -1011 0
-1010 -1011 0
-1012 -1013 0
-1012 -1014 0
-1013 -1014 0
-1015 -1016 0
-1015 -1017 0
-1016 -1017 0
-1018 -1019 0
-1018 -1020 0
-1019 -1020 0
-1021 -1022 0
-1021 -1023 0
-1022 -1023 0
-1024 -1025 0
-1024 -1026 0
-1025 -1026 0
-1027 -1028 0
-1027 -1029 0
-1028 -1029 0
-1030 -1031 0
-1030 -1032 0
-1031 -1032 0
-1033 -1034 0
-1033 -1035 0
-1034 -1035 0
-1036 -1037 0
-1036 -1038 0
-1037 -1038 0
-1039 -1040 0
-1039 -1041 0
-1040 -1041 0
-1042 -1043 0
-1042 -1044 0
-1043 -1044 0
-1045 -1046 0
-1045 -1047 0
-1046 -1047 0
-1048 -1049 0
-1048 -1050 0
-1049 -1050 0
-1051 -1052 0
-1051 -1053 0
-1052 -1053 0
-1054 -1055 0
-1054 -1056 0
-1055 -1056 0
-1057 -1058 0
-1057 -1059 0
-1058 -1059 0
-1060 -1061 0
-1060 -1062 0
-1061 -1062 0
-1063 -1064 0
-1063 -1065 0
-1064 -1065 0
-1066 -1067 0
-1066 -1068 0
-1067 -1068 0
-1069 -1070 0
-1069 -1071 0
-1070 -1071 0
-1072 -1073 0
-1072 -1074 0
-1073 -1074 0
-1075 -1076 0
-1075 -1077 0
-1076 -1077 0
-1078 -1079 0
-1078 -1080 0
-1079 -1080 0
-1081 -1082 0
-1081 -1083 0
-1082 -1083 0
-1084 -1085 0
-1084 -1086 0
-1085 -1086 0
-1087 -1088 0
-1087 -1089 0
-1088 -1089 0
-1090 -1091 0
-1090 -1092 0
-1091 -1092 0
-1093 -1094 0
-1093 -1095 0
-1094 -1095 0
-1096 -1097 0
-1096 -1098 0
-1097 -1098 0
-1099 -1100 0
-1099 -1101 0
-1100 -1101 0
-1102 -1103 0
-1102 -1104 0
-1103 -1104 0
-1105 -1106 0
-1105 -1107 0
-1106 -1107 0
-1108 -1109 0
-1108 -1110 0
-1109 -1110 0
-1111 -1112 0
-1111 -1113 0
-1112 -1113 0
-1114 -1115 0
-1114 -1116 0
-1115 -1116 0
-1117 -1118 0
-1117 -1119 0
-1118 -1119 0
-1120 -1121 0
-1120 -1122 0
-1121 -1122 0
-1123 -1124 0
-1123 -1125 0
-1124 -1125 0
-1126 -1127 0
-1126 -1128 0
-1127 -1128 0
-1129 -1130 0
-1129 -1131 0
-1130 -1131 0
-1132 -1133 0
-1132 -1134 0
-1133 -1134 0
-1135 -1136 0
-1135 -1137 0
-1136 -1137 0
-1138 -1139 0
-1138 -1140 0
-1139 -1140 0
-1141 -1142 0
-1141 -1143 0
-1142 -1143 0
-1144 -1145 0
-1144 -1146 0
-1145 -1146 0
-1147 -1148 0
-1147 -1149 0
-1148 -1149 0
-1150 -1151 0
-1150 -1152 0
-1151 -1152 0
-1153 -1154 0
-1153 -1155 0
-1154 -1155 0
-1156 -1157 0
-1156 -1158 0
-1157 -1158 0
-1159 -1160 0
-1159 -1161 0
-1160 -1161 0
-1162 -1163 0
-1162 -1164 0
-1163 -1164 0
-1165 -1166 0
-1165 -1167 0
-1166 -1167 0
-1168 -1169 0
-1168 -1170 0
-1169 -1170 0
-1171 -1172 0
-1171 -1173 0
-1172 -1173 0
-1174 -1175 0
-1174 -1176 0
-1175 -1176 0
-1177 -1178 0
-1177 -1179 0
-1178 -1179 0
-1180 -1181 0
-1180 -1182 0
-1181 -1182 0
-1183 -1184 0
-1183 -1185 0
-1184 -1185 0
-1186 -1187 0
-1186 -1188 0
-1187 -1188 0
-1189 -1190 0
-1189 -1191 0
-1190 -1191 0
-1192 -1193 0
-1192 -1194 0
-1193 -1194 0
-1195 -1196 0
-1195 -1197 0
-1196 -1197 0
-1198 -1199 0
-1198 -1200 0
-1199 -1200 0
-1 -199 0
-2 -200 0
-3 -201 0
-1 -319 0
-2 -320 0
-3 -321 0
-1 -520 0
-2 -521 0
-3 -522 0
-1 -994 0
-2 -995 0
-3 -996 0
-1 -1099 0
-2 -1100 0
-3 -1101 0
-4 -67 0
-5 -68 0
-6 -69 0
-4 -418 0
-5 -419 0
-6 -420 0
-4 -553 0
-5 -554 0
-6 -555 0
-4 -850 0
-5 -851 0
-6 -852 0
-4 -979 0
-5 -980 0
-6 -981 0
-7 -22 0
-8 -23 0
-9 -24 0
-7 -334 0
-8 -335 0
-9 -336 0
-7 -988 0
-8 -989 0
-9 -990 0
-7 -1006 0
-8 -1007 0
-9 -1008 0
-10 -76 0
-11 -77 0
-12 -78 0
-10 -229 0
-11 -230 0
-12 -231 0
-10 -379 0
-11 -380 0
-12 -381 0
-10 -463 0
-11 -464 0
-12 -465 0
-10 -499 0
-11 -500 0
-12 -501 0
-10 -952 0
-11 -953 0
-12 -954 0
-10 -1060 0
-11 -1061 0
-12 -1062 0
-10 -1084 0
-11 -1085 0
-12 -1086 0
-10 -1111 0
-11 -1112 0
-12 -1113 0
-13 -244 0
-14 -245 0
-15 -246 0
-13 -349 0
-14 -350 0
-15 -351 0
-13 -364 0
-14 -365 0
-15 -366 0
-13 -562 0
-14 -563 0
-15 -564 0
-13 -781 0
-14 -782 0
-15 -783 0
-13 -829 0
-14 -830 0
-15 -831 0
-13 -907 0
-14 -908 0
-15 -909 0
-13 -967 0
-14 -968 0
-15 -969 0
-13 -1009 0
-14 -1010 0
-15 -1011 0
-16 -103 0
-17 -104 0
-18 -105 0
-16 -526 0
-17 -527 0
-18 -528 0
-16 -976 0
-17 -977 0
-18 -978 0
-19 -460 0
-20 -461 0
-21 -462 0
-19 -505 0
-20 -506 0
-21 -507 0
-19 -586 0
-20 -587 0
-21 -588 0
-19 -709 0
-20 -710 0
-21 -711 0
-19 -757 0
-20 -758 0
-21 -759 0
-19 -877 0
-20 -878 0
-21 -879 0
-19 -1036 0
-20 -1037 0
-21 -1038 0
-22 -286 0
-23 -287 0
-24 -288 0
-22 -601 0
-23 -602 0
-24 -603 0
-22 -1057 0
-23 -1058 0
-24 -1059 0
-25 -130 0
-26 -131 0
-27 -132 0
-25 -337 0
-26 -338 0
-27 -339 0
-28 -412 0
-29 -413 0
-30 -414 0
-28 -1195 0
-29 -1196 0
-30 -1197 0
-31 -82 0
-32 -83 0
-33 -84 0
-31 -247 0
-32 -248 0
-33 -249 0
-31 -280 0
-32 -281 0
-33 -282 0
-31 -463 0
-32 -464 0
-33 -465 0
-34 -565 0
-35 -566 0
-36 -567 0
-34 -1135 0
-35 -1136 0
-36 -1137 0
-37 -142 0
-38 -143 0
-39 -144 0
-37 -193 0
-38 -194 0
-39 -195 0
-37 -502 0
-38 -503 0
-39 -504 0
-37 -595 0
-38 -596 0
-39 -597 0
-37 -691 0
-38 -692 0
-39 -693 0
-37 -787 0
-38 -788 0
-39 -789 0
-37 -856 0
-38 -857 0
-39 -858 0
-37 -1090 0
-38 -1091 0
-39 -1092 0
-37 -1156 0
-38 -1157 0
-39 -1158 0
-40 -223 0
-41 -224 0
-42 -225 0
-40 -316 0
-41 -317 0
-42 -318 0
-40 -730 0
-41 -731 0
-42 -732 0
-40 -877 0
-41 -878 0
-42 -879 0
-40 -913 0
-41 -914 0
-42 -915 0
-40 -955 0
-41 -956 0
-42 -957 0
-40 -1021 0
-41 -1022 0
-42 -1023 0
-40 -1030 0
-41 -1031 0
-42 -1032 0
-43 -511 0
-44 -512 0
-45 -513 0
-43 -1093 0
-44 -1094 0
-45 -1095 0
-46 -67 0
-47 -68 0
-48 -69 0
-46 -235 0
-47 -236 0
-48 -237 0
-46 -625 0
-47 -626 0
-48 -627 0
-46 -1084 0
-47 -1085 0
-48 -1086 0
-49 -316 0
-50 -317 0
-51 -318 0
-49 -427 0
-50 -428 0
-51 -429 0
-49 -1162 0
-50 -1163 0
-51 -1164 0
-52 -148 0
-53 -149 0
-54 -150 0
-52 -466 0
-53 -467 0
-54 -468 0
-52 -586 0
-53 -587 0
-54 -588 0
-55 -190 0
-56 -191 0
-57 -192 0
-55 -223 0
-56 -224 0
-57 -225 0
-55 -454 0
-56 -455 0
-57 -456 0
-55 -781 0
-56 -782 0
-57 -783 0
-55 -847 0
-56 -848 0
-57 -849 0
-55 -988 0
-56 -989 0
-57 -990 0
-55 -1015 0
-56 -1016 0
-57 -1017 0
-58 -91 0
-59 -92 0
-60 -93 0
-58 -250 0
-59 -251 0
-60 -252 0
-58 -400 0
-59 -401 0
-60 -402 0
-58 -679 0
-59 -680 0
-60 -681 0
-58 -1189 0
-59 -1190 0
-60 -1191 0
-61 -238 0
-62 -239 0
-63 -240 0
-61 -334 0
-62 -335 0
-63 -336 0
-61 -481 0
-62 -482 0
-63 -483 0
-61 -502 0
-62 -503 0
-63 -504 0
-61 -799 0
-62 -800 0
-63 -801 0
-64 -580 0
-65 -581 0
-66 -582 0
-67 -262 0
-68 -263 0
-69 -264 0
-67 -1072 0
-68 -1073 0
-69 -1074 0
-67 -1105 0
-68 -1106 0
-69 -1107 0
-70 -322 0
-71 -323 0
-72 -324 0
-70 -385 0
-71 -386 0
-72 -387 0
-70 -721 0
-71 -722 0
-72 -723 0
-70 -841 0
-71 -842 0
-72 -843 0
-70 -1102 0
-71 -1103 0
-72 -1104 0
-73 -184 0
-74 -185 0
-75 -186 0
-73 -247 0
-74 -248 0
-75 -249 0
-73 -703 0
-74 -704 0
-75 -705 0
-73 -1168 0
-74 -1169 0
-75 -1170 0
-76 -571 0
-77 -572 0
-78 -573 0
-76 -757 0
-77 -758 0
-78 -759 0
-79 -685 0
-80 -686 0
-81 -687 0
-79 -946 0
-80 -947 0
-81 -948 0
-79 -1027 0
-80 -1028 0
-81 -1029 0
-79 -1108 0
-80 -1109 0
-81 -1110 0
-82 -433 0
-83 -434 0
-84 -435 0
-82 -781 0
-83 -782 0
-84 -783 0
-82 -1093 0
-83 -1094 0
-84 -1095 0
-85 -502 0
-86 -503 0
-87 -504 0
-85 -694 0
-86 -695 0
-87 -696 0
-85 -796 0
-86 -797 0
-87 -798 0
-85 -928 0
-86 -929 0
-87 -930 0
-85 -937 0
-86 -938 0
-87 -939 0
-85 -1084 0
-86 -1085 0
-87 -1086 0
-88 -454 0
-89 -455 0
-90 -456 0
-88 -712 0
-89 -713 0
-90 -714 0
-88 -736 0
-89 -737 0
-90 -738 0
-88 -751 0
-89 -752 0
-90 -753 0
-88 -811 0
-89 -812 0
-90 -813 0
-91 -730 0
-92 -731 0
-93 -732 0
-91 -868 0
-92 -869 0
-93 -870 0
-94 -766 0
-95 -767 0
-96 -768 0
-97 -469 0
-98 -470 0
-99 -471 0
-97 -670 0
-98 -671 0
-99 -672 0
-97 -880 0
-98 -881 0
-99 -882 0
-97 -1012 0
-98 -1013 0
-99 -1014 0
-100 -226 0
-101 -227 0
-102 -228 0
-100 -328 0
-101 -329 0
-102 -330 0
-100 -730 0
-101 -731 0
-102 -732 0
-100 -754 0
-101 -755 0
-102 -756 0
-103 -490 0
-104 -491 0
-105 -492 0
-103 -559 0
-104 -560 0
-105 -561 0
-106 -124 0
-107 -125 0
-108 -126 0
-109 -247 0
-110 -248 0
-111 -249 0
-109 -424 0
-110 -425 0
-111 -426 0
-109 -832 0
-110 -833 0
-111 -834 0
-112 -283 0
-113 -284 0
-114 -285 0
-112 -685 0
-113 -686 0
-114 -687 0
-112 -829 0
-113 -830 0
-114 -831 0
-112 -895 0
-113 -896 0
-114 -897 0
-115 -361 0
-116 -362 0
-117 -363 0
-115 -385 0
-116 -386 0
-117 -387 0
-115 -619 0
-116 -620 0
-117 -621 0
-115 -904 0
-116 -905 0
-117 -906 0
-115 -1051 0
-116 -1052 0
-117 -1053 0
-118 -466 0
-119 -467 0
-120 -468 0
-118 -487 0
-119 -488 0
-120 -489 0
-118 -568 0
-119 -569 0
-120 -570 0
-118 -1030 0
-119 -1031 0
-120 -1032 0
-121 -541 0
-122 -542 0
-123 -543 0
-121 -832 0
-122 -833 0
-123 -834 0
-121 -961 0
-122 -962 0
-123 -963 0
-121 -1036 0
-122 -1037 0
-123 -1038 0
-121 -1051 0
-122 -1052 0
-123 -1053 0
-121 -1111 0
-122 -1112 0
-123 -1113 0
-124 -748 0
-125 -749 0
-126 -750 0
-124 -916 0
-125 -917 0
-126 -918 0
-127 -307 0
-128 -308 0
-129 -309 0
-127 -889 0
-128 -890 0
-129 -891 0
-130 -247 0
-131 -248 0
-132 -249 0
-130 -988 0
-131 -989 0
-132 -990 0
-130 -1015 0
-131 -1016 0
-132 -1017 0
-133 -190 0
-134 -191 0
-135 -192 0
-133 -229 0
-134 -230 0
-135 -231 0
-133 -373 0
-134 -374 0
-135 -375 0
-133 -469 0
-134 -470 0
-135 -471 0
-133 -865 0
-134 -866 0
-135 -867 0
-133 -937 0
-134 -938 0
-135 -939 0
-133 -1198 0
-134 -1199 0
-135 -1200 0
-136 -145 0
-137 -146 0
-138 -147 0
-136 -379 0
-137 -380 0
-138 -381 0
-136 -592 0
-137 -593 0
-138 -594 0
-139 -181 0
-140 -182 0
-141 -183 0
-139 -565 0
-140 -566 0
-141 -567 0
-139 -853 0
-140 -854 0
-141 -855 0
-139 -1189 0
-140 -1190 0
-141 -1191 0
-142 -217 0
-143 -218 0
-144 -219 0
-142 -442 0
-143 -443 0
-144 -444 0
-142 -583 0
-143 -584 0
-144 -585 0
-142 -916 0
-143 -917 0
-144 -918 0
-145 -673 0
-146 -674 0
-147 -675 0
-145 -985 0
-146 -986 0
-147 -987 0
-145 -1099 0
-146 -1100 0
-147 -1101 0
-148 -325 0
-149 -326 0
-150 -327 0
-148 -361 0
-149 -362 0
-150 -363 0
-148 -508 0
-149 -509 0
-150 -510 0
-148 -1135 0
-149 -1136 0
-150 -1137 0
-151 -223 0
-152 -224 0
-153 -225 0
-151 -658 0
-152 -659 0
-153 -660 0
-151 -793 0
-152 -794 0
-153 -795 0
-151 -1192 0
-152 -1193 0
-153 -1194 0
-154 -406 0
-155 -407 0
-156 -408 0
-154 -616 0
-155 -617 0
-156 -618 0
-154 -1006 0
-155 -1007 0
-156 -1008 0
-154 -1024 0
-155 -1025 0
-156 -1026 0
-154 -1084 0
-155 -1085 0
-156 -1086 0
-157 -172 0
-158 -173 0
-159 -174 0
-157 -181 0
-158 -182 0
-159 -183 0
-157 -199 0
-158 -200 0
-159 -201 0
-157 -403 0
-158 -404 0
-159 -405 0
-157 -1126 0
-158 -1127 0
-159 -1128 0
-160 -334 0
-161 -335 0
-162 -336 0
-160 -502 0
-161 -503 0
-162 -504 0
-160 -736 0
-161 -737 0
-162 -738 0
-163 -352 0
-164 -353 0
-165 -354 0
-163 -412 0
-164 -413 0
-165 -414 0
-163 -445 0
-164 -446 0
-165 -447 0
-166 -544 0
-167 -545 0
-168 -546 0
-166 -823 0
-167 -824 0
-168 -825 0
-166 -952 0
-167 -953 0
-168 -954 0
-166 -1132 0
-167 -1133 0
-168 -1134 0
-169 -259 0
-170 -260 0
-171 -261 0
-169 -499 0
-170 -500 0
-171 -501 0
-169 -646 0
-170 -647 0
-171 -648 0
-172 -499 0
-173 -500 0
-174 -501 0
-172 -763 0
-173 -764 0
-174 -765 0
-175 -697 0
-176 -698 0
-177 -699 0
-175 -784 0
-176 -785 0
-177 -786 0
-175 -1087 0
-176 -1088 0
-177 -1089 0
-178 -295 0
-179 -296 0
-180 -297 0
-181 -226 0
-182 -227 0
-183 -228 0
-187 -349 0
-188 -350 0
-189 -351 0
-187 -736 0
-188 -737 0
-189 -738 0
-187 -748 0
-188 -749 0
-189 -750 0
-187 -874 0
-188 -875 0
-189 -876 0
-187 -1192 0
-188 -1193 0
-189 -1194 0
-190 -238 0
-191 -239 0
-192 -240 0
-190 -295 0
-191 -296 0
-192 -297 0
-190 -547 0
-191 -548 0
-192 -549 0
-190 -610 0
-191 -611 0
-192 -612 0
-190 -649 0
-191 -650 0
-192 -651 0
-193 -223 0
-194 -224 0
-195 -225 0
-193 -397 0
-194 -398 0
-195 -399 0
-193 -523 0
-194 -524 0
-195 -525 0
-196 -223 0
-197 -224 0
-198 -225 0
-196 -289 0
-197 -290 0
-198 -291 0
-196 -331 0
-197 -332 0
-198 -333 0
-196 -793 0
-197 -794 0
-198 -795 0
-196 -832 0
-197 -833 0
-198 -834 0
-196 -934 0
-197 -935 0
-198 -936 0
-199 -403 0
-200 -404 0
-201 -405 0
-199 -526 0
-200 -527 0
-201 -528 0
-199 -577 0
-200 -578 0
-201 -579 0
-199 -793 0
-200 -794 0
-201 -795 0
-199 -1111 0
-200 -1112 0
-201 -1113 0
-202 -283 0
-203 -284 0
-204 -285 0
-202 -1048 0
-203 -1049 0
-204 -1050 0
-205 -463 0
-206 -464 0
-207 -465 0
-208 -292 0
-209 -293 0
-210 -294 0
-208 -352 0
-209 -353 0
-210 -354 0
-208 -1033 0
-209 -1034 0
-210 -1035 0
-211 -364 0
-212 -365 0
-213 -366 0
-211 -421 0
-212 -422 0
-213 -423 0
-211 -625 0
-212 -626 0
-213 -627 0
-211 -949 0
-212 -950 0
-213 -951 0
-211 -1198 0
-212 -1199 0
-213 -1200 0
-214 -337 0
-215 -338 0
-216 -339 0
-214 -424 0
-215 -425 0
-216 -426 0
-214 -574 0
-215 -575 0
-216 -576 0
-214 -667 0
-215 -668 0
-216 -669 0
-214 -982 0
-215 -983 0
-216 -984 0
-217 -457 0
-218 -458 0
-219 -459 0
-217 -886 0
-218 -887 0
-219 -888 0
-217 -1066 0
-218 -1067 0
-219 -1068 0
-220 -589 0
-221 -590 0
-222 -591 0
-220 -592 0
-221 -593 0
-222 -594 0
-220 -1171 0
-221 -1172 0
-222 -1173 0
-223 -340 0
-224 -341 0
-225 -342 0
-223 -343 0
-224 -344 0
-225 -345 0
-223 -490 0
-224 -491 0
-225 -492 0
-223 -595 0
-224 -596 0
-225 -597 0
-223 -634 0
-224 -635 0
-225 -636 0
-223 -673 0
-224 -674 0
-225 -675 0
-223 -796 0
-224 -797 0
-225 -798 0
-223 -1150 0
-224 -1151 0
-225 -1152 0
-226 -490 0
-227 -491 0
-228 -492 0
-229 -1009 0
-230 -1010 0
-231 -1011 0
-232 -325 0
-233 -326 0
-234 -327 0
-232 -1087 0
-233 -1088 0
-234 -1089 0
-235 -376 0
-236 -377 0
-237 -378 0
-235 -511 0
-236 -512 0
-237 -513 0
-235 -634 0
-236 -635 0
-237 -636 0
-235 -799 0
-236 -800 0
-237 -801 0
-235 -1009 0
-236 -1010 0
-237 -1011 0
-238 -337 0
-239 -338 0
-240 -339 0
-238 -367 0
-239 -368 0
-240 -369 0
-238 -592 0
-239 -593 0
-240 -594 0
-238 -595 0
-239 -596 0
-240 -597 0
-238 -643 0
-239 -644 0
-240 -645 0
-238 -673 0
-239 -674 0
-240 -675 0
-238 -811 0
-239 -812 0
-240 -813 0
-241 -283 0
-242 -284 0
-243 -285 0
-241 -463 0
-242 -464 0
-243 -465 0
-241 -727 0
-242 -728 0
-243 -729 0
-241 -802 0
-242 -803 0
-243 -804 0
-241 -943 0
-242 -944 0
-243 -945 0
-241 -982 0
-242 -983 0
-243 -984 0
-244 -301 0
-245 -302 0
-246 -303 0
-244 -535 0
-245 -536 0
-246 -537 0
-247 -352 0
-248 -353 0
-249 -354 0
-247 -505 0
-248 -506 0
-249 -507 0
-247 -592 0
-248 -593 0
-249 -594 0
-247 -664 0
-248 -665 0
-249 -666 0
-247 -850 0
-248 -851 0
-249 -852 0
-247 -997 0
-248 -998 0
-249 -999 0
-250 -691 0
-251 -692 0
-252 -693 0
-250 -739 0
-251 -740 0
-252 -741 0
-253 -472 0
-254 -473 0
-255 -474 0
-253 -517 0
-254 -518 0
-255 -519 0
-253 -1171 0
-254 -1172 0
-255 -1173 0
-256 -316 0
-257 -317 0
-258 -318 0
-256 -346 0
-257 -347 0
-258 -348 0
-256 -421 0
-257 -422 0
-258 -423 0
-256 -649 0
-257 -650 0
-258 -651 0
-256 -853 0
-257 -854 0
-258 -855 0
-256 -928 0
-257 -929 0
-258 -930 0
-256 -946 0
-257 -947 0
-258 -948 0
-256 -1027 0
-257 -1028 0
-258 -1029 0
-259 -496 0
-260 -497 0
-261 -498 0
-259 -967 0
-260 -968 0
-261 -969 0
-262 -778 0
-263 -779 0
-264 -780 0
-262 -994 0
-263 -995 0
-264 -996 0
-262 -1081 0
-263 -1082 0
-264 -1083 0
-265 -388 0
-266 -389 0
-267 -390 0
-265 -856 0
-266 -857 0
-267 -858 0
-265 -898 0
-266 -899 0
-267 -900 0
-268 -361 0
-269 -362 0
-270 -363 0
-268 -532 0
-269 -533 0
-270 -534 0
-268 -805 0
-269 -806 0
-270 -807 0
-268 -1171 0
-269 -1172 0
-270 -1173 0
-268 -1174 0
-269 -1175 0
-270 -1176 0
-271 -547 0
-272 -548 0
-273 -549 0
-271 -775 0
-272 -776 0
-273 -777 0
-271 -841 0
-272 -842 0
-273 -843 0
-271 -850 0
-272 -851 0
-273 -852 0
-274 -658 0
-275 -659 0
-276 -660 0
-274 -718 0
-275 -719 0
-276 -720 0
-274 -793 0
-275 -794 0
-276 -795 0
-274 -898 0
-275 -899 0
-276 -900 0
-274 -1165 0
-275 -1166 0
-276 -1167 0
-277 -430 0
-278 -431 0
-279 -432 0
-277 -1123 0
-278 -1124 0
-279 -1125 0
-280 -358 0
-281 -359 0
-282 -360 0
-280 -595 0
-281 -596 0
-282 -597 0
-283 -1066 0
-284 -1067 0
-285 -1068 0
-286 -862 0
-287 -863 0
-288 -864 0
-286 -1042 0
-287 -1043 0
-288 -1044 0
-286 -1054 0
-287 -1055 0
-288 -1056 0
-286 -1156 0
-287 -1157 0
-288 -1158 0
-289 -445 0
-290 -446 0
-291 -447 0
-289 -649 0
-290 -650 0
-291 -651 0
-289 -754 0
-290 -755 0
-291 -756 0
-289 -883 0
-290 -884 0
-291 -885 0
-289 -1006 0
-290 -1007 0
-291 -1008 0
-292 -751 0
-293 -752 0
-294 -753 0
-292 -802 0
-293 -803 0
-294 -804 0
-292 -859 0
-293 -860 0
-294 -861 0
-292 -928 0
-293 -929 0
-294 -930 0
-292 -1144 0
-293 -1145 0
-294 -1146 0
-295 -304 0
-296 -305 0
-297 -306 0
-295 -916 0
-296 -917 0
-297 -918 0
-295 -1087 0
-296 -1088 0
-297 -1089 0
-295 -1105 0
-296 -1106 0
-297 -1107 0
-295 -1198 0
-296 -1199 0
-297 -1200 0
-298 -433 0
-299 -434 0
-300 -435 0
-298 -583 0
-299 -584 0
-300 -585 0
-298 -910 0
-299 -911 0
-300 -912 0
-298 -1180 0
-299 -1181 0
-300 -1182 0
-301 -586 0
-302 -587 0
-303 -588 0
-301 -955 0
-302 -956 0
-303 -957 0
-301 -1159 0
-302 -1160 0
-303 -1161 0
-304 -316 0
-305 -317 0
-306 -318 0
-304 -412 0
-305 -413 0
-306 -414 0
-304 -607 0
-305 -608 0
-306 -609 0
-304 -694 0
-305 -695 0
-306 -696 0
-304 -736 0
-305 -737 0
-306 -738 0
-304 -937 0
-305 -938 0
-306 -939 0
-304 -961 0
-305 -962 0
-306 -963 0
-307 -328 0
-308 -329 0
-309 -330 0
-307 -631 0
-308 -632 0
-309 -633 0
-307 -712 0
-308 -713 0
-309 -714 0
-307 -886 0
-308 -887 0
-309 -888 0
-307 -1138 0
-308 -1139 0
-309 -1140 0
-310 -727 0
-311 -728 0
-312 -729 0
-310 -892 0
-311 -893 0
-312 -894 0
-310 -949 0
-311 -950 0
-312 -951 0
-310 -1069 0
-311 -1070 0
-312 -1071 0
-313 -940 0
-314 -941 0
-315 -942 0
-316 -325 0
-317 -326 0
-318 -327 0
-316 -337 0
-317 -338 0
-318 -339 0
-319 -502 0
-320 -503 0
-321 -504 0
-319 -595 0
-320 -596 0
-321 -597 0
-319 -1141 0
-320 -1142 0
-321 -1143 0
-322 -370 0
-323 -371 0
-324 -372 0
-322 -823 0
-323 -824 0
-324 -825 0
-322 -838 0
-323 -839 0
-324 -840 0
-325 -361 0
-326 -362 0
-327 -363 0
-325 -1090 0
-326 -1091 0
-327 -1092 0
-325 -1165 0
-326 -1166 0
-327 -1167 0
-328 -427 0
-329 -428 0
-330 -429 0
-328 -553 0
-329 -554 0
-330 -555 0
-328 -610 0
-329 -611 0
-330 -612 0
-328 -694 0
-329 -695 0
-330 -696 0
-328 -763 0
-329 -764 0
-330 -765 0
-328 -1012 0
-329 -1013 0
-330 -1014 0
-328 -1024 0
-329 -1025 0
-330 -1026 0
-328 -1165 0
-329 -1166 0
-330 -1167 0
-331 -436 0
-332 -437 0
-333 -438 0
-331 -667 0
-332 -668 0
-333 -669 0
-331 -685 0
-332 -686 0
-333 -687 0
-334 -664 0
-335 -665 0
-336 -666 0
-334 -1135 0
-335 -1136 0
-336 -1137 0
-334 -1138 0
-335 -1139 0
-336 -1140 0
-337 -430 0
-338 -431 0
-339 -432 0
-337 -589 0
-338 -590 0
-339 -591 0
-337 -598 0
-338 -599 0
-339 -600 0
-337 -754 0
-338 -755 0
-339 -756 0
-340 -481 0
-341 -482 0
-342 -483 0
-340 -514 0
-341 -515 0
-342 -516 0
-340 -709 0
-341 -710 0
-342 -711 0
-340 -724 0
-341 -725 0
-342 -726 0
-340 -865 0
-341 -866 0
-342 -867 0
-340 -1033 0
-341 -1034 0
-342 -1035 0
-343 -409 0
-344 -410 0
-345 -411 0
-343 -898 0
-344 -899 0
-345 -900 0
-343 -1078 0
-344 -1079 0
-345 -1080 0
-346 -373 0
-347 -374 0
-348 -375 0
-346 -412 0
-347 -413 0
-348 -414 0
-346 -418 0
-347 -419 0
-348 -420 0
-346 -628 0
-347 -629 0
-348 -630 0
-346 -655 0
-347 -656 0
-348 -657 0
-349 -691 0
-350 -692 0
-351 -693 0
-349 -814 0
-350 -815 0
-351 -816 0
-352 -868 0
-353 -869 0
-354 -870 0
-352 -1063 0
-353 -1064 0
-354 -1065 0
-355 -787 0
-356 -788 0
-357 -789 0
-355 -1198 0
-356 -1199 0
-357 -1200 0
-358 -373 0
-359 -374 0
-360 -375 0
-358 -571 0
-359 -572 0
-360 -573 0
-358 -679 0
-359 -680 0
-360 -681 0
-358 -1027 0
-359 -1028 0
-360 -1029 0
-361 -616 0
-362 -617 0
-363 -618 0
-361 -859 0
-362 -860 0
-363 -861 0
-364 -754 0
-365 -755 0
-366 -756 0
-364 -1000 0
-365 -1001 0
-366 -1002 0
-367 -859 0
-368 -860 0
-369 -861 0
-367 -1090 0
-368 -1091 0
-369 -1092 0
-367 -1105 0
-368 -1106 0
-369 -1107 0
-370 -760 0
-371 -761 0
-372 -762 0
-370 -1078 0
-371 -1079 0
-372 -1080 0
-370 -1096 0
-371 -1097 0
-372 -1098 0
-370 -1120 0
-371 -1121 0
-372 -1122 0
-373 -700 0
-374 -701 0
-375 -702 0
-373 -757 0
-374 -758 0
-375 -759 0
-373 -802 0
-374 -803 0
-375 -804 0
-376 -592 0
-377 -593 0
-378 -594 0
-376 -802 0
-377 -803 0
-378 -804 0
-376 -1033 0
-377 -1034 0
-378 -1035 0
-376 -1150 0
-377 -1151 0
-378 -1152 0
-379 -403 0
-380 -404 0
-381 -405 0
-379 -625 0
-380 -626 0
-381 -627 0
-379 -784 0
-380 -785 0
-381 -786 0
-379 -892 0
-380 -893 0
-381 -894 0
-379 -1153 0
-380 -1154 0
-381 -1155 0
-379 -1174 0
-380 -1175 0
-381 -1176 0
-382 -574 0
-383 -575 0
-384 -576 0
-382 -1072 0
-383 -1073 0
-384 -1074 0
-385 -709 0
-386 -710 0
-387 -711 0
-385 -772 0
-386 -773 0
-387 -774 0
-385 -829 0
-386 -830 0
-387 -831 0
-391 -1060 0
-392 -1061 0
-393 -1062 0
-391 -1150 0
-392 -1151 0
-393 -1152 0
-391 -1171 0
-392 -1172 0
-393 -1173 0
-394 -874 0
-395 -875 0
-396 -876 0
-397 -466 0
-398 -467 0
-399 -468 0
-397 -568 0
-398 -569 0
-399 -570 0
-397 -829 0
-398 -830 0
-399 -831 0
-397 -967 0
-398 -968 0
-399 -969 0
-397 -1033 0
-398 -1034 0
-399 -1035 0
-400 -487 0
-401 -488 0
-402 -489 0
-400 -598 0
-401 -599 0
-402 -600 0
-400 -670 0
-401 -671 0
-402 -672 0
-403 -418 0
-404 -419 0
-405 -420 0
-403 -514 0
-404 -515 0
-405 -516 0
-403 -745 0
-404 -746 0
-405 -747 0
-403 -1012 0
-404 -1013 0
-405 -1014 0
-403 -1186 0
-404 -1187 0
-405 -1188 0
-406 -409 0
-407 -410 0
-408 -411 0
-409 -478 0
-410 -479 0
-411 -480 0
-409 -607 0
-410 -608 0
-411 -609 0
-409 -790 0
-410 -791 0
-411 -792 0
-409 -1030 0
-410 -1031 0
-411 -1032 0
-418 -487 0
-419 -488 0
-420 -489 0
-418 -562 0
-419 -563 0
-420 -564 0
-418 -691 0
-419 -692 0
-420 -693 0
-418 -853 0
-419 -854 0
-420 -855 0
-418 -946 0
-419 -947 0
-420 -948 0
-418 -1123 0
-419 -1124 0
-420 -1125 0
-421 -478 0
-422 -479 0
-423 -480 0
-421 -655 0
-422 -656 0
-423 -657 0
-421 -1072 0
-422 -1073 0
-423 -1074 0
-421 -1099 0
-422 -1100 0
-423 -1101 0
-421 -1135 0
-422 -1136 0
-423 -1137 0
-424 -1051 0
-425 -1052 0
-426 -1053 0
-424 -1132 0
-425 -1133 0
-426 -1134 0
-424 -1198 0
-425 -1199 0
-426 -1200 0
-427 -463 0
-428 -464 0
-429 -465 0
-427 -556 0
-428 -557 0
-429 -558 0
-427 -607 0
-428 -608 0
-429 -609 0
-427 -670 0
-428 -671 0
-429 -672 0
-427 -919 0
-428 -920 0
-429 -921 0
-427 -1108 0
-428 -1109 0
-429 -1110 0
-430 -1165 0
-431 -1166 0
-432 -1167 0
-433 -535 0
-434 -536 0
-435 -537 0
-433 -877 0
-434 -878 0
-435 -879 0
-433 -1021 0
-434 -1022 0
-435 -1023 0
-433 -1141 0
-434 -1142 0
-435 -1143 0
-433 -1147 0
-434 -1148 0
-435 -1149 0
-436 -505 0
-437 -506 0
-438 -507 0
-436 -835 0
-437 -836 0
-438 -837 0
-436 -1111 0
-437 -1112 0
-438 -1113 0
-439 -514 0
-440 -515 0
-441 -516 0
-439 -1030 0
-440 -1031 0
-441 -1032 0
-439 -1126 0
-440 -1127 0
-441 -1128 0
-442 -619 0
-443 -620 0
-444 -621 0
-442 -733 0
-443 -734 0
-444 -735 0
-445 -655 0
-446 -656 0
-447 -657 0
-445 -748 0
-446 -749 0
-447 -750 0
-445 -814 0
-446 -815 0
-447 -816 0
-445 -883 0
-446 -884 0
-447 -885 0
-445 -1108 0
-446 -1109 0
-447 -1110 0
-448 -529 0
-449 -530 0
-450 -531 0
-451 -694 0
-452 -695 0
-453 -696 0
-457 -1174 0
-458 -1175 0
-459 -1176 0
-460 -631 0
-461 -632 0
-462 -633 0
-460 -877 0
-461 -878 0
-462 -879 0
-463 -751 0
-464 -752 0
-465 -753 0
-469 -802 0
-470 -803 0
-471 -804 0
-469 -1195 0
-470 -1196 0
-471 -1197 0
-472 -730 0
-473 -731 0
-474 -732 0
-475 -919 0
-476 -920 0
-477 -921 0
-475 -925 0
-476 -926 0
-477 -927 0
-475 -1024 0
-476 -1025 0
-477 -1026 0
-475 -1066 0
-476 -1067 0
-477 -1068 0
-475 -1102 0
-476 -1103 0
-477 -1104 0
-478 -607 0
-479 -608 0
-480 -609 0
-478 -1066 0
-479 -1067 0
-480 -1068 0
-481 -727 0
-482 -728 0
-483 -729 0
-481 -913 0
-482 -914 0
-483 -915 0
-484 -511 0
-485 -512 0
-486 -513 0
-484 -688 0
-485 -689 0
-486 -690 0
-484 -892 0
-485 -893 0
-486 -894 0
-484 -952 0
-485 -953 0
-486 -954 0
-484 -955 0
-485 -956 0
-486 -957 0
-484 -1114 0
-485 -1115 0
-486 -1116 0
-487 -787 0
-488 -788 0
-489 -789 0
-487 -1060 0
-488 -1061 0
-489 -1062 0
-490 -550 0
-491 -551 0
-492 -552 0
-490 -637 0
-491 -638 0
-492 -639 0
-493 -505 0
-494 -506 0
-495 -507 0
-493 -934 0
-494 -935 0
-495 -936 0
-493 -961 0
-494 -962 0
-495 -963 0
-493 -1141 0
-494 -1142 0
-495 -1143 0
-496 -865 0
-497 -866 0
-498 -867 0
-499 -664 0
-500 -665 0
-501 -666 0
-499 -694 0
-500 -695 0
-501 -696 0
-499 -883 0
-500 -884 0
-501 -885 0
-499 -913 0
-500 -914 0
-501 -915 0
-502 -1192 0
-503 -1193 0
-504 -1194 0
-505 -595 0
-506 -596 0
-507 -597 0
-505 -697 0
-506 -698 0
-507 -699 0
-505 -742 0
-506 -743 0
-507 -744 0
-505 -775 0
-506 -776 0
-507 -777 0
-511 -622 0
-512 -623 0
-513 -624 0
-511 -658 0
-512 -659 0
-513 -660 0
-511 -691 0
-512 -692 0
-513 -693 0
-511 -1018 0
-512 -1019 0
-513 -1020 0
-511 -1126 0
-512 -1127 0
-513 -1128 0
-511 -1195 0
-512 -1196 0
-513 -1197 0
-514 -541 0
-515 -542 0
-516 -543 0
-514 -958 0
-515 -959 0
-516 -960 0
-514 -1066 0
-515 -1067 0
-516 -1068 0
-514 -1078 0
-515 -1079 0
-516 -1080 0
-514 -1138 0
-515 -1139 0
-516 -1140 0
-517 -775 0
-518 -776 0
-519 -777 0
-517 -883 0
-518 -884 0
-519 -885 0
-517 -1105 0
-518 -1106 0
-519 -1107 0
-517 -1174 0
-518 -1175 0
-519 -1176 0
-520 -532 0
-521 -533 0
-522 -534 0
-520 -739 0
-521 -740 0
-522 -741 0
-520 -1018 0
-521 -1019 0
-522 -1020 0
-523 -529 0
-524 -530 0
-525 -531 0
-523 -715 0
-524 -716 0
-525 -717 0
-523 -958 0
-524 -959 0
-525 -960 0
-523 -997 0
-524 -998 0
-525 -999 0
-526 -652 0
-527 -653 0
-528 -654 0
-526 -793 0
-527 -794 0
-528 -795 0
-526 -1135 0
-527 -1136 0
-528 -1137 0
-529 -592 0
-530 -593 0
-531 -594 0
-529 -961 0
-530 -962 0
-531 -963 0
-535 -727 0
-536 -728 0
-537 -729 0
-535 -754 0
-536 -755 0
-537 -756 0
-535 -778 0
-536 -779 0
-537 -780 0
-535 -1135 0
-536 -1136 0
-537 -1137 0
-541 -994 0
-542 -995 0
-543 -996 0
-541 -1132 0
-542 -1133 0
-543 -1134 0
-544 -661 0
-545 -662 0
-546 -663 0
-544 -697 0
-545 -698 0
-546 -699 0
-544 -712 0
-545 -713 0
-546 -714 0
-547 -904 0
-548 -905 0
-549 -906 0
-547 -976 0
-548 -977 0
-549 -978 0
-550 -721 0
-551 -722 0
-552 -723 0
-550 -757 0
-551 -758 0
-552 -759 0
-550 -868 0
-551 -869 0
-552 -870 0
-550 -898 0
-551 -899 0
-552 -900 0
-550 -1036 0
-551 -1037 0
-552 -1038 0
-550 -1135 0
-551 -1136 0
-552 -1137 0
-550 -1192 0
-551 -1193 0
-552 -1194 0
-553 -700 0
-554 -701 0
-555 -702 0
-553 -772 0
-554 -773 0
-555 -774 0
-553 -1093 0
-554 -1094 0
-555 -1095 0
-553 -1141 0
-554 -1142 0
-555 -1143 0
-553 -1168 0
-554 -1169 0
-555 -1170 0
-556 -631 0
-557 -632 0
-558 -633 0
-556 -655 0
-557 -656 0
-558 -657 0
-556 -706 0
-557 -707 0
-558 -708 0
-556 -859 0
-557 -860 0
-558 -861 0
-556 -970 0
-557 -971 0
-558 -972 0
-559 -853 0
-560 -854 0
-561 -855 0
-559 -994 0
-560 -995 0
-561 -996 0
-562 -778 0
-563 -779 0
-564 -780 0
-562 -886 0
-563 -887 0
-564 -888 0
-562 -1018 0
-563 -1019 0
-564 -1020 0
-565 -604 0
-566 -605 0
-567 -606 0
-565 -697 0
-566 -698 0
-567 -699 0
-565 -799 0
-566 -800 0
-567 -801 0
-568 -631 0
-569 -632 0
-570 -633 0
-568 -688 0
-569 -689 0
-570 -690 0
-568 -874 0
-569 -875 0
-570 -876 0
-568 -1081 0
-569 -1082 0
-570 -1083 0
-571 -649 0
-572 -650 0
-573 -651 0
-571 -754 0
-572 -755 0
-573 -756 0
-571 -910 0
-572 -911 0
-573 -912 0
-571 -1075 0
-572 -1076 0
-573 -1077 0
-571 -1150 0
-572 -1151 0
-573 -1152 0
-574 -577 0
-575 -578 0
-576 -579 0
-574 -955 0
-575 -956 0
-576 -957 0
-574 -1162 0
-575 -1163 0
-576 -1164 0
-574 -1168 0
-575 -1169 0
-576 -1170 0
-577 -754 0
-578 -755 0
-579 -756 0
-580 -640 0
-581 -641 0
-582 -642 0
-580 -1018 0
-581 -1019 0
-582 -1020 0
-580 -1087 0
-581 -1088 0
-582 -1089 0
-583 -1186 0
-584 -1187 0
-585 -1188 0
-586 -688 0
-587 -689 0
-588 -690 0
-586 -1009 0
-587 -1010 0
-588 -1011 0
-586 -1123 0
-587 -1124 0
-588 -1125 0
-589 -835 0
-590 -836 0
-591 -837 0
-589 -934 0
-590 -935 0
-591 -936 0
-592 -688 0
-593 -689 0
-594 -690 0
-592 -835 0
-593 -836 0
-594 -837 0
-592 -973 0
-593 -974 0
-594 -975 0
-592 -1129 0
-593 -1130 0
-594 -1131 0
-595 -622 0
-596 -623 0
-597 -624 0
-595 -670 0
-596 -671 0
-597 -672 0
-595 -859 0
-596 -860 0
-597 -861 0
-595 -916 0
-596 -917 0
-597 -918 0
-598 -823 0
-599 -824 0
-600 -825 0
-598 -1177 0
-599 -1178 0
-600 -1179 0
-601 -955 0
-602 -956 0
-603 -957 0
-604 -1018 0
-605 -1019 0
-606 -1020 0
-604 -1102 0
-605 -1103 0
-606 -1104 0
-607 -649 0
-608 -650 0
-609 -651 0
-607 -775 0
-608 -776 0
-609 -777 0
-607 -841 0
-608 -842 0
-609 -843 0
-610 -1048 0
-611 -1049 0
-612 -1050 0
-610 -1063 0
-611 -1064 0
-612 -1065 0
-613 -661 0
-614 -662 0
-615 -663 0
-613 -691 0
-614 -692 0
-615 -693 0
-613 -784 0
-614 -785 0
-615 -786 0
-616 -700 0
-617 -701 0
-618 -702 0
-616 -727 0
-617 -728 0
-618 -729 0
-616 -1174 0
-617 -1175 0
-618 -1176 0
-616 -1192 0
-617 -1193 0
-618 -1194 0
-619 -757 0
-620 -758 0
-621 -759 0
-619 -925 0
-620 -926 0
-621 -927 0
-625 -691 0
-626 -692 0
-627 -693 0
-628 -661 0
-629 -662 0
-630 -663 0
-628 -1042 0
-629 -1043 0
-630 -1044 0
-634 -844 0
-635 -845 0
-636 -846 0
-634 -967 0
-635 -968 0
-636 -969 0
-634 -1168 0
-635 -1169 0
-636 -1170 0
-637 -793 0
-638 -794 0
-639 -795 0
-637 -856 0
-638 -857 0
-639 -858 0
-637 -1129 0
-638 -1130 0
-639 -1131 0
-640 -886 0
-641 -887 0
-642 -888 0
-640 -1162 0
-641 -1163 0
-642 -1164 0
-640 -1189 0
-641 -1190 0
-642 -1191 0
-643 -832 0
-644 -833 0
-645 -834 0
-646 -895 0
-647 -896 0
-648 -897 0
-646 -1066 0
-647 -1067 0
-648 -1068 0
-646 -1111 0
-647 -1112 0
-648 -1113 0
-649 -667 0
-650 -668 0
-651 -669 0
-649 -688 0
-650 -689 0
-651 -690 0
-655 -688 0
-656 -689 0
-657 -690 0
-655 -784 0
-656 -785 0
-657 -786 0
-655 -913 0
-656 -914 0
-657 -915 0
-655 -976 0
-656 -977 0
-657 -978 0
-658 -919 0
-659 -920 0
-660 -921 0
-658 -1174 0
-659 -1175 0
-660 -1176 0
-658 -1189 0
-659 -1190 0
-660 -1191 0
-661 -799 0
-662 -800 0
-663 -801 0
-661 -805 0
-662 -806 0
-663 -807 0
-661 -970 0
-662 -971 0
-663 -972 0
-661 -1108 0
-662 -1109 0
-663 -1110 0
-664 -670 0
-665 -671 0
-666 -672 0
-664 -841 0
-665 -842 0
-666 -843 0
-664 -880 0
-665 -881 0
-666 -882 0
-664 -946 0
-665 -947 0
-666 -948 0
-667 -997 0
-668 -998 0
-669 -999 0
-670 -817 0
-671 -818 0
-672 -819 0
-670 -850 0
-671 -851 0
-672 -852 0
-670 -967 0
-671 -968 0
-672 -969 0
-670 -1018 0
-671 -1019 0
-672 -1020 0
-670 -1120 0
-671 -1121 0
-672 -1122 0
-676 -763 0
-677 -764 0
-678 -765 0
-676 -802 0
-677 -803 0
-678 -804 0
-679 -691 0
-680 -692 0
-681 -693 0
-679 -835 0
-680 -836 0
-681 -837 0
-679 -967 0
-680 -968 0
-681 -969 0
-679 -1084 0
-680 -1085 0
-681 -1086 0
-682 -814 0
-683 -815 0
-684 -816 0
-682 -952 0
-683 -953 0
-684 -954 0
-688 -775 0
-689 -776 0
-690 -777 0
-688 -889 0
-689 -890 0
-690 -891 0
-688 -976 0
-689 -977 0
-690 -978 0
-691 -946 0
-692 -947 0
-693 -948 0
-691 -1198 0
-692 -1199 0
-693 -1200 0
-694 -784 0
-695 -785 0
-696 -786 0
-694 -1063 0
-695 -1064 0
-696 -1065 0
-694 -1102 0
-695 -1103 0
-696 -1104 0
-700 -889 0
-701 -890 0
-702 -891 0
-700 -994 0
-701 -995 0
-702 -996 0
-700 -1030 0
-701 -1031 0
-702 -1032 0
-703 -1054 0
-704 -1055 0
-705 -1056 0
-706 -823 0
-707 -824 0
-708 -825 0
-706 -1069 0
-707 -1070 0
-708 -1071 0
-706 -1084 0
-707 -1085 0
-708 -1086 0
-709 -865 0
-710 -866 0
-711 -867 0
-709 -961 0
-710 -962 0
-711 -963 0
-709 -979 0
-710 -980 0
-711 -981 0
-709 -1054 0
-710 -1055 0
-711 -1056 0
-712 -1090 0
-713 -1091 0
-714 -1092 0
-712 -1108 0
-713 -1109 0
-714 -1110 0
-715 -823 0
-716 -824 0
-717 -825 0
-715 -865 0
-716 -866 0
-717 -867 0
-718 -751 0
-719 -752 0
-720 -753 0
-721 -826 0
-722 -827 0
-723 -828 0
-724 -892 0
-725 -893 0
-726 -894 0
-724 -1156 0
-725 -1157 0
-726 -1158 0
-727 -934 0
-728 -935 0
-729 -936 0
-727 -1000 0
-728 -1001 0
-729 -1002 0
-727 -1084 0
-728 -1085 0
-729 -1086 0
-730 -1189 0
-731 -1190 0
-732 -1191 0
-736 -1072 0
-737 -1073 0
-738 -1074 0
-736 -1156 0
-737 -1157 0
-738 -1158 0
-742 -985 0
-743 -986 0
-744 -987 0
-742 -1147 0
-743 -1148 0
-744 -1149 0
-745 -808 0
-746 -809 0
-747 -810 0
-745 -982 0
-746 -983 0
-747 -984 0
-745 -1018 0
-746 -1019 0
-747 -1020 0
-745 -1120 0
-746 -1121 0
-747 -1122 0
-745 -1162 0
-746 -1163 0
-747 -1164 0
-751 -922 0
-752 -923 0
-753 -924 0
-751 -925 0
-752 -926 0
-753 -927 0
-751 -961 0
-752 -962 0
-753 -963 0
-751 -1117 0
-752 -1118 0
-753 -1119 0
-754 -949 0
-755 -950 0
-756 -951 0
-754 -1177 0
-755 -1178 0
-756 -1179 0
-757 -817 0
-758 -818 0
-759 -819 0
-757 -943 0
-758 -944 0
-759 -945 0
-757 -1039 0
-758 -1040 0
-759 -1041 0
-757 -1114 0
-758 -1115 0
-759 -1116 0
-760 -1198 0
-761 -1199 0
-762 -1200 0
-763 -781 0
-764 -782 0
-765 -783 0
-766 -856 0
-767 -857 0
-768 -858 0
-769 -883 0
-770 -884 0
-771 -885 0
-769 -1114 0
-770 -1115 0
-771 -1116 0
-769 -1129 0
-770 -1130 0
-771 -1131 0
-772 -865 0
-773 -866 0
-774 -867 0
-772 -1054 0
-773 -1055 0
-774 -1056 0
-775 -916 0
-776 -917 0
-777 -918 0
-781 -1045 0
-782 -1046 0
-783 -1047 0
-781 -1072 0
-782 -1073 0
-783 -1074 0
-781 -1120 0
-782 -1121 0
-783 -1122 0
-784 -1021 0
-785 -1022 0
-786 -1023 0
-784 -1180 0
-785 -1181 0
-786 -1182 0
-787 -901 0
-788 -902 0
-789 -903 0
-799 -805 0
-800 -806 0
-801 -807 0
-802 -1108 0
-803 -1109 0
-804 -1110 0
-802 -1144 0
-803 -1145 0
-804 -1146 0
-802 -1147 0
-803 -1148 0
-804 -1149 0
-808 -1042 0
-809 -1043 0
-810 -1044 0
-811 -931 0
-812 -932 0
-813 -933 0
-814 -880 0
-815 -881 0
-816 -882 0
-814 -901 0
-815 -902 0
-816 -903 0
-814 -1048 0
-815 -1049 0
-816 -1050 0
-817 -856 0
-818 -857 0
-819 -858 0
-817 -961 0
-818 -962 0
-819 -963 0
-817 -994 0
-818 -995 0
-819 -996 0
-820 -847 0
-821 -848 0
-822 -849 0
-823 -883 0
-824 -884 0
-825 -885 0
-823 -1087 0
-824 -1088 0
-825 -1089 0
-826 -868 0
-827 -869 0
-828 -870 0
-826 -940 0
-827 -941 0
-828 -942 0
-829 -1087 0
-830 -1088 0
-831 -1089 0
-832 -1036 0
-833 -1037 0
-834 -1038 0
-835 -931 0
-836 -932 0
-837 -933 0
-835 -1096 0
-836 -1097 0
-837 -1098 0
-838 -862 0
-839 -863 0
-840 -864 0
-838 -883 0
-839 -884 0
-840 -885 0
-838 -1003 0
-839 -1004 0
-840 -1005 0
-838 -1072 0
-839 -1073 0
-840 -1074 0
-838 -1189 0
-839 -1190 0
-840 -1191 0
-841 -943 0
-842 -944 0
-843 -945 0
-844 -1156 0
-845 -1157 0
-846 -1158 0
-847 -874 0
-848 -875 0
-849 -876 0
-847 -1120 0
-848 -1121 0
-849 -1122 0
-850 -1129 0
-851 -1130 0
-852 -1131 0
-856 -961 0
-857 -962 0
-858 -963 0
-856 -1141 0
-857 -1142 0
-858 -1143 0
-859 -1039 0
-860 -1040 0
-861 -1041 0
-868 -880 0
-869 -881 0
-870 -882 0
-871 -946 0
-872 -947 0
-873 -948 0
-871 -1000 0
-872 -1001 0
-873 -1002 0
-877 -916 0
-878 -917 0
-879 -918 0
-880 -1090 0
-881 -1091 0
-882 -1092 0
-880 -1120 0
-881 -1121 0
-882 -1122 0
-886 -946 0
-887 -947 0
-888 -948 0
-886 -976 0
-887 -977 0
-888 -978 0
-886 -994 0
-887 -995 0
-888 -996 0
-886 -1051 0
-887 -1052 0
-888 -1053 0
-889 -1066 0
-890 -1067 0
-891 -1068 0
-892 -1186 0
-893 -1187 0
-894 -1188 0
-895 -937 0
-896 -938 0
-897 -939 0
-898 -1117 0
-899 -1118 0
-900 -1119 0
-898 -1195 0
-899 -1196 0
-900 -1197 0
-901 -934 0
-902 -935 0
-903 -936 0
-904 -1030 0
-905 -1031 0
-906 -1032 0
-904 -1117 0
-905 -1118 0
-906 -1119 0
-907 -1150 0
-908 -1151 0
-909 -1152 0
-913 -1057 0
-914 -1058 0
-915 -1059 0
-913 -1135 0
-914 -1136 0
-915 -1137 0
-916 -973 0
-917 -974 0
-918 -975 0
-916 -1009 0
-917 -1010 0
-918 -1011 0
-919 -1048 0
-920 -1049 0
-921 -1050 0
-922 -1012 0
-923 -1013 0
-924 -1014 0
-922 -1072 0
-923 -1073 0
-924 -1074 0
-925 -1093 0
-926 -1094 0
-927 -1095 0
-928 -1072 0
-929 -1073 0
-930 -1074 0
-928 -1093 0
-929 -1094 0
-930 -1095 0
-931 -1093 0
-932 -1094 0
-933 -1095 0
-931 -1132 0
-932 -1133 0
-933 -1134 0
-937 -1117 0
-938 -1118 0
-939 -1119 0
-946 -955 0
-947 -956 0
-948 -957 0
-961 -1165 0
-962 -1166 0
-963 -1167 0
-964 -1042 0
-965 -1043 0
-966 -1044 0
-964 -1126 0
-965 -1127 0
-966 -1128 0
-973 -1117 0
-974 -1118 0
-975 -1119 0
-979 -1159 0
-980 -1160 0
-981 -1161 0
-979 -1168 0
-980 -1169 0
-981 -1170 0
-988 -1009 0
-989 -1010 0
-990 -1011 0
-997 -1174 0
-998 -1175 0
-999 -1176 0
-1000 -1030 0
-1001 -1031 0
-1002 -1032 0
-1003 -1042 0
-1004 -1043 0
-1005 -1044 0
-1003 -1120 0
-1004 -1121 0
-1005 -1122 0
-1012 -1033 0
-1013 -1034 0
-1014 -1035 0
-1012 -1114 0
-1013 -1115 0
-1014 -1116 0
-1012 -1177 0
-1013 -1178 0
-1014 -1179 0
-1015 -1066 0
-1016 -1067 0
-1017 -1068 0
-1015 -1174 0
-1016 -1175 0
-1017 -1176 0
-1018 -1108 0
-1019 -1109 0
-1020 -1110 0
-1018 -1198 0
-1019 -1199 0
-1020 -1200 0
-1021 -1075 0
-1022 -1076 0
-1023 -1077 0
-1030 -1072 0
-1031 -1073 0
-1032 -1074 0
-1045 -1147 0
-1046 -1148 0
-1047 -1149 0
-1051 -1162 0
-1052 -1163 0
-1053 -1164 0
-1054 -1144 0
-1055 -1145 0
-1056 -1146 0
-1072 -1192 0
-1073 -1193 0
-1074 -1194 0
-1078 -1120 0
-1079 -1121 0
-1080 -1122 0
-1081 -1189 0
-1082 -1190 0
-1083 -1191 0
-1084 -1117 0
-1085 -1118 0
-1086 -1119 0
-1090 -1132 0
-1091 -1133 0
-1092 -1134 0
-1096 -1159 0
-1097 -1160 0
-1098 -1161 0
-1099 -1159 0
-1100 -1160 0
-1101 -1161 0
-1111 -1123 0
-1112 -1124 0
-1113 -1125 0
-1111 -1147 0
-1112 -1148 0
-1113 -1149 0
-1111 -1171 0
-1112 -1172 0
-1113 -1173 0
-1126 -1153 0
-1127 -1154 0
-1128 -1155 0
-1135 -1195 0
-1136 -1196 0
-1137 -1197 0
