p cnf 1200 4432
1 2 3 0
4 5 6 0
7 8 9 0
10 11 12 0
13 14 15 0
16 17 18 0
19 20 21 0
22 23 24 0
25 26 27 0
28 29 30 0
31 32 33 0
34 35 36 0
37 38 39 0
40 41 42 0
43 44 45 0
46 47 48 0
49 50 51 0
52 53 54 0
55 56 57 0
58 59 60 0
61 62 63 0
64 65 66 0
67 68 69 0
70 71 72 0
73 74 75 0
76 77 78 0
79 80 81 0
82 83 84 0
85 86 87 0
88 89 90 0
91 92 93 0
94 95 96 0
97 98 99 0
100 101 102 0
103 104 105 0
106 107 108 0
109 110 111 0
112 113 114 0
115 116 117 0
118 119 120 0
121 122 123 0
124 125 126 0
127 128 129 0
130 131 132 0
133 134 135 0
136 137 138 0
139 140 141 0
142 143 144 0
145 146 147 0
148 149 150 0
151 152 153 0
154 155 156 0
157 158 159 0
160 161 162 0
163 164 165 0
166 167 168 0
169 170 171 0
172 173 174 0
175 176 177 0
178 179 180 0
181 182 183 0
184 185 186 0
187 188 189 0
190 191 192 0
193 194 195 0
196 197 198 0
199 200 201 0
202 203 204 0
205 206 207 0
208 209 210 0
211 212 213 0
214 215 216 0
217 218 219 0
220 221 222 0
223 224 225 0
226 227 228 0
229 230 231 0
232 233 234 0
235 236 237 0
238 239 240 0
241 242 243 0
244 245 246 0
247 248 249 0
250 251 252 0
253 254 255 0
256 257 258 0
259 260 261 0
262 263 264 0
265 266 267 0
268 269 270 0
271 272 273 0
274 275 276 0
277 278 279 0
280 281 282 0
283 284 285 0
286 287 288 0
289 290 291 0
292 293 294 0
295 296 297 0
298 299 300 0
301 302 303 0
304 305 306 0
307 308 309 0
310 311 312 0
313 314 315 0
316 317 318 0
319 320 321 0
322 323 324 0
325 326 327 0
328 329 330 0
331 332 333 0
334 335 336 0
337 338 339 0
340 341 342 0
343 344 345 0
346 347 348 0
349 350 351 0
352 353 354 0
355 356 357 0
358 359 360 0
361 362 363 0
364 365 366 0
367 368 369 0
370 371 372 0
373 374 375 0
376 377 378 0
379 380 381 0
382 383 384 0
385 386 387 0
388 389 390 0
391 392 393 0
394 395 396 0
397 398 399 0
400 401 402 0
403 404 405 0
406 407 408 0
409 410 411 0
412 413 414 0
415 416 417 0
418 419 420 0
421 422 423 0
424 425 426 0
427 428 429 0
430 431 432 0
433 434 435 0
436 437 438 0
439 440 441 0
442 443 444 0
445 446 447 0
448 449 450 0
451 452 453 0
454 455 456 0
457 458 459 0
460 461 462 0
463 464 465 0
466 467 468 0
469 470 471 0
472 473 474 0
475 476 477 0
478 479 480 0
481 482 483 0
484 485 486 0
487 488 489 0
490 491 492 0
493 494 495 0
496 497 498 0
499 500 501 0
502 503 504 0
505 506 507 0
508 509 510 0
511 512 513 0
514 515 516 0
517 518 519 0
520 521 522 0
523 524 525 0
526 527 528 0
529 530 531 0
532 533 534 0
535 536 537 0
538 539 540 0
541 542 543 0
544 545 546 0
547 548 549 0
550 551 552 0
553 554 555 0
556 557 558 0
559 560 561 0
562 563 564 0
565 566 567 0
568 569 570 0
571 572 573 0
574 575 576 0
577 578 579 0
580 581 582 0
583 584 585 0
586 587 588 0
589 590 591 0
592 593 594 0
595 596 597 0
598 599 600 0
601 602 603 0
604 605 606 0
607 608 609 0
610 611 612 0
613 614 615 0
616 617 618 0
619 620 621 0
622 623 624 0
625 626 627 0
628 629 630 0
631 632 633 0
634 635 636 0
637 638 639 0
640 641 642 0
643 644 645 0
646 647 648 0
649 650 651 0
652 653 654 0
655 656 657 0
658 659 660 0
661 662 663 0
664 665 666 0
667 668 669 0
670 671 672 0
673 674 675 0
676 677 678 0
679 680 681 0
682 683 684 0
685 686 687 0
688 689 690 0
691 692 693 0
694 695 696 0
697 698 699 0
700 701 702 0
703 704 705 0
706 707 708 0
709 710 711 0
712 713 714 0
715 716 717 0
718 719 720 0
721 722 723 0
724 725 726 0
727 728 729 0
730 731 732 0
733 734 735 0
736 737 738 0
739 740 741 0
742 743 744 0
745 746 747 0
748 749 750 0
751 752 753 0
754 755 756 0
757 758 759 0
760 761 762 0
763 764 765 0
766 767 768 0
769 770 771 0
772 773 774 0
775 776 777 0
778 779 780 0
781 782 783 0
784 785 786 0
787 788 789 0
790 791 792 0
793 794 795 0
796 797 798 0
799 800 801 0
802 803 804 0
805 806 807 0
808 809 810 0
811 812 813 0
814 815 816 0
817 818 819 0
820 821 822 0
823 824 825 0
826 827 828 0
829 830 831 0
832 833 834 0
835 836 837 0
838 839 840 0
841 842 843 0
844 845 846 0
847 848 849 0
850 851 852 0
853 854 855 0
856 857 858 0
859 860 861 0
862 863 864 0
865 866 867 0
868 869 870 0
871 872 873 0
874 875 876 0
877 878 879 0
880 881 882 0
883 884 885 0
886 887 888 0
889 890 891 0
892 893 894 0
895 896 897 0
898 899 900 0
901 902 903 0
904 905 906 0
907 908 909 0
910 911 912 0
913 914 915 0
916 917 918 0
919 920 921 0
922 923 924 0
925 926 927 0
928 929 930 0
931 932 933 0
934 935 936 0
937 938 939 0
940 941 942 0
943 944 945 0
946 947 948 0
949 950 951 0
952 953 954 0
955 956 957 0
958 959 960 0
961 962 963 0
964 965 966 0
967 968 969 0
970 971 972 0
973 974 975 0
976 977 978 0
979 980 981 0
982 983 984 0
985 986 987 0
988 989 990 0
991 992 993 0
994 995 996 0
997 998 999 0
1000 1001 1002 0
1003 1004 1005 0
1006 1007 1008 0
1009 1010 1011 0
1012 1013 1014 0
1015 1016 1017 0
1018 1019 1020 0
1021 1022 1023 0
1024 1025 1026 0
1027 1028 1029 0
1030 1031 1032 0
1033 1034 1035 0
1036 1037 1038 0
1039 1040 1041 0
1042 1043 1044 0
1045 1046 1047 0
1048 1049 1050 0
1051 1052 1053 0
1054 1055 1056 0
1057 1058 1059 0
1060 1061 1062 0
1063 1064 1065 0
1066 1067 1068 0
1069 1070 1071 0
1072 1073 1074 0
1075 1076 1077 0
1078 1079 1080 0
1081 1082 1083 0
1084 1085 1086 0
1087 1088 1089 0
1090 1091 1092 0
1093 1094 1095 0
1096 1097 1098 0
1099 1100 1101 0
1102 1103 1104 0
1105 1106 1107 0
1108 1109 1110 0
1111 1112 1113 0
1114 1115 1116 0
1117 1118 1119 0
1120 1121 1122 0
1123 1124 1125 0
1126 1127 1128 0
1129 1130 1131 0
1132 1133 1134 0
1135 1136 1137 0
1138 1139 1140 0
1141 1142 1143 0
1144 1145 1146 0
1147 1148 1149 0
1150 1151 1152 0
1153 1154 1155 0
1156 1157 1158 0
1159 1160 1161 0
1162 1163 1164 0
1165 1166 1167 0
1168 1169 1170 0
1171 1172 1173 0
1174 1175 1176 0
1177 1178 1179 0
1180 1181 1182 0
1183 1184 1185 0
1186 1187 1188 0
1189 1190 1191 0
1192 1193 1194 0
1195 1196 1197 0
1198 1199 1200 0
-1 -2 0
-1 -3 0
-2 -3 0
-4 -5 0
-4 -6 0
-5 -6 0
-7 -8 0
-7 -9 0
-8 -9 0
-10 -11 0
-10 -12 0
-11 -12 0
-13 -14 0
-13 -15 0
-14 -15 0
-16 -17 0
-16 -18 0
-17 -18 0
-19 -20 0
-19 -21 0
-20 -21 0
-22 -23 0
-22 -24 0
-23 -24 0
-25 -26 0
-25 -27 0
-26 -27 0
-28 -29 0
-28 -30 0
-29 -30 0
-31 -32 0
-31 -33 0
-32 -33 0
-34 -35 0
-34 -36 0
-35 -36 0
-37 -38 0
-37 -39 0
-38 -39 0
-40 -41 0
-40 -42 0
-41 -42 0
-43 -44 0
-43 -45 0
-44 -45 0
-46 -47 0
-46 -48 0
-47 -48 0
-49 -50 0
-49 -51 0
-50 -51 0
-52 -53 0
-52 -54 0
-53 -54 0
-55 -56 0
-55 -57 0
-56 -57 0
-58 -59 0
-58 -60 0
-59 -60 0
-61 -62 0
-61 -63 0
-62 -63 0
-64 -65 0
-64 -66 0
-65 -66 0
-67 -68 0
-67 -69 0
-68 -69 0
-70 -71 0
-70 -72 0
-71 -72 0
-73 -74 0
-73 -75 0
-74 -75 0
-76 -77 0
-76 -78 0
-77 -78 0
-79 -80 0
-79 -81 0
-80 -81 0
-82 -83 0
-82 -84 0
-83 -84 0
-85 -86 0
-85 -87 0
-86 -87 0
-88 -89 0
-88 -90 0
-89 -90 0
-91 -92 0
-91 -93 0
-92 -93 0
-94 -95 0
-94 -96 0
-95 -96 0
-97 -98 0
-97 -99 0
-98 -99 0
-100 -101 0
-100 -102 0
-101 -102 0
-103 -104 0
-103 -105 0
-104 -105 0
-106 -107 0
-106 -108 0
-107 -108 0
-109 -110 0
-109 -111 0
-110 -111 0
-112 -113 0
-112 -114 0
-113 -114 0
-115 -116 0
-115 -117 0
-116 -117 0
-118 -119 0
-118 -120 0
-119 -120 0
-121 -122 0
-121 -123 0
-122 -123 0
-124 -125 0
-124 -126 0
-125 -126 0
-127 -128 0
-127 -129 0
-128 -129 0
-130 -131 0
-130 -132 0
-131 -132 0
-133 -134 0
-133 -135 0
-134 -135 0
-136 -137 0
-136 -138 0
-137 -138 0
-139 -140 0
-139 -141 0
-140 -141 0
-142 -143 0
-142 -144 0
-143 -144 0
-145 -146 0
-145 -147 0
-146 -147 0
-148 -149 0
-148 -150 0
-149 -150 0
-151 -152 0
-151 -153 0
-152 -153 0
-154 -155 0
-154 -156 0
-155 -156 0
-157 -158 0
-157 -159 0
-158 -159 0
-160 -161 0
-160 -162 0
-161 -162 0
-163 -164 0
-163 -165 0
-164 -165 0
-166 -167 0
-166 -168 0
-167 -168 0
-169 -170 0
-169 -171 0
-170 -171 0
-172 -173 0
-172 -174 0
-173 -174 0
-175 -176 0
-175 -177 0
-176 -177 0
-178 -179 0
-178 -180 0
-179 -180 0
-181 -182 0
-181 -183 0
-182 -183 0
-184 -185 0
-184 -186 0
-185 -186 0
-187 -188 0
-187 -189 0
-188 -189 0
-190 -191 0
-190 -192 0
-191 -192 0
-193 -194 0
-193 -195 0
-194 -195 0
-196 -197 0
-196 -198 0
-197 -198 0
-199 -200 0
-199 -201 0
-200 -201 0
-202 -203 0
-202 -204 0
-203 -204 0
-205 -206 0
-205 -207 0
-206 -207 0
-208 -209 0
-208 -210 0
-209 -210 0
-211 -212 0
-211 -213 0
-212 -213 0
-214 -215 0
-214 -216 0
-215 -216 0
-217 -218 0
-217 -219 0
-218 -219 0
-220 -221 0
-220 -222 0
-221 -222 0
-223 -224 0
-223 -225 0
-224 -225 0
-226 -227 0
-226 -228 0
-227 -228 0
-229 -230 0
-229 -231 0
-230 -231 0
-232 -233 0
-232 -234 0
-233 -234 0
-235 -236 0
-235 -237 0
-236 -237 0
-238 -239 0
-238 -240 0
-239 -240 0
-241 -242 0
-241 -243 0
-242 -243 0
-244 -245 0
-244 -246 0
-245 -246 0
-247 -248 0
-247 -249 0
-248 -249 0
-250 -251 0
-250 -252 0
-251 -252 0
-253 -254 0
-253 -255 0
-254 -255 0
-256 -257 0
-256 -258 0
-257 -258 0
-259 -260 0
-259 -261 0
-260 -261 0
-262 -263 0
-262 -264 0
-263 -264 0
-265 -266 0
-265 -267 0
-266 -267 0
-268 -269 0
-268 -270 0
-269 -270 0
-271 -272 0
-271 -273 0
-272 -273 0
-274 -275 0
-274 -276 0
-275 -276 0
-277 -278 0
-277 -279 0
-278 -279 0
-280 -281 0
-280 -282 0
-281 -282 0
-283 -284 0
-283 -285 0
-284 -285 0
-286 -287 0
-286 -288 0
-287 -288 0
-289 -290 0
-289 -291 0
-290 -291 0
-292 -293 0
-292 -294 0
-293 -294 0
-295 -296 0
-295 -297 0
-296 -297 0
-298 -299 0
-298 -300 0
-299 -300 0
-301 -302 0
-301 -303 0
-302 -303 0
-304 -305 0
-304 -306 0
-305 -306 0
-307 -308 0
-307 -309 0
-308 -309 0
-310 -311 0
-310 -312 0
-311 -312 0
-313 -314 0
-313 -315 0
-314 -315 0
-316 -317 0
-316 -318 0
-317 -318 0
-319 -320 0
-319 -321 0
-320 -321 0
-322 -323 0
-322 -324 0
-323 -324 0
-325 -326 0
-325 -327 0
-326 -327 0
-328 -329 0
-328 -330 0
-329 -330 0
-331 -332 0
-331 -333 0
-332 -333 0
-334 -335 0
-334 -336 0
-335 -336 0
-337 -338 0
-337 -339 0
-338 -339 0
-340 -341 0
-340 -342 0
-341 -342 0
-343 -344 0
-343 -345 0
-344 -345 0
-346 -347 0
-346 -348 0
-347 -348 0
-349 -350 0
-349 -351 0
-350 -351 0
-352 -353 0
-352 -354 0
-353 -354 0
-355 -356 0
-355 -357 0
-356 -357 0
-358 -359 0
-358 -360 0
-359 -360 0
-361 -362 0
-361 -363 0
-362 -363 0
-364 -365 0
-364 -366 0
-365 -366 0
-367 -368 0
-367 -369 0
-368 -369 0
-370 -371 0
-370 -372 0
-371 -372 0
-373 -374 0
-373 -375 0
-374 -375 0
-376 -377 0
-376 -378 0
-377 -378 0
-379 -380 0
-379 -381 0
-380 -381 0
-382 -383 0
-382 -384 0
-383 -384 0
-385 -386 0
-385 -387 0
-386 -387 0
-388 -389 0
-388 -390 0
-389 -390 0
-391 -392 0
-391 -393 0
-392 -393 0
-394 -395 0
-394 -396 0
-395 -396 0
-397 -398 0
-397 -399 0
-398 -399 0
-400 -401 0
-400 -402 0
-401 -402 0
-403 -404 0
-403 -405 0
-404 -405 0
-406 -407 0
-406 -408 0
-407 -408 0
-409 -410 0
-409 -411 0
-410 -411 0
-412 -413 0
-412 -414 0
-413 -414 0
-415 -416 0
-415 -417 0
-416 -417 0
-418 -419 0
-418 -420 0
-419 -420 0
-421 -422 0
-421 -423 0
-422 -423 0
-424 -425 0
-424 -426 0
-425 -426 0
-427 -428 0
-427 -429 0
-428 -429 0
-430 -431 0
-430 -432 0
-431 -432 0
-433 -434 0
-433 -435 0
-434 -435 0
-436 -437 0
-436 -438 0
-437 -438 0
-439 -440 0
-439 -441 0
-440 -441 0
-442 -443 0
-442 -444 0
-443 -444 0
-445 -446 0
-445 -447 0
-446 -447 0
-448 -449 0
-448 -450 0
-449 -450 0
-451 -452 0
-451 -453 0
-452 -453 0
-454 -455 0
-454 -456 0
-455 -456 0
-457 -458 0
-457 -459 0
-458 -459 0
-460 -461 0
-460 -462 0
-461 -462 0
-463 -464 0
-463 -465 0
-464 -465 0
-466 -467 0
-466 -468 0
-467 -468 0
-469 -470 0
-469 -471 0
-470 -471 0
-472 -473 0
-472 -474 0
-473 -474 0
-475 -476 0
-475 -477 0
-476 -477 0
-478 -479 0
-478 -480 0
-479 -480 0
-481 -482 0
-481 -483 0
-482 -483 0
-484 -485 0
-484 -486 0
-485 -486 0
-487 -488 0
-487 -489 0
-488 -489 0
-490 -491 0
-490 -492 0
-491 -492 0
-493 -494 0
-493 -495 0
-494 -495 0
-496 -497 0
-496 -498 0
-497 -498 0
-499 -500 0
-499 -501 0
-500 -501 0
-502 -503 0
-502 -504 0
-503 -504 0
-505 -506 0
-505 -507 0
-506 -507 0
-508 -509 0
-508 -510 0
-509 -510 0
-511 -512 0
-511 -513 0
-512 -513 0
-514 -515 0
-514 -516 0
-515 -516 0
-517 -518 0
-517 -519 0
-518 -519 0
-520 -521 0
-520 -522 0
-521 -522 0
-523 -524 0
-523 -525 0
-524 -525 0
-526 -527 0
-526 -528 0
-527 -528 0
-529 -530 0
-529 -531 0
-530 -531 0
-532 -533 0
-532 -534 0
-533 -534 0
-535 -536 0
-535 -537 0
-536 -537 0
-538 -539 0
-538 -540 0
-539 -540 0
-541 -542 0
-541 -543 0
-542 -543 0
-544 -545 0
-544 -546 0
-545 -546 0
-547 -548 0
-547 -549 0
-548 -549 0
-550 -551 0
-550 -552 0
-551 -552 0
-553 -554 0
-553 -555 0
-554 -555 0
-556 -557 0
-556 -558 0
-557 -558 0
-559 -560 0
-559 -561 0
-560 -561 0
-562 -563 0
-562 -564 0
-563 -564 0
-565 -566 0
-565 -567 0
-566 -567 0
-568 -569 0
-568 -570 0
-569 -570 0
-571 -572 0
-571 -573 0
-572 -573 0
-574 -575 0
-574 -576 0
-575 -576 0
-577 -578 0
-577 -579 0
-578 -579 0
-580 -581 0
-580 -582 0
-581 -582 0
-583 -584 0
-583 -585 0
-584 -585 0
-586 -587 0
-586 -588 0
-587 -588 0
-589 -590 0
-589 -591 0
-590 -591 0
-592 -593 0
-592 -594 0
-593 -594 0
-595 -596 0
-595 -597 0
-596 -597 0
-598 -599 0
-598 -600 0
-599 -600 0
-601 -602 0
-601 -603 0
-602 -603 0
-604 -605 0
-604 -606 0
-605 -606 0
-607 -608 0
-607 -609 0
-608 -609 0
-610 -611 0
-610 -612 0
-611 -612 0
-613 -614 0
-613 -615 0
-614 -615 0
-616 -617 0
-616 -618 0
-617 -618 0
-619 -620 0
-619 -621 0
-620 -621 0
-622 -623 0
-622 -624 0
-623 -624 0
-625 -626 0
-625 -627 0
-626 -627 0
-628 -629 0
-628 -630 0
-629 -630 0
-631 -632 0
-631 -633 0
-632 -633 0
-634 -635 0
-634 -636 0
-635 -636 0
-637 -638 0
-637 -639 0
-638 -639 0
-640 -641 0
-640 -642 0
-641 -642 0
-643 -644 0
-643 -645 0
-644 -645 0
-646 -647 0
-646 -648 0
-647 -648 0
-649 -650 0
-649 -651 0
-650 -651 0
-652 -653 0
-652 -654 0
-653 -654 0
-655 -656 0
-655 -657 0
-656 -657 0
-658 -659 0
-658 -660 0
-659 -660 0
-661 -662 0
-661 -663 0
-662 -663 0
-664 -665 0
-664 -666 0
-665 -666 0
-667 -668 0
-667 -669 0
-668 -669 0
-670 -671 0
-670 -672 0
-671 -672 0
-673 -674 0
-673 -675 0
-674 -675 0
-676 -677 0
-676 -678 0
-677 -678 0
-679 -680 0
-679 -681 0
-680 -681 0
-682 -683 0
-682 -684 0
-683 -684 0
-685 -686 0
-685 -687 0
-686 -687 0
-688 -689 0
-688 -690 0
-689 -690 0
-691 -692 0
-691 -693 0
-692 -693 0
-694 -695 0
-694 -696 0
-695 -696 0
-697 -698 0
-697 -699 0
-698 -699 0
-700 -701 0
-700 -702 0
-701 -702 0
-703 -704 0
-703 -705 0
-704 -705 0
-706 -707 0
-706 -708 0
-707 -708 0
-709 -710 0
-709 -711 0
-710 -711 0
-712 -713 0
-712 -714 0
-713 -714 0
-715 -716 0
-715 -717 0
-716 -717 0
-718 -719 0
-718 -720 0
-719 -720 0
-721 -722 0
-721 -723 0
-722 -723 0
-724 -725 0
-724 -726 0
-725 -726 0
-727 -728 0
-727 -729 0
-728 -729 0
-730 -731 0
-730 -732 0
-731 -732 0
-733 -734 0
-733 -735 0
-734 -735 0
-736 -737 0
-736 -738 0
-737 -738 0
-739 -740 0
-739 -741 0
-740 -741 0
-742 -743 0
-742 -744 0
-743 -744 0
-745 -746 0
-745 -747 0
-746 -747 0
-748 -749 0
-748 -750 0
-749 -750 0
-751 -752 0
-751 -753 0
-752 -753 0
-754 -755 0
-754 -756 0
-755 -756 0
-757 -758 0
-757 -759 0
-758 -759 0
-760 -761 0
-760 -762 0
-761 -762 0
-763 -764 0
-763 -765 0
-764 -765 0
-766 -767 0
-766 -768 0
-767 -768 0
-769 -770 0
-769 -771 0
-770 -771 0
-772 -773 0
-772 -774 0
-773 -774 0
-775 -776 0
-775 -777 0
-776 -777 0
-778 -779 0
-778 -780 0
-779 -780 0
-781 -782 0
-781 -783 0
-782 -783 0
-784 -785 0
-784 -786 0
-785 -786 0
-787 -788 0
-787 -789 0
-788 -789 0
-790 -791 0
-790 -792 0
-791 -792 0
-793 -794 0
-793 -795 0
-794 -795 0
-796 -797 0
-796 -798 0
-797 -798 0
-799 -800 0
-799 -801 0
-800 -801 0
-802 -803 0
-802 -804 0
-803 -804 0
-805 -806 0
-805 -807 0
-806 -807 0
-808 -809 0
-808 -810 0
-809 -810 0
-811 -812 0
-811 -813 0
-812 -813 0
-814 -815 0
-814 -816 0
-815 -816 0
-817 -818 0
-817 -819 0
-818 -819 0
-820 -821 0
-820 -822 0
-821 -822 0
-823 -824 0
-823 -825 0
-824 -825 0
-826 -827 0
-826 -828 0
-827 -828 0
-829 -830 0
-829 -831 0
-830 -831 0
-832 -833 0
-832 -834 0
-833 -834 0
-835 -836 0
-835 -837 0
-836 -837 0
-838 -839 0
-838 -840 0
-839 -840 0
-841 -842 0
-841 -843 0
-842 -843 0
-844 -845 0
-844 -846 0
-845 -846 0
-847 -848 0
-847 -849 0
-848 -849 0
-850 -851 0
-850 -852 0
-851 -852 0
-853 -854 0
-853 -855 0
-854 -855 0
-856 -857 0
-856 -858 0
-857 -858 0
-859 -860 0
-859 -861 0
-860 -861 0
-862 -863 0
-862 -864 0
-863 -864 0
-865 -866 0
-865 -867 0
-866 -867 0
-868 -869 0
-868 -870 0
-869 -870 0
-871 -872 0
-871 -873 0
-872 -873 0
-874 -875 0
-874 -876 0
-875 -876 0
-877 -878 0
-877 -879 0
-878 -879 0
-880 -881 0
-880 -882 0
-881 -882 0
-883 -884 0
-883 -885 0
-884 -885 0
-886 -887 0
-886 -888 0
-887 -888 0
-889 -890 0
-889 -891 0
-890 -891 0
-892 -893 0
-892 -894 0
-893 -894 0
-895 -896 0
-895 -897 0
-896 -897 0
-898 -899 0
-898 -900 0
-899 -900 0
-901 -902 0
-901 -903 0
-902 -903 0
-904 -905 0
-904 -906 0
-905 -906 0
-907 -908 0
-907 -909 0
-908 -909 0
-910 -911 0
-910 -912 0
-911 -912 0
-913 -914 0
-913 -915 0
-914 -915 0
-916 -917 0
-916 -918 0
-917 -918 0
-919 -920 0
-919 -921 0
-920 -921 0
-922 -923 0
-922 -924 0
-923 -924 0
-925 -926 0
-925 -927 0
-926 -927 0
-928 -929 0
-928 -930 0
-929 -930 0
-931 -932 0
-931 -933 0
-932 -933 0
-934 -935 0
-934 -936 0
-935 -936 0
-937 -938 0
-937 -939 0
-938 -939 0
-940 -941 0
-940 -942 0
-941 -942 0
-943 -944 0
-943 -945 0
-944 -945 0
-946 -947 0
-946 -948 0
-947 -948 0
-949 -950 0
-949 -951 0
-950 -951 0
-952 -953 0
-952 -954 0
-953 -954 0
-955 -956 0
-955 -957 0
-956 -957 0
-958 -959 0
-958 -960 0
-959 -960 0
-961 -962 0
-961 -963 0
-962 -963 0
-964 -965 0
-964 -966 0
-965 -966 0
-967 -968 0
-967 -969 0
-968 -969 0
-970 -971 0
-970 -972 0
-971 -972 0
-973 -974 0
-973 -975 0
-974 -975 0
-976 -977 0
-976 -978 0
-977 -978 0
-979 -980 0
-979 -981 0
-980 -981 0
-982 -983 0
-982 -984 0
-983 -984 0
-985 -986 0
-985 -987 0
-986 -987 0
-988 -989 0
-988 -990 0
-989 -990 0
-991 -992 0
-991 -993 0
-992 -993 0
-994 -995 0
-994 -996 0
-995 -996 0
-997 -998 0
-997 -999 0
-998 -999 0
-1000 -1001 0
-1000 -1002 0
-1001 -1002 0
-1003 -1004 0
-1003 -1005 0
-1004 -1005 0
-1006 -1007 0
-1006 -1008 0
-1007 -1008 0
-1009 -1010 0
-1009 -1011 0
-1010 -1011 0
-1012 -1013 0
-1012 -1014 0
-1013 -1014 0
-1015 -1016 0
-1015 -1017 0
-1016 -1017 0
-1018 -1019 0
-1018 -1020 0
-1019 -1020 0
-1021 -1022 0
-1021 -1023 0
-1022 -1023 0
-1024 -1025 0
-1024 -1026 0
-1025 -1026 0
-1027 -1028 0
-1027 -1029 0
-1028 -1029 0
-1030 -1031 0
-1030 -1032 0
-1031 -1032 0
-1033 -1034 0
-1033 -1035 0
-1034 -1035 0
-1036 -1037 0
-1036 -1038 0
-1037 -1038 0
-1039 -1040 0
-1039 -1041 0
-1040 -1041 0
-1042 -1043 0
-1042 -1044 0
-1043 -1044 0
-1045 -1046 0
-1045 -1047 0
-1046 -1047 0
-1048 -1049 0
-1048 -1050 0
-1049 -1050 0
-1051 -1052 0
-1051 -1053 0
-1052 -1053 0
-1054 -1055 0
-1054 -1056 0
-1055 -1056 0
-1057 -1058 0
-1057 -1059 0
-1058 -1059 0
-1060 -1061 0
-1060 -1062 0
-1061 -1062 0
-1063 -1064 0
-1063 -1065 0
-1064 -1065 0
-1066 -1067 0
-1066 -1068 0
-1067 -1068 0
-1069 -1070 0
-1069 -1071 0
-1070 -1071 0
-1072 -1073 0
-1072 -1074 0
-1073 -1074 0
-1075 -1076 0
-1075 -1077 0
-1076 -1077 0
-1078 -1079 0
-1078 -1080 0
-1079 -1080 0
-1081 -1082 0
-1081 -1083 0
-1082 -1083 0
-1084 -1085 0
-1084 -1086 0
-1085 -1086 0
-1087 -1088 0
-1087 -1089 0
-1088 -1089 0
-1090 -1091 0
-1090 -1092 0
-1091 -1092 0
-1093 -1094 0
-1093 -1095 0
-1094 -1095 0
-1096 -1097 0
-1096 -1098 0
-1097 -1098 0
-1099 -1100 0
-1099 -1101 0
-1100 -1101 0
-1102 -1103 0
-1102 -1104 0
-1103 -1104 0
-1105 -1106 0
-1105 -1107 0
-1106 -1107 0
-1108 -1109 0
-1108 -1110 0
-1109 -1110 0
-1111 -1112 0
-1111 -1113 0
-1112 -1113 0
-1114 -1115 0
-1114 -1116 0
-1115 -1116 0
-1117 -1118 0
-1117 -1119 0
-1118 -1119 0
-1120 -1121 0
-1120 -1122 0
-1121 -1122 0
-1123 -1124 0
-1123 -1125 0
-1124 -1125 0
-1126 -1127 0
-1126 -1128 0
-1127 -1128 0
-1129 -1130 0
-1129 -1131 0
-1130 -1131 0
-1132 -1133 0
-1132 -1134 0
-1133 -1134 0
-1135 -1136 0
-1135 -1137 0
-1136 -1137 0
-1138 -1139 0
-1138 -1140 0
-1139 -1140 0
-1141 -1142 0
-1141 -1143 0
-1142 -1143 0
-1144 -1145 0
-1144 -1146 0
-1145 -1146 0
-1147 -1148 0
-1147 -1149 0
-1148 -1149 0
-1150 -1151 0
-1150 -1152 0
-1151 -1152 0
-1153 -1154 0
-1153 -1155 0
-1154 -1155 0
-1156 -1157 0
-1156 -1158 0
-1157 -1158 0
-1159 -1160 0
-1159 -1161 0
-1160 -1161 0
-1162 -1163 0
-1162 -1164 0
-1163 -1164 0
-1165 -1166 0
-1165 -1167 0
-1166 -1167 0
-1168 -1169 0
-1168 -1170 0
-1169 -1170 0
-1171 -1172 0
-1171 -1173 0
-1172 -1173 0
-1174 -1175 0
-1174 -1176 0
-1175 -1176 0
-1177 -1178 0
-1177 -1179 0
-1178 -1179 0
-1180 -1181 0
-1180 -1182 0
-1181 -1182 0
-1183 -1184 0
-1183 -1185 0
-1184 -1185 0
-1186 -1187 0
-1186 -1188 0
-1187 -1188 0
-1189 -1190 0
-1189 -1191 0
-1190 -1191 0
-1192 -1193 0
-1192 -1194 0
-1193 -1194 0
-1195 -1196 0
-1195 -1197 0
-1196 -1197 0
-1198 -1199 0
-1198 -1200 0
-1199 -1200 0
-1 -115 0
-2 -116 0
-3 -117 0
-1 -664 0
-2 -665 0
-3 -666 0
-1 -841 0
-2 -842 0
-3 -843 0
-1 -1108 0
-2 -1109 0
-3 -1110 0
-4 -160 0
-5 -161 0
-6 -162 0
-4 -256 0
-5 -257 0
-6 -258 0
-4 -331 0
-5 -332 0
-6 -333 0
-4 -781 0
-5 -782 0
-6 -783 0
-7 -91 0
-8 -92 0
-9 -93 0
-7 -472 0
-8 -473 0
-9 -474 0
-7 -691 0
-8 -692 0
-9 -693 0
-7 -928 0
-8 -929 0
-9 -930 0
-10 -103 0
-11 -104 0
-12 -105 0
-10 -211 0
-11 -212 0
-12 -213 0
-10 -292 0
-11 -293 0
-12 -294 0
-10 -532 0
-11 -533 0
-12 -534 0
-10 -538 0
-11 -539 0
-12 -540 0
-10 -679 0
-11 -680 0
-12 -681 0
-10 -895 0
-11 -896 0
-12 -897 0
-10 -901 0
-11 -902 0
-12 -903 0
-10 -1111 0
-11 -1112 0
-12 -1113 0
-13 -1027 0
-14 -1028 0
-15 -1029 0
-16 -238 0
-17 -239 0
-18 -240 0
-16 -265 0
-17 -266 0
-18 -267 0
-16 -292 0
-17 -293 0
-18 -294 0
-16 -730 0
-17 -731 0
-18 -732 0
-19 -391 0
-20 -392 0
-21 -393 0
-19 -517 0
-20 -518 0
-21 -519 0
-19 -595 0
-20 -596 0
-21 -597 0
-19 -826 0
-20 -827 0
-21 -828 0
-19 -994 0
-20 -995 0
-21 -996 0
-19 -1183 0
-20 -1184 0
-21 -1185 0
-22 -40 0
-23 -41 0
-24 -42 0
-22 -328 0
-23 -329 0
-24 -330 0
-22 -754 0
-23 -755 0
-24 -756 0
-22 -910 0
-23 -911 0
-24 -912 0
-22 -1189 0
-23 -1190 0
-24 -1191 0
-25 -46 0
-26 -47 0
-27 -48 0
-25 -109 0
-26 -110 0
-27 -111 0
-25 -724 0
-26 -725 0
-27 -726 0
-25 -850 0
-26 -851 0
-27 -852 0
-25 -997 0
-26 -998 0
-27 -999 0
-28 -34 0
-29 -35 0
-30 -36 0
-28 -160 0
-29 -161 0
-30 -162 0
-28 -346 0
-29 -347 0
-30 -348 0
-28 -550 0
-29 -551 0
-30 -552 0
-28 -886 0
-29 -887 0
-30 -888 0
-31 -121 0
-32 -122 0
-33 -123 0
-31 -130 0
-32 -131 0
-33 -132 0
-31 -886 0
-32 -887 0
-33 -888 0
-31 -1069 0
-32 -1070 0
-33 -1071 0
-34 -193 0
-35 -194 0
-36 -195 0
-34 -982 0
-35 -983 0
-36 -984 0
-34 -1003 0
-35 -1004 0
-36 -1005 0
-34 -1150 0
-35 -1151 0
-36 -1152 0
-37 -121 0
-38 -122 0
-39 -123 0
-37 -205 0
-38 -206 0
-39 -207 0
-37 -952 0
-38 -953 0
-39 -954 0
-37 -982 0
-38 -983 0
-39 -984 0
-40 -427 0
-41 -428 0
-42 -429 0
-40 -1171 0
-41 -1172 0
-42 -1173 0
-40 -1198 0
-41 -1199 0
-42 -1200 0
-43 -742 0
-44 -743 0
-45 -744 0
-43 -1063 0
-44 -1064 0
-45 -1065 0
-46 -346 0
-47 -347 0
-48 -348 0
-46 -700 0
-47 -701 0
-48 -702 0
-46 -814 0
-47 -815 0
-48 -816 0
-46 -901 0
-47 -902 0
-48 -903 0
-49 -67 0
-50 -68 0
-51 -69 0
-49 -388 0
-50 -389 0
-51 -390 0
-49 -574 0
-50 -575 0
-51 -576 0
-49 -625 0
-50 -626 0
-51 -627 0
-49 -763 0
-50 -764 0
-51 -765 0
-49 -1174 0
-50 -1175 0
-51 -1176 0
-52 -238 0
-53 -239 0
-54 -240 0
-52 -247 0
-53 -248 0
-54 -249 0
-52 -427 0
-53 -428 0
-54 -429 0
-52 -643 0
-53 -644 0
-54 -645 0
-52 -667 0
-53 -668 0
-54 -669 0
-52 -901 0
-53 -902 0
-54 -903 0
-52 -946 0
-53 -947 0
-54 -948 0
-52 -973 0
-53 -974 0
-54 -975 0
-52 -976 0
-53 -977 0
-54 -978 0
-52 -1141 0
-53 -1142 0
-54 -1143 0
-55 -100 0
-56 -101 0
-57 -102 0
-55 -235 0
-56 -236 0
-57 -237 0
-55 -277 0
-56 -278 0
-57 -279 0
-55 -361 0
-56 -362 0
-57 -363 0
-55 -403 0
-56 -404 0
-57 -405 0
-55 -1126 0
-56 -1127 0
-57 -1128 0
-58 -358 0
-59 -359 0
-60 -360 0
-58 -1126 0
-59 -1127 0
-60 -1128 0
-61 -427 0
-62 -428 0
-63 -429 0
-61 -703 0
-62 -704 0
-63 -705 0
-61 -1138 0
-62 -1139 0
-63 -1140 0
-64 -490 0
-65 -491 0
-66 -492 0
-64 -751 0
-65 -752 0
-66 -753 0
-64 -1126 0
-65 -1127 0
-66 -1128 0
-67 -226 0
-68 -227 0
-69 -228 0
-67 -322 0
-68 -323 0
-69 -324 0
-67 -640 0
-68 -641 0
-69 -642 0
-67 -802 0
-68 -803 0
-69 -804 0
-67 -1156 0
-68 -1157 0
-69 -1158 0
-70 -232 0
-71 -233 0
-72 -234 0
-70 -274 0
-71 -275 0
-72 -276 0
-70 -352 0
-71 -353 0
-72 -354 0
-70 -571 0
-71 -572 0
-72 -573 0
-70 -1033 0
-71 -1034 0
-72 -1035 0
-73 -412 0
-74 -413 0
-75 -414 0
-73 -436 0
-74 -437 0
-75 -438 0
-73 -871 0
-74 -872 0
-75 -873 0
-73 -1153 0
-74 -1154 0
-75 -1155 0
-76 -457 0
-77 -458 0
-78 -459 0
-76 -571 0
-77 -572 0
-78 -573 0
-76 -637 0
-77 -638 0
-78 -639 0
-76 -685 0
-77 -686 0
-78 -687 0
-76 -865 0
-77 -866 0
-78 -867 0
-76 -1144 0
-77 -1145 0
-78 -1146 0
-79 -298 0
-80 -299 0
-81 -300 0
-79 -442 0
-80 -443 0
-81 -444 0
-79 -565 0
-80 -566 0
-81 -567 0
-79 -718 0
-80 -719 0
-81 -720 0
-79 -781 0
-80 -782 0
-81 -783 0
-82 -871 0
-83 -872 0
-84 -873 0
-82 -877 0
-83 -878 0
-84 -879 0
-85 -238 0
-86 -239 0
-87 -240 0
-85 -304 0
-86 -305 0
-87 -306 0
-85 -604 0
-86 -605 0
-87 -606 0
-85 -910 0
-86 -911 0
-87 -912 0
-85 -949 0
-86 -950 0
-87 -951 0
-85 -967 0
-86 -968 0
-87 -969 0
-85 -988 0
-86 -989 0
-87 -990 0
-85 -1069 0
-86 -1070 0
-87 -1071 0
-85 -1078 0
-86 -1079 0
-87 -1080 0
-88 -424 0
-89 -425 0
-90 -426 0
-88 -703 0
-89 -704 0
-90 -705 0
-88 -820 0
-89 -821 0
-90 -822 0
-91 -1042 0
-92 -1043 0
-93 -1044 0
-94 -160 0
-95 -161 0
-96 -162 0
-94 -433 0
-95 -434 0
-96 -435 0
-94 -622 0
-95 -623 0
-96 -624 0
-94 -1168 0
-95 -1169 0
-96 -1170 0
-97 -139 0
-98 -140 0
-99 -141 0
-97 -169 0
-98 -170 0
-99 -171 0
-97 -187 0
-98 -188 0
-99 -189 0
-97 -694 0
-98 -695 0
-99 -696 0
-97 -709 0
-98 -710 0
-99 -711 0
-97 -763 0
-98 -764 0
-99 -765 0
-97 -892 0
-98 -893 0
-99 -894 0
-97 -1081 0
-98 -1082 0
-99 -1083 0
-97 -1084 0
-98 -1085 0
-99 -1086 0
-100 -475 0
-101 -476 0
-102 -477 0
-100 -664 0
-101 -665 0
-102 -666 0
-100 -1048 0
-101 -1049 0
-102 -1050 0
-103 -787 0
-104 -788 0
-105 -789 0
-103 -955 0
-104 -956 0
-105 -957 0
-103 -1090 0
-104 -1091 0
-105 -1092 0
-106 -319 0
-107 -320 0
-108 -321 0
-106 -361 0
-107 -362 0
-108 -363 0
-106 -388 0
-107 -389 0
-108 -390 0
-106 -454 0
-107 -455 0
-108 -456 0
-106 -502 0
-107 -503 0
-108 -504 0
-106 -601 0
-107 -602 0
-108 -603 0
-106 -979 0
-107 -980 0
-108 -981 0
-109 -385 0
-110 -386 0
-111 -387 0
-109 -604 0
-110 -605 0
-111 -606 0
-109 -760 0
-110 -761 0
-111 -762 0
-109 -892 0
-110 -893 0
-111 -894 0
-112 -280 0
-113 -281 0
-114 -282 0
-112 -364 0
-113 -365 0
-114 -366 0
-112 -859 0
-113 -860 0
-114 -861 0
-112 -1168 0
-113 -1169 0
-114 -1170 0
-115 -280 0
-116 -281 0
-117 -282 0
-115 -511 0
-116 -512 0
-117 -513 0
-115 -550 0
-116 -551 0
-117 -552 0
-115 -634 0
-116 -635 0
-117 -636 0
-115 -838 0
-116 -839 0
-117 -840 0
-115 -1147 0
-116 -1148 0
-117 -1149 0
-118 -256 0
-119 -257 0
-120 -258 0
-118 -322 0
-119 -323 0
-120 -324 0
-118 -340 0
-119 -341 0
-120 -342 0
-118 -730 0
-119 -731 0
-120 -732 0
-118 -841 0
-119 -842 0
-120 -843 0
-118 -976 0
-119 -977 0
-120 -978 0
-121 -1120 0
-122 -1121 0
-123 -1122 0
-121 -1123 0
-122 -1124 0
-123 -1125 0
-124 -127 0
-125 -128 0
-126 -129 0
-124 -145 0
-125 -146 0
-126 -147 0
-124 -934 0
-125 -935 0
-126 -936 0
-127 -346 0
-128 -347 0
-129 -348 0
-127 -532 0
-128 -533 0
-129 -534 0
-127 -640 0
-128 -641 0
-129 -642 0
-127 -1042 0
-128 -1043 0
-129 -1044 0
-130 -256 0
-131 -257 0
-132 -258 0
-130 -403 0
-131 -404 0
-132 -405 0
-130 -469 0
-131 -470 0
-132 -471 0
-130 -643 0
-131 -644 0
-132 -645 0
-130 -658 0
-131 -659 0
-132 -660 0
-130 -1147 0
-131 -1148 0
-132 -1149 0
-133 -244 0
-134 -245 0
-135 -246 0
-133 -343 0
-134 -344 0
-135 -345 0
-133 -388 0
-134 -389 0
-135 -390 0
-133 -538 0
-134 -539 0
-135 -540 0
-133 -712 0
-134 -713 0
-135 -714 0
-133 -856 0
-134 -857 0
-135 -858 0
-133 -907 0
-134 -908 0
-135 -909 0
-136 -460 0
-137 -461 0
-138 -462 0
-136 -703 0
-137 -704 0
-138 -705 0
-136 -730 0
-137 -731 0
-138 -732 0
-136 -967 0
-137 -968 0
-138 -969 0
-139 -226 0
-140 -227 0
-141 -228 0
-139 -322 0
-140 -323 0
-141 -324 0
-139 -367 0
-140 -368 0
-141 -369 0
-139 -445 0
-140 -446 0
-141 -447 0
-139 -727 0
-140 -728 0
-141 -729 0
-139 -934 0
-140 -935 0
-141 -936 0
-142 -472 0
-143 -473 0
-144 -474 0
-142 -511 0
-143 -512 0
-144 -513 0
-145 -226 0
-146 -227 0
-147 -228 0
-145 -712 0
-146 -713 0
-147 -714 0
-148 -166 0
-149 -167 0
-150 -168 0
-148 -352 0
-149 -353 0
-150 -354 0
-148 -385 0
-149 -386 0
-150 -387 0
-151 -436 0
-152 -437 0
-153 -438 0
-151 -727 0
-152 -728 0
-153 -729 0
-154 -355 0
-155 -356 0
-156 -357 0
-154 -427 0
-155 -428 0
-156 -429 0
-154 -697 0
-155 -698 0
-156 -699 0
-154 -1099 0
-155 -1100 0
-156 -1101 0
-154 -1183 0
-155 -1184 0
-156 -1185 0
-157 -310 0
-158 -311 0
-159 -312 0
-157 -316 0
-158 -317 0
-159 -318 0
-157 -829 0
-158 -830 0
-159 -831 0
-157 -922 0
-158 -923 0
-159 -924 0
-157 -1057 0
-158 -1058 0
-159 -1059 0
-157 -1141 0
-158 -1142 0
-159 -1143 0
-160 -487 0
-161 -488 0
-162 -489 0
-160 -610 0
-161 -611 0
-162 -612 0
-160 -844 0
-161 -845 0
-162 -846 0
-160 -1171 0
-161 -1172 0
-162 -1173 0
-163 -742 0
-164 -743 0
-165 -744 0
-163 -1123 0
-164 -1124 0
-165 -1125 0
-166 -433 0
-167 -434 0
-168 -435 0
-166 -856 0
-167 -857 0
-168 -858 0
-166 -1060 0
-167 -1061 0
-168 -1062 0
-166 -1156 0
-167 -1157 0
-168 -1158 0
-169 -322 0
-170 -323 0
-171 -324 0
-169 -784 0
-170 -785 0
-171 -786 0
-169 -949 0
-170 -950 0
-171 -951 0
-172 -424 0
-173 -425 0
-174 -426 0
-172 -604 0
-173 -605 0
-174 -606 0
-172 -823 0
-173 -824 0
-174 -825 0
-175 -379 0
-176 -380 0
-177 -381 0
-175 -1045 0
-176 -1046 0
-177 -1047 0
-178 -232 0
-179 -233 0
-180 -234 0
-178 -313 0
-179 -314 0
-180 -315 0
-178 -448 0
-179 -449 0
-180 -450 0
-178 -745 0
-179 -746 0
-180 -747 0
-181 -250 0
-182 -251 0
-183 -252 0
-181 -580 0
-182 -581 0
-183 -582 0
-181 -760 0
-182 -761 0
-183 -762 0
-181 -1042 0
-182 -1043 0
-183 -1044 0
-181 -1048 0
-182 -1049 0
-183 -1050 0
-181 -1072 0
-182 -1073 0
-183 -1074 0
-184 -289 0
-185 -290 0
-186 -291 0
-184 -322 0
-185 -323 0
-186 -324 0
-184 -379 0
-185 -380 0
-186 -381 0
-184 -421 0
-185 -422 0
-186 -423 0
-184 -1141 0
-185 -1142 0
-186 -1143 0
-187 -238 0
-188 -239 0
-189 -240 0
-187 -520 0
-188 -521 0
-189 -522 0
-187 -1000 0
-188 -1001 0
-189 -1002 0
-190 -196 0
-191 -197 0
-192 -198 0
-190 -439 0
-191 -440 0
-192 -441 0
-190 -526 0
-191 -527 0
-192 -528 0
-190 -730 0
-191 -731 0
-192 -732 0
-190 -1090 0
-191 -1091 0
-192 -1092 0
-190 -1162 0
-191 -1163 0
-192 -1164 0
-193 -949 0
-194 -950 0
-195 -951 0
-196 -1183 0
-197 -1184 0
-198 -1185 0
-199 -403 0
-200 -404 0
-201 -405 0
-199 -733 0
-200 -734 0
-201 -735 0
-199 -814 0
-200 -815 0
-201 -816 0
-199 -1003 0
-200 -1004 0
-201 -1005 0
-202 -385 0
-203 -386 0
-204 -387 0
-202 -1003 0
-203 -1004 0
-204 -1005 0
-202 -1021 0
-203 -1022 0
-204 -1023 0
-205 -547 0
-206 -548 0
-207 -549 0
-208 -982 0
-209 -983 0
-210 -984 0
-208 -1036 0
-209 -1037 0
-210 -1038 0
-208 -1108 0
-209 -1109 0
-210 -1110 0
-211 -247 0
-212 -248 0
-213 -249 0
-211 -325 0
-212 -326 0
-213 -327 0
-211 -430 0
-212 -431 0
-213 -432 0
-211 -853 0
-212 -854 0
-213 -855 0
-214 -307 0
-215 -308 0
-216 -309 0
-214 -625 0
-215 -626 0
-216 -627 0
-214 -643 0
-215 -644 0
-216 -645 0
-214 -841 0
-215 -842 0
-216 -843 0
-214 -886 0
-215 -887 0
-216 -888 0
-214 -1054 0
-215 -1055 0
-216 -1056 0
-214 -1069 0
-215 -1070 0
-216 -1071 0
-217 -637 0
-218 -638 0
-219 -639 0
-217 -1057 0
-218 -1058 0
-219 -1059 0
-220 -529 0
-221 -530 0
-222 -531 0
-220 -619 0
-221 -620 0
-222 -621 0
-220 -766 0
-221 -767 0
-222 -768 0
-220 -925 0
-221 -926 0
-222 -927 0
-220 -976 0
-221 -977 0
-222 -978 0
-220 -1159 0
-221 -1160 0
-222 -1161 0
-223 -340 0
-224 -341 0
-225 -342 0
-223 -526 0
-224 -527 0
-225 -528 0
-223 -706 0
-224 -707 0
-225 -708 0
-226 -289 0
-227 -290 0
-228 -291 0
-226 -415 0
-227 -416 0
-228 -417 0
-226 -454 0
-227 -455 0
-228 -456 0
-226 -469 0
-227 -470 0
-228 -471 0
-226 -1156 0
-227 -1157 0
-228 -1158 0
-229 -406 0
-230 -407 0
-231 -408 0
-229 -490 0
-230 -491 0
-231 -492 0
-232 -247 0
-233 -248 0
-234 -249 0
-232 -301 0
-233 -302 0
-234 -303 0
-232 -556 0
-233 -557 0
-234 -558 0
-232 -802 0
-233 -803 0
-234 -804 0
-232 -820 0
-233 -821 0
-234 -822 0
-232 -1114 0
-233 -1115 0
-234 -1116 0
-235 -922 0
-236 -923 0
-237 -924 0
-235 -1114 0
-236 -1115 0
-237 -1116 0
-238 -718 0
-239 -719 0
-240 -720 0
-241 -307 0
-242 -308 0
-243 -309 0
-241 -622 0
-242 -623 0
-243 -624 0
-241 -655 0
-242 -656 0
-243 -657 0
-241 -697 0
-242 -698 0
-243 -699 0
-241 -700 0
-242 -701 0
-243 -702 0
-241 -718 0
-242 -719 0
-243 -720 0
-241 -904 0
-242 -905 0
-243 -906 0
-244 -964 0
-245 -965 0
-246 -966 0
-244 -1135 0
-245 -1136 0
-246 -1137 0
-247 -547 0
-248 -548 0
-249 -549 0
-247 -586 0
-248 -587 0
-249 -588 0
-247 -601 0
-248 -602 0
-249 -603 0
-247 -748 0
-248 -749 0
-249 -750 0
-250 -334 0
-251 -335 0
-252 -336 0
-250 -457 0
-251 -458 0
-252 -459 0
-250 -940 0
-251 -941 0
-252 -942 0
-250 -1012 0
-251 -1013 0
-252 -1014 0
-250 -1147 0
-251 -1148 0
-252 -1149 0
-253 -889 0
-254 -890 0
-255 -891 0
-253 -1186 0
-254 -1187 0
-255 -1188 0
-253 -1189 0
-254 -1190 0
-255 -1191 0
-256 -337 0
-257 -338 0
-258 -339 0
-256 -604 0
-257 -605 0
-258 -606 0
-259 -298 0
-260 -299 0
-261 -300 0
-259 -1075 0
-260 -1076 0
-261 -1077 0
-262 -313 0
-263 -314 0
-264 -315 0
-262 -445 0
-263 -446 0
-264 -447 0
-262 -685 0
-263 -686 0
-264 -687 0
-265 -601 0
-266 -602 0
-267 -603 0
-265 -649 0
-266 -650 0
-267 -651 0
-265 -838 0
-266 -839 0
-267 -840 0
-268 -403 0
-269 -404 0
-270 -405 0
-268 -622 0
-269 -623 0
-270 -624 0
-268 -976 0
-269 -977 0
-270 -978 0
-271 -502 0
-272 -503 0
-273 -504 0
-271 -1066 0
-272 -1067 0
-273 -1068 0
-274 -1060 0
-275 -1061 0
-276 -1062 0
-277 -412 0
-278 -413 0
-279 -414 0
-277 -595 0
-278 -596 0
-279 -597 0
-277 -889 0
-278 -890 0
-279 -891 0
-277 -1060 0
-278 -1061 0
-279 -1062 0
-277 -1072 0
-278 -1073 0
-279 -1074 0
-280 -325 0
-281 -326 0
-282 -327 0
-280 -919 0
-281 -920 0
-282 -921 0
-283 -313 0
-284 -314 0
-285 -315 0
-283 -427 0
-284 -428 0
-285 -429 0
-283 -472 0
-284 -473 0
-285 -474 0
-283 -856 0
-284 -857 0
-285 -858 0
-283 -1144 0
-284 -1145 0
-285 -1146 0
-286 -775 0
-287 -776 0
-288 -777 0
-286 -934 0
-287 -935 0
-288 -936 0
-286 -1129 0
-287 -1130 0
-288 -1131 0
-289 -307 0
-290 -308 0
-291 -309 0
-289 -535 0
-290 -536 0
-291 -537 0
-289 -613 0
-290 -614 0
-291 -615 0
-289 -931 0
-290 -932 0
-291 -933 0
-292 -538 0
-293 -539 0
-294 -540 0
-292 -679 0
-293 -680 0
-294 -681 0
-292 -775 0
-293 -776 0
-294 -777 0
-292 -1057 0
-293 -1058 0
-294 -1059 0
-298 -1126 0
-299 -1127 0
-300 -1128 0
-298 -1186 0
-299 -1187 0
-300 -1188 0
-301 -382 0
-302 -383 0
-303 -384 0
-301 -523 0
-302 -524 0
-303 -525 0
-301 -712 0
-302 -713 0
-303 -714 0
-301 -895 0
-302 -896 0
-303 -897 0
-301 -928 0
-302 -929 0
-303 -930 0
-301 -1036 0
-302 -1037 0
-303 -1038 0
-304 -412 0
-305 -413 0
-306 -414 0
-304 -637 0
-305 -638 0
-306 -639 0
-304 -685 0
-305 -686 0
-306 -687 0
-304 -964 0
-305 -965 0
-306 -966 0
-304 -1006 0
-305 -1007 0
-306 -1008 0
-304 -1183 0
-305 -1184 0
-306 -1185 0
-307 -349 0
-308 -350 0
-309 -351 0
-307 -481 0
-308 -482 0
-309 -483 0
-307 -550 0
-308 -551 0
-309 -552 0
-307 -673 0
-308 -674 0
-309 -675 0
-307 -778 0
-308 -779 0
-309 -780 0
-307 -799 0
-308 -800 0
-309 -801 0
-307 -1069 0
-308 -1070 0
-309 -1071 0
-307 -1138 0
-308 -1139 0
-309 -1140 0
-310 -376 0
-311 -377 0
-312 -378 0
-310 -1099 0
-311 -1100 0
-312 -1101 0
-313 -460 0
-314 -461 0
-315 -462 0
-313 -649 0
-314 -650 0
-315 -651 0
-313 -817 0
-314 -818 0
-315 -819 0
-313 -841 0
-314 -842 0
-315 -843 0
-313 -1018 0
-314 -1019 0
-315 -1020 0
-313 -1087 0
-314 -1088 0
-315 -1089 0
-316 -766 0
-317 -767 0
-318 -768 0
-316 -877 0
-317 -878 0
-318 -879 0
-316 -940 0
-317 -941 0
-318 -942 0
-319 -418 0
-320 -419 0
-321 -420 0
-319 -559 0
-320 -560 0
-321 -561 0
-319 -643 0
-320 -644 0
-321 -645 0
-319 -1141 0
-320 -1142 0
-321 -1143 0
-322 -589 0
-323 -590 0
-324 -591 0
-322 -685 0
-323 -686 0
-324 -687 0
-322 -742 0
-323 -743 0
-324 -744 0
-322 -895 0
-323 -896 0
-324 -897 0
-322 -904 0
-323 -905 0
-324 -906 0
-325 -676 0
-326 -677 0
-327 -678 0
-325 -715 0
-326 -716 0
-327 -717 0
-325 -907 0
-326 -908 0
-327 -909 0
-325 -994 0
-326 -995 0
-327 -996 0
-325 -1171 0
-326 -1172 0
-327 -1173 0
-328 -481 0
-329 -482 0
-330 -483 0
-328 -958 0
-329 -959 0
-330 -960 0
-331 -574 0
-332 -575 0
-333 -576 0
-331 -856 0
-332 -857 0
-333 -858 0
-331 -907 0
-332 -908 0
-333 -909 0
-331 -1060 0
-332 -1061 0
-333 -1062 0
-334 -340 0
-335 -341 0
-336 -342 0
-334 -433 0
-335 -434 0
-336 -435 0
-334 -679 0
-335 -680 0
-336 -681 0
-337 -598 0
-338 -599 0
-339 -600 0
-337 -604 0
-338 -605 0
-339 -606 0
-337 -634 0
-338 -635 0
-339 -636 0
-337 -673 0
-338 -674 0
-339 -675 0
-337 -814 0
-338 -815 0
-339 -816 0
-337 -823 0
-338 -824 0
-339 -825 0
-337 -853 0
-338 -854 0
-339 -855 0
-340 -1102 0
-341 -1103 0
-342 -1104 0
-343 -442 0
-344 -443 0
-345 -444 0
-343 -478 0
-344 -479 0
-345 -480 0
-343 -526 0
-344 -527 0
-345 -528 0
-343 -910 0
-344 -911 0
-345 -912 0
-346 -379 0
-347 -380 0
-348 -381 0
-346 -1006 0
-347 -1007 0
-348 -1008 0
-349 -535 0
-350 -536 0
-351 -537 0
-349 -664 0
-350 -665 0
-351 -666 0
-349 -934 0
-350 -935 0
-351 -936 0
-349 -1117 0
-350 -1118 0
-351 -1119 0
-349 -1180 0
-350 -1181 0
-351 -1182 0
-352 -421 0
-353 -422 0
-354 -423 0
-352 -556 0
-353 -557 0
-354 -558 0
-352 -1105 0
-353 -1106 0
-354 -1107 0
-355 -442 0
-356 -443 0
-357 -444 0
-355 -787 0
-356 -788 0
-357 -789 0
-355 -1003 0
-356 -1004 0
-357 -1005 0
-355 -1060 0
-356 -1061 0
-357 -1062 0
-355 -1144 0
-356 -1145 0
-357 -1146 0
-358 -502 0
-359 -503 0
-360 -504 0
-358 -586 0
-359 -587 0
-360 -588 0
-358 -613 0
-359 -614 0
-360 -615 0
-358 -751 0
-359 -752 0
-360 -753 0
-358 -757 0
-359 -758 0
-360 -759 0
-358 -1069 0
-359 -1070 0
-360 -1071 0
-358 -1171 0
-359 -1172 0
-360 -1173 0
-361 -736 0
-362 -737 0
-363 -738 0
-361 -892 0
-362 -893 0
-363 -894 0
-364 -385 0
-365 -386 0
-366 -387 0
-364 -487 0
-365 -488 0
-366 -489 0
-364 -679 0
-365 -680 0
-366 -681 0
-367 -733 0
-368 -734 0
-369 -735 0
-367 -1024 0
-368 -1025 0
-369 -1026 0
-370 -454 0
-371 -455 0
-372 -456 0
-370 -916 0
-371 -917 0
-372 -918 0
-373 -577 0
-374 -578 0
-375 -579 0
-373 -700 0
-374 -701 0
-375 -702 0
-373 -712 0
-374 -713 0
-375 -714 0
-376 -397 0
-377 -398 0
-378 -399 0
-376 -460 0
-377 -461 0
-378 -462 0
-376 -607 0
-377 -608 0
-378 -609 0
-376 -694 0
-377 -695 0
-378 -696 0
-376 -919 0
-377 -920 0
-378 -921 0
-379 -784 0
-380 -785 0
-381 -786 0
-379 -826 0
-380 -827 0
-381 -828 0
-379 -955 0
-380 -956 0
-381 -957 0
-379 -1030 0
-380 -1031 0
-381 -1032 0
-382 -568 0
-383 -569 0
-384 -570 0
-382 -658 0
-383 -659 0
-384 -660 0
-382 -997 0
-383 -998 0
-384 -999 0
-382 -1015 0
-383 -1016 0
-384 -1017 0
-385 -964 0
-386 -965 0
-387 -966 0
-385 -1054 0
-386 -1055 0
-387 -1056 0
-388 -895 0
-389 -896 0
-390 -897 0
-391 -511 0
-392 -512 0
-393 -513 0
-391 -535 0
-392 -536 0
-393 -537 0
-391 -1156 0
-392 -1157 0
-393 -1158 0
-391 -1168 0
-392 -1169 0
-393 -1170 0
-394 -724 0
-395 -725 0
-396 -726 0
-397 -718 0
-398 -719 0
-399 -720 0
-397 -739 0
-398 -740 0
-399 -741 0
-397 -820 0
-398 -821 0
-399 -822 0
-397 -1015 0
-398 -1016 0
-399 -1017 0
-400 -742 0
-401 -743 0
-402 -744 0
-400 -1021 0
-401 -1022 0
-402 -1023 0
-403 -559 0
-404 -560 0
-405 -561 0
-403 -1159 0
-404 -1160 0
-405 -1161 0
-406 -442 0
-407 -443 0
-408 -444 0
-406 -457 0
-407 -458 0
-408 -459 0
-406 -472 0
-407 -473 0
-408 -474 0
-406 -928 0
-407 -929 0
-408 -930 0
-406 -1000 0
-407 -1001 0
-408 -1002 0
-409 -499 0
-410 -500 0
-411 -501 0
-409 -589 0
-410 -590 0
-411 -591 0
-409 -826 0
-410 -827 0
-411 -828 0
-409 -871 0
-410 -872 0
-411 -873 0
-409 -898 0
-410 -899 0
-411 -900 0
-412 -955 0
-413 -956 0
-414 -957 0
-412 -967 0
-413 -968 0
-414 -969 0
-415 -445 0
-416 -446 0
-417 -447 0
-415 -646 0
-416 -647 0
-417 -648 0
-415 -763 0
-416 -764 0
-417 -765 0
-415 -847 0
-416 -848 0
-417 -849 0
-415 -910 0
-416 -911 0
-417 -912 0
-415 -952 0
-416 -953 0
-417 -954 0
-418 -469 0
-419 -470 0
-420 -471 0
-418 -856 0
-419 -857 0
-420 -858 0
-418 -916 0
-419 -917 0
-420 -918 0
-418 -1150 0
-419 -1151 0
-420 -1152 0
-421 -604 0
-422 -605 0
-423 -606 0
-421 -622 0
-422 -623 0
-423 -624 0
-421 -895 0
-422 -896 0
-423 -897 0
-424 -1066 0
-425 -1067 0
-426 -1068 0
-427 -706 0
-428 -707 0
-429 -708 0
-427 -871 0
-428 -872 0
-429 -873 0
-427 -997 0
-428 -998 0
-429 -999 0
-430 -856 0
-431 -857 0
-432 -858 0
-430 -1123 0
-431 -1124 0
-432 -1125 0
-433 -754 0
-434 -755 0
-435 -756 0
-433 -1078 0
-434 -1079 0
-435 -1080 0
-436 -631 0
-437 -632 0
-438 -633 0
-439 -727 0
-440 -728 0
-441 -729 0
-439 -1006 0
-440 -1007 0
-441 -1008 0
-442 -475 0
-443 -476 0
-444 -477 0
-442 -601 0
-443 -602 0
-444 -603 0
-442 -1042 0
-443 -1043 0
-444 -1044 0
-445 -592 0
-446 -593 0
-447 -594 0
-445 -760 0
-446 -761 0
-447 -762 0
-445 -940 0
-446 -941 0
-447 -942 0
-445 -979 0
-446 -980 0
-447 -981 0
-445 -985 0
-446 -986 0
-447 -987 0
-448 -640 0
-449 -641 0
-450 -642 0
-448 -694 0
-449 -695 0
-450 -696 0
-448 -880 0
-449 -881 0
-450 -882 0
-448 -1111 0
-449 -1112 0
-450 -1113 0
-448 -1183 0
-449 -1184 0
-450 -1185 0
-451 -475 0
-452 -476 0
-453 -477 0
-451 -547 0
-452 -548 0
-453 -549 0
-451 -859 0
-452 -860 0
-453 -861 0
-451 -1168 0
-452 -1169 0
-453 -1170 0
-454 -514 0
-455 -515 0
-456 -516 0
-454 -532 0
-455 -533 0
-456 -534 0
-454 -769 0
-455 -770 0
-456 -771 0
-454 -1147 0
-455 -1148 0
-456 -1149 0
-457 -523 0
-458 -524 0
-459 -525 0
-457 -682 0
-458 -683 0
-459 -684 0
-460 -688 0
-461 -689 0
-462 -690 0
-460 -721 0
-461 -722 0
-462 -723 0
-460 -859 0
-461 -860 0
-462 -861 0
-460 -985 0
-461 -986 0
-462 -987 0
-463 -859 0
-464 -860 0
-465 -861 0
-463 -1183 0
-464 -1184 0
-465 -1185 0
-466 -598 0
-467 -599 0
-468 -600 0
-466 -709 0
-467 -710 0
-468 -711 0
-466 -1030 0
-467 -1031 0
-468 -1032 0
-469 -739 0
-470 -740 0
-471 -741 0
-472 -493 0
-473 -494 0
-474 -495 0
-475 -499 0
-476 -500 0
-477 -501 0
-475 -697 0
-476 -698 0
-477 -699 0
-475 -913 0
-476 -914 0
-477 -915 0
-478 -529 0
-479 -530 0
-480 -531 0
-478 -553 0
-479 -554 0
-480 -555 0
-478 -1033 0
-479 -1034 0
-480 -1035 0
-481 -907 0
-482 -908 0
-483 -909 0
-484 -961 0
-485 -962 0
-486 -963 0
-484 -964 0
-485 -965 0
-486 -966 0
-484 -1042 0
-485 -1043 0
-486 -1044 0
-484 -1126 0
-485 -1127 0
-486 -1128 0
-487 -523 0
-488 -524 0
-489 -525 0
-487 -565 0
-488 -566 0
-489 -567 0
-487 -760 0
-488 -761 0
-489 -762 0
-487 -1186 0
-488 -1187 0
-489 -1188 0
-490 -922 0
-491 -923 0
-492 -924 0
-490 -946 0
-491 -947 0
-492 -948 0
-490 -1000 0
-491 -1001 0
-492 -1002 0
-496 -700 0
-497 -701 0
-498 -702 0
-499 -688 0
-500 -689 0
-501 -690 0
-502 -703 0
-503 -704 0
-504 -705 0
-502 -919 0
-503 -920 0
-504 -921 0
-502 -1198 0
-503 -1199 0
-504 -1200 0
-505 -859 0
-506 -860 0
-507 -861 0
-505 -979 0
-506 -980 0
-507 -981 0
-508 -550 0
-509 -551 0
-510 -552 0
-508 -685 0
-509 -686 0
-510 -687 0
-508 -721 0
-509 -722 0
-510 -723 0
-508 -799 0
-509 -800 0
-510 -801 0
-508 -805 0
-509 -806 0
-510 -807 0
-508 -1051 0
-509 -1052 0
-510 -1053 0
-508 -1132 0
-509 -1133 0
-510 -1134 0
-511 -541 0
-512 -542 0
-513 -543 0
-511 -847 0
-512 -848 0
-513 -849 0
-511 -1105 0
-512 -1106 0
-513 -1107 0
-511 -1177 0
-512 -1178 0
-513 -1179 0
-514 -601 0
-515 -602 0
-516 -603 0
-514 -871 0
-515 -872 0
-516 -873 0
-514 -976 0
-515 -977 0
-516 -978 0
-514 -1072 0
-515 -1073 0
-516 -1074 0
-517 -646 0
-518 -647 0
-519 -648 0
-517 -703 0
-518 -704 0
-519 -705 0
-517 -712 0
-518 -713 0
-519 -714 0
-517 -886 0
-518 -887 0
-519 -888 0
-520 -766 0
-521 -767 0
-522 -768 0
-520 -1123 0
-521 -1124 0
-522 -1125 0
-523 -604 0
-524 -605 0
-525 -606 0
-523 -904 0
-524 -905 0
-525 -906 0
-523 -1066 0
-524 -1067 0
-525 -1068 0
-526 -580 0
-527 -581 0
-528 -582 0
-526 -1000 0
-527 -1001 0
-528 -1002 0
-529 -817 0
-530 -818 0
-531 -819 0
-532 -547 0
-533 -548 0
-534 -549 0
-532 -793 0
-533 -794 0
-534 -795 0
-532 -820 0
-533 -821 0
-534 -822 0
-532 -871 0
-533 -872 0
-534 -873 0
-532 -931 0
-533 -932 0
-534 -933 0
-532 -961 0
-533 -962 0
-534 -963 0
-535 -646 0
-536 -647 0
-537 -648 0
-535 -892 0
-536 -893 0
-537 -894 0
-535 -973 0
-536 -974 0
-537 -975 0
-535 -1159 0
-536 -1160 0
-537 -1161 0
-538 -655 0
-539 -656 0
-540 -657 0
-538 -712 0
-539 -713 0
-540 -714 0
-538 -1186 0
-539 -1187 0
-540 -1188 0
-541 -826 0
-542 -827 0
-543 -828 0
-541 -1072 0
-542 -1073 0
-543 -1074 0
-541 -1189 0
-542 -1190 0
-543 -1191 0
-544 -991 0
-545 -992 0
-546 -993 0
-544 -1009 0
-545 -1010 0
-546 -1011 0
-544 -1087 0
-545 -1088 0
-546 -1089 0
-547 -664 0
-548 -665 0
-549 -666 0
-547 -859 0
-548 -860 0
-549 -861 0
-547 -1159 0
-548 -1160 0
-549 -1161 0
-553 -916 0
-554 -917 0
-555 -918 0
-553 -940 0
-554 -941 0
-555 -942 0
-553 -1123 0
-554 -1124 0
-555 -1125 0
-553 -1177 0
-554 -1178 0
-555 -1179 0
-556 -790 0
-557 -791 0
-558 -792 0
-556 -838 0
-557 -839 0
-558 -840 0
-556 -883 0
-557 -884 0
-558 -885 0
-556 -919 0
-557 -920 0
-558 -921 0
-556 -1108 0
-557 -1109 0
-558 -1110 0
-559 -937 0
-560 -938 0
-561 -939 0
-562 -814 0
-563 -815 0
-564 -816 0
-568 -748 0
-569 -749 0
-570 -750 0
-568 -883 0
-569 -884 0
-570 -885 0
-568 -886 0
-569 -887 0
-570 -888 0
-568 -946 0
-569 -947 0
-570 -948 0
-571 -802 0
-572 -803 0
-573 -804 0
-574 -601 0
-575 -602 0
-576 -603 0
-574 -676 0
-575 -677 0
-576 -678 0
-574 -829 0
-575 -830 0
-576 -831 0
-574 -946 0
-575 -947 0
-576 -948 0
-574 -1186 0
-575 -1187 0
-576 -1188 0
-577 -757 0
-578 -758 0
-579 -759 0
-577 -1057 0
-578 -1058 0
-579 -1059 0
-583 -1099 0
-584 -1100 0
-585 -1101 0
-586 -727 0
-587 -728 0
-588 -729 0
-586 -754 0
-587 -755 0
-588 -756 0
-586 -994 0
-587 -995 0
-588 -996 0
-586 -1090 0
-587 -1091 0
-588 -1092 0
-589 -757 0
-590 -758 0
-591 -759 0
-589 -772 0
-590 -773 0
-591 -774 0
-589 -922 0
-590 -923 0
-591 -924 0
-589 -994 0
-590 -995 0
-591 -996 0
-589 -1096 0
-590 -1097 0
-591 -1098 0
-589 -1159 0
-590 -1160 0
-591 -1161 0
-592 -775 0
-593 -776 0
-594 -777 0
-592 -958 0
-593 -959 0
-594 -960 0
-595 -640 0
-596 -641 0
-597 -642 0
-595 -655 0
-596 -656 0
-597 -657 0
-595 -781 0
-596 -782 0
-597 -783 0
-595 -949 0
-596 -950 0
-597 -951 0
-601 -1093 0
-602 -1094 0
-603 -1095 0
-601 -1141 0
-602 -1142 0
-603 -1143 0
-604 -742 0
-605 -743 0
-606 -744 0
-604 -1132 0
-605 -1133 0
-606 -1134 0
-604 -1135 0
-605 -1136 0
-606 -1137 0
-604 -1156 0
-605 -1157 0
-606 -1158 0
-607 -658 0
-608 -659 0
-609 -660 0
-607 -916 0
-608 -917 0
-609 -918 0
-607 -1087 0
-608 -1088 0
-609 -1089 0
-610 -616 0
-611 -617 0
-612 -618 0
-610 -793 0
-611 -794 0
-612 -795 0
-613 -649 0
-614 -650 0
-615 -651 0
-613 -772 0
-614 -773 0
-615 -774 0
-613 -1054 0
-614 -1055 0
-615 -1056 0
-613 -1141 0
-614 -1142 0
-615 -1143 0
-616 -955 0
-617 -956 0
-618 -957 0
-616 -964 0
-617 -965 0
-618 -966 0
-619 -913 0
-620 -914 0
-621 -915 0
-619 -1057 0
-620 -1058 0
-621 -1059 0
-619 -1189 0
-620 -1190 0
-621 -1191 0
-625 -736 0
-626 -737 0
-627 -738 0
-625 -739 0
-626 -740 0
-627 -741 0
-625 -1102 0
-626 -1103 0
-627 -1104 0
-628 -718 0
-629 -719 0
-630 -720 0
-628 -1105 0
-629 -1106 0
-630 -1107 0
-631 -742 0
-632 -743 0
-633 -744 0
-634 -1162 0
-635 -1163 0
-636 -1164 0
-637 -805 0
-638 -806 0
-639 -807 0
-637 -976 0
-638 -977 0
-639 -978 0
-640 -898 0
-641 -899 0
-642 -900 0
-640 -1024 0
-641 -1025 0
-642 -1026 0
-640 -1093 0
-641 -1094 0
-642 -1095 0
-643 -820 0
-644 -821 0
-645 -822 0
-643 -1123 0
-644 -1124 0
-645 -1125 0
-649 -817 0
-650 -818 0
-651 -819 0
-649 -850 0
-650 -851 0
-651 -852 0
-649 -1180 0
-650 -1181 0
-651 -1182 0
-652 -739 0
-653 -740 0
-654 -741 0
-652 -1033 0
-653 -1034 0
-654 -1035 0
-655 -940 0
-656 -941 0
-657 -942 0
-655 -1129 0
-656 -1130 0
-657 -1131 0
-658 -805 0
-659 -806 0
-660 -807 0
-664 -907 0
-665 -908 0
-666 -909 0
-664 -1027 0
-665 -1028 0
-666 -1029 0
-667 -922 0
-668 -923 0
-669 -924 0
-670 -706 0
-671 -707 0
-672 -708 0
-670 -1153 0
-671 -1154 0
-672 -1155 0
-673 -730 0
-674 -731 0
-675 -732 0
-673 -883 0
-674 -884 0
-675 -885 0
-673 -913 0
-674 -914 0
-675 -915 0
-673 -922 0
-674 -923 0
-675 -924 0
-676 -949 0
-677 -950 0
-678 -951 0
-676 -982 0
-677 -983 0
-678 -984 0
-676 -994 0
-677 -995 0
-678 -996 0
-679 -1072 0
-680 -1073 0
-681 -1074 0
-685 -703 0
-686 -704 0
-687 -705 0
-685 -733 0
-686 -734 0
-687 -735 0
-688 -715 0
-689 -716 0
-690 -717 0
-688 -1105 0
-689 -1106 0
-690 -1107 0
-691 -769 0
-692 -770 0
-693 -771 0
-691 -817 0
-692 -818 0
-693 -819 0
-691 -967 0
-692 -968 0
-693 -969 0
-694 -1015 0
-695 -1016 0
-696 -1017 0
-694 -1150 0
-695 -1151 0
-696 -1152 0
-703 -760 0
-704 -761 0
-705 -762 0
-703 -856 0
-704 -857 0
-705 -858 0
-703 -868 0
-704 -869 0
-705 -870 0
-703 -976 0
-704 -977 0
-705 -978 0
-703 -1078 0
-704 -1079 0
-705 -1080 0
-706 -814 0
-707 -815 0
-708 -816 0
-706 -913 0
-707 -914 0
-708 -915 0
-709 -733 0
-710 -734 0
-711 -735 0
-709 -859 0
-710 -860 0
-711 -861 0
-709 -955 0
-710 -956 0
-711 -957 0
-709 -1003 0
-710 -1004 0
-711 -1005 0
-712 -772 0
-713 -773 0
-714 -774 0
-712 -964 0
-713 -965 0
-714 -966 0
-715 -943 0
-716 -944 0
-717 -945 0
-715 -988 0
-716 -989 0
-717 -990 0
-715 -1027 0
-716 -1028 0
-717 -1029 0
-715 -1189 0
-716 -1190 0
-717 -1191 0
-718 -883 0
-719 -884 0
-720 -885 0
-721 -766 0
-722 -767 0
-723 -768 0
-721 -1021 0
-722 -1022 0
-723 -1023 0
-721 -1027 0
-722 -1028 0
-723 -1029 0
-721 -1045 0
-722 -1046 0
-723 -1047 0
-724 -727 0
-725 -728 0
-726 -729 0
-724 -1156 0
-725 -1157 0
-726 -1158 0
-727 -778 0
-728 -779 0
-729 -780 0
-727 -847 0
-728 -848 0
-729 -849 0
-727 -871 0
-728 -872 0
-729 -873 0
-727 -1012 0
-728 -1013 0
-729 -1014 0
-730 -1111 0
-731 -1112 0
-732 -1113 0
-733 -838 0
-734 -839 0
-735 -840 0
-733 -853 0
-734 -854 0
-735 -855 0
-736 -847 0
-737 -848 0
-738 -849 0
-736 -955 0
-737 -956 0
-738 -957 0
-736 -1150 0
-737 -1151 0
-738 -1152 0
-739 -1081 0
-740 -1082 0
-741 -1083 0
-742 -916 0
-743 -917 0
-744 -918 0
-745 -913 0
-746 -914 0
-747 -915 0
-745 -964 0
-746 -965 0
-747 -966 0
-748 -808 0
-749 -809 0
-750 -810 0
-748 -1159 0
-749 -1160 0
-750 -1161 0
-751 -985 0
-752 -986 0
-753 -987 0
-751 -1069 0
-752 -1070 0
-753 -1071 0
-751 -1102 0
-752 -1103 0
-753 -1104 0
-754 -901 0
-755 -902 0
-756 -903 0
-757 -838 0
-758 -839 0
-759 -840 0
-757 -901 0
-758 -902 0
-759 -903 0
-760 -877 0
-761 -878 0
-762 -879 0
-763 -772 0
-764 -773 0
-765 -774 0
-766 -871 0
-767 -872 0
-768 -873 0
-766 -1009 0
-767 -1010 0
-768 -1011 0
-769 -985 0
-770 -986 0
-771 -987 0
-769 -1078 0
-770 -1079 0
-771 -1080 0
-769 -1171 0
-770 -1172 0
-771 -1173 0
-772 -805 0
-773 -806 0
-774 -807 0
-775 -937 0
-776 -938 0
-777 -939 0
-775 -1030 0
-776 -1031 0
-777 -1032 0
-775 -1195 0
-776 -1196 0
-777 -1197 0
-781 -1027 0
-782 -1028 0
-783 -1029 0
-784 -808 0
-785 -809 0
-786 -810 0
-784 -979 0
-785 -980 0
-786 -981 0
-784 -1024 0
-785 -1025 0
-786 -1026 0
-784 -1066 0
-785 -1067 0
-786 -1068 0
-787 -832 0
-788 -833 0
-789 -834 0
-790 -1063 0
-791 -1064 0
-792 -1065 0
-793 -829 0
-794 -830 0
-795 -831 0
-799 -889 0
-800 -890 0
-801 -891 0
-802 -1024 0
-803 -1025 0
-804 -1026 0
-808 -856 0
-809 -857 0
-810 -858 0
-811 -865 0
-812 -866 0
-813 -867 0
-811 -958 0
-812 -959 0
-813 -960 0
-811 -1066 0
-812 -1067 0
-813 -1068 0
-811 -1168 0
-812 -1169 0
-813 -1170 0
-814 -853 0
-815 -854 0
-816 -855 0
-814 -1171 0
-815 -1172 0
-816 -1173 0
-817 -841 0
-818 -842 0
-819 -843 0
-817 -1072 0
-818 -1073 0
-819 -1074 0
-820 -1048 0
-821 -1049 0
-822 -1050 0
-820 -1078 0
-821 -1079 0
-822 -1080 0
-823 -1000 0
-824 -1001 0
-825 -1002 0
-823 -1195 0
-824 -1196 0
-825 -1197 0
-826 -841 0
-827 -842 0
-828 -843 0
-829 -1159 0
-830 -1160 0
-831 -1161 0
-832 -841 0
-833 -842 0
-834 -843 0
-832 -922 0
-833 -923 0
-834 -924 0
-832 -1045 0
-833 -1046 0
-834 -1047 0
-835 -904 0
-836 -905 0
-837 -906 0
-835 -919 0
-836 -920 0
-837 -921 0
-838 -1171 0
-839 -1172 0
-840 -1173 0
-844 -853 0
-845 -854 0
-846 -855 0
-844 -856 0
-845 -857 0
-846 -858 0
-847 -1162 0
-848 -1163 0
-849 -1164 0
-847 -1192 0
-848 -1193 0
-849 -1194 0
-850 -1015 0
-851 -1016 0
-852 -1017 0
-853 -1000 0
-854 -1001 0
-855 -1002 0
-853 -1069 0
-854 -1070 0
-855 -1071 0
-859 -1042 0
-860 -1043 0
-861 -1044 0
-862 -871 0
-863 -872 0
-864 -873 0
-862 -1048 0
-863 -1049 0
-864 -1050 0
-865 -934 0
-866 -935 0
-867 -936 0
-868 -988 0
-869 -989 0
-870 -990 0
-868 -1024 0
-869 -1025 0
-870 -1026 0
-871 -1087 0
-872 -1088 0
-873 -1089 0
-871 -1171 0
-872 -1172 0
-873 -1173 0
-877 -934 0
-878 -935 0
-879 -936 0
-877 -1054 0
-878 -1055 0
-879 -1056 0
-880 -958 0
-881 -959 0
-882 -960 0
-880 -1060 0
-881 -1061 0
-882 -1062 0
-883 -1036 0
-884 -1037 0
-885 -1038 0
-889 -913 0
-890 -914 0
-891 -915 0
-889 -1015 0
-890 -1016 0
-891 -1017 0
-889 -1060 0
-890 -1061 0
-891 -1062 0
-892 -1084 0
-893 -1085 0
-894 -1086 0
-898 -901 0
-899 -902 0
-900 -903 0
-898 -1147 0
-899 -1148 0
-900 -1149 0
-901 -1000 0
-902 -1001 0
-903 -1002 0
-901 -1063 0
-902 -1064 0
-903 -1065 0
-910 -949 0
-911 -950 0
-912 -951 0
-910 -1048 0
-911 -1049 0
-912 -1050 0
-910 -1102 0
-911 -1103 0
-912 -1104 0
-913 -1114 0
-914 -1115 0
-915 -1116 0
-916 -943 0
-917 -944 0
-918 -945 0
-919 -1105 0
-920 -1106 0
-921 -1107 0
-922 -1012 0
-923 -1013 0
-924 -1014 0
-922 -1162 0
-923 -1163 0
-924 -1164 0
-922 -1174 0
-923 -1175 0
-924 -1176 0
-925 -1045 0
-926 -1046 0
-927 -1047 0
-928 -1180 0
-929 -1181 0
-930 -1182 0
-931 -1093 0
-932 -1094 0
-933 -1095 0
-934 -1060 0
-935 -1061 0
-936 -1062 0
-937 -1051 0
-938 -1052 0
-939 -1053 0
-940 -1114 0
-941 -1115 0
-942 -1116 0
-943 -1114 0
-944 -1115 0
-945 -1116 0
-943 -1186 0
-944 -1187 0
-945 -1188 0
-946 -1120 0
-947 -1121 0
-948 -1122 0
-946 -1177 0
-947 -1178 0
-948 -1179 0
-949 -1117 0
-950 -1118 0
-951 -1119 0
-952 -973 0
-953 -974 0
-954 -975 0
-955 -1012 0
-956 -1013 0
-957 -1014 0
-955 -1162 0
-956 -1163 0
-957 -1164 0
-961 -1003 0
-962 -1004 0
-963 -1005 0
-964 -982 0
-965 -983 0
-966 -984 0
-967 -1057 0
-968 -1058 0
-969 -1059 0
-967 -1138 0
-968 -1139 0
-969 -1140 0
-973 -997 0
-974 -998 0
-975 -999 0
-979 -1087 0
-980 -1088 0
-981 -1089 0
-985 -1078 0
-986 -1079 0
-987 -1080 0
-985 -1123 0
-986 -1124 0
-987 -1125 0
-991 -1072 0
-992 -1073 0
-993 -1074 0
-1000 -1033 0
-1001 -1034 0
-1002 -1035 0
-1000 -1192 0
-1001 -1193 0
-1002 -1194 0
-1006 -1117 0
-1007 -1118 0
-1008 -1119 0
-1024 -1096 0
-1025 -1097 0
-1026 -1098 0
-1033 -1114 0
-1034 -1115 0
-1035 -1116 0
-1036 -1060 0
-1037 -1061 0
-1038 -1062 0
-1036 -1153 0
-1037 -1154 0
-1038 -1155 0
-1042 -1120 0
-1043 -1121 0
-1044 -1122 0
-1060 -1126 0
-1061 -1127 0
-1062 -1128 0
-1060 -1141 0
-1061 -1142 0
-1062 -1143 0
-1072 -1129 0
-1073 -1130 0
-1074 -1131 0
-1075 -1144 0
-1076 -1145 0
-1077 -1146 0
-1093 -1165 0
-1094 -1166 0
-1095 -1167 0
-1093 -1198 0
-1094 -1199 0
-1095 -1200 0
-1096 -1111 0
-1097 -1112 0
-1098 -1113 0
-1099 -1189 0
-1100 -1190 0
-1101 -1191 0
-1102 -1150 0
-1103 -1151 0
-1104 -1152 0
-1102 -1162 0
-1103 -1163 0
-1104 -1164 0
-1102 -1174 0
-1103 -1175 0
-1104 -1176 0
-1108 -1126 0
-1109 -1127 0
-1110 -1128 0
-1111 -1114 0
-1112 -1115 0
-1113 -1116 0
-1111 -1183 0
-1112 -1184 0
-1113 -1185 0
-1120 -1138 0
-1121 -1139 0
-1122 -1140 0
-1126 -1189 0
-1127 -1190 0
-1128 -1191 0
-1141 -1162 0
-1142 -1163 0
-1143 -1164 0
-1159 -1168 0
-1160 -1169 0
-1161 -1170 0
-1159 -1171 0
-1160 -1172 0
-1161 -1173 0
-1165 -1186 0
-1166 -1187 0
-1167 -1188 0
