p cnf 1200 4498
1 2 3 0
4 5 6 0
7 8 9 0
10 11 12 0
13 14 15 0
16 17 18 0
19 20 21 0
22 23 24 0
25 26 27 0
28 29 30 0
31 32 33 0
34 35 36 0
37 38 39 0
40 41 42 0
43 44 45 0
46 47 48 0
49 50 51 0
52 53 54 0
55 56 57 0
58 59 60 0
61 62 63 0
64 65 66 0
67 68 69 0
70 71 72 0
73 74 75 0
76 77 78 0
79 80 81 0
82 83 84 0
85 86 87 0
88 89 90 0
91 92 93 0
94 95 96 0
97 98 99 0
100 101 102 0
103 104 105 0
106 107 108 0
109 110 111 0
112 113 114 0
115 116 117 0
118 119 120 0
121 122 123 0
124 125 126 0
127 128 129 0
130 131 132 0
133 134 135 0
136 137 138 0
139 140 141 0
142 143 144 0
145 146 147 0
148 149 150 0
151 152 153 0
154 155 156 0
157 158 159 0
160 161 162 0
163 164 165 0
166 167 168 0
169 170 171 0
172 173 174 0
175 176 177 0
178 179 180 0
181 182 183 0
184 185 186 0
187 188 189 0
190 191 192 0
193 194 195 0
196 197 198 0
199 200 201 0
202 203 204 0
205 206 207 0
208 209 210 0
211 212 213 0
214 215 216 0
217 218 219 0
220 221 222 0
223 224 225 0
226 227 228 0
229 230 231 0
232 233 234 0
235 236 237 0
238 239 240 0
241 242 243 0
244 245 246 0
247 248 249 0
250 251 252 0
253 254 255 0
256 257 258 0
259 260 261 0
262 263 264 0
265 266 267 0
268 269 270 0
271 272 273 0
274 275 276 0
277 278 279 0
280 281 282 0
283 284 285 0
286 287 288 0
289 290 291 0
292 293 294 0
295 296 297 0
298 299 300 0
301 302 303 0
304 305 306 0
307 308 309 0
310 311 312 0
313 314 315 0
316 317 318 0
319 320 321 0
322 323 324 0
325 326 327 0
328 329 330 0
331 332 333 0
334 335 336 0
337 338 339 0
340 341 342 0
343 344 345 0
346 347 348 0
349 350 351 0
352 353 354 0
355 356 357 0
358 359 360 0
361 362 363 0
364 365 366 0
367 368 369 0
370 371 372 0
373 374 375 0
376 377 378 0
379 380 381 0
382 383 384 0
385 386 387 0
388 389 390 0
391 392 393 0
394 395 396 0
397 398 399 0
400 401 402 0
403 404 405 0
406 407 408 0
409 410 411 0
412 413 414 0
415 416 417 0
418 419 420 0
421 422 423 0
424 425 426 0
427 428 429 0
430 431 432 0
433 434 435 0
436 437 438 0
439 440 441 0
442 443 444 0
445 446 447 0
448 449 450 0
451 452 453 0
454 455 456 0
457 458 459 0
460 461 462 0
463 464 465 0
466 467 468 0
469 470 471 0
472 473 474 0
475 476 477 0
478 479 480 0
481 482 483 0
484 485 486 0
487 488 489 0
490 491 492 0
493 494 495 0
496 497 498 0
499 500 501 0
502 503 504 0
505 506 507 0
508 509 510 0
511 512 513 0
514 515 516 0
517 518 519 0
520 521 522 0
523 524 525 0
526 527 528 0
529 530 531 0
532 533 534 0
535 536 537 0
538 539 540 0
541 542 543 0
544 545 546 0
547 548 549 0
550 551 552 0
553 554 555 0
556 557 558 0
559 560 561 0
562 563 564 0
565 566 567 0
568 569 570 0
571 572 573 0
574 575 576 0
577 578 579 0
580 581 582 0
583 584 585 0
586 587 588 0
589 590 591 0
592 593 594 0
595 596 597 0
598 599 600 0
601 602 603 0
604 605 606 0
607 608 609 0
610 611 612 0
613 614 615 0
616 617 618 0
619 620 621 0
622 623 624 0
625 626 627 0
628 629 630 0
631 632 633 0
634 635 636 0
637 638 639 0
640 641 642 0
643 644 645 0
646 647 648 0
649 650 651 0
652 653 654 0
655 656 657 0
658 659 660 0
661 662 663 0
664 665 666 0
667 668 669 0
670 671 672 0
673 674 675 0
676 677 678 0
679 680 681 0
682 683 684 0
685 686 687 0
688 689 690 0
691 692 693 0
694 695 696 0
697 698 699 0
700 701 702 0
703 704 705 0
706 707 708 0
709 710 711 0
712 713 714 0
715 716 717 0
718 719 720 0
721 722 723 0
724 725 726 0
727 728 729 0
730 731 732 0
733 734 735 0
736 737 738 0
739 740 741 0
742 743 744 0
745 746 747 0
748 749 750 0
751 752 753 0
754 755 756 0
757 758 759 0
760 761 762 0
763 764 765 0
766 767 768 0
769 770 771 0
772 773 774 0
775 776 777 0
778 779 780 0
781 782 783 0
784 785 786 0
787 788 789 0
790 791 792 0
793 794 795 0
796 797 798 0
799 800 801 0
802 803 804 0
805 806 807 0
808 809 810 0
811 812 813 0
814 815 816 0
817 818 819 0
820 821 822 0
823 824 825 0
826 827 828 0
829 830 831 0
832 833 834 0
835 836 837 0
838 839 840 0
841 842 843 0
844 845 846 0
847 848 849 0
850 851 852 0
853 854 855 0
856 857 858 0
859 860 861 0
862 863 864 0
865 866 867 0
868 869 870 0
871 872 873 0
874 875 876 0
877 878 879 0
880 881 882 0
883 884 885 0
886 887 888 0
889 890 891 0
892 893 894 0
895 896 897 0
898 899 900 0
901 902 903 0
904 905 906 0
907 908 909 0
910 911 912 0
913 914 915 0
916 917 918 0
919 920 921 0
922 923 924 0
925 926 927 0
928 929 930 0
931 932 933 0
934 935 936 0
937 938 939 0
940 941 942 0
943 944 945 0
946 947 948 0
949 950 951 0
952 953 954 0
955 956 957 0
958 959 960 0
961 962 963 0
964 965 966 0
967 968 969 0
970 971 972 0
973 974 975 0
976 977 978 0
979 980 981 0
982 983 984 0
985 986 987 0
988 989 990 0
991 992 993 0
994 995 996 0
997 998 999 0
1000 1001 1002 0
1003 1004 1005 0
1006 1007 1008 0
1009 1010 1011 0
1012 1013 1014 0
1015 1016 1017 0
1018 1019 1020 0
1021 1022 1023 0
1024 1025 1026 0
1027 1028 1029 0
1030 1031 1032 0
1033 1034 1035 0
1036 1037 1038 0
1039 1040 1041 0
1042 1043 1044 0
1045 1046 1047 0
1048 1049 1050 0
1051 1052 1053 0
1054 1055 1056 0
1057 1058 1059 0
1060 1061 1062 0
1063 1064 1065 0
1066 1067 1068 0
1069 1070 1071 0
1072 1073 1074 0
1075 1076 1077 0
1078 1079 1080 0
1081 1082 1083 0
1084 1085 1086 0
1087 1088 1089 0
1090 1091 1092 0
1093 1094 1095 0
1096 1097 1098 0
1099 1100 1101 0
1102 1103 1104 0
1105 1106 1107 0
1108 1109 1110 0
1111 1112 1113 0
1114 1115 1116 0
1117 1118 1119 0
1120 1121 1122 0
1123 1124 1125 0
1126 1127 1128 0
1129 1130 1131 0
1132 1133 1134 0
1135 1136 1137 0
1138 1139 1140 0
1141 1142 1143 0
1144 1145 1146 0
1147 1148 1149 0
1150 1151 1152 0
1153 1154 1155 0
1156 1157 1158 0
1159 1160 1161 0
1162 1163 1164 0
1165 1166 1167 0
1168 1169 1170 0
1171 1172 1173 0
1174 1175 1176 0
1177 1178 1179 0
1180 1181 1182 0
1183 1184 1185 0
1186 1187 1188 0
1189 1190 1191 0
1192 1193 1194 0
1195 1196 1197 0
1198 1199 1200 0
-1 -2 0
-1 -3 0
-2 -3 0
-4 -5 0
-4 -6 0
-5 -6 0
-7 -8 0
-7 -9 0
-8 -9 0
-10 -11 0
-10 -12 0
-11 -12 0
-13 -14 0
-13 -15 0
-14 -15 0
-16 -17 0
-16 -18 0
-17 -18 0
-19 -20 0
-19 -21 0
-20 -21 0
-22 -23 0
-22 -24 0
-23 -24 0
-25 -26 0
-25 -27 0
-26 -27 0
-28 -29 0
-28 -30 0
-29 -30 0
-31 -32 0
-31 -33 0
-32 -33 0
-34 -35 0
-34 -36 0
-35 -36 0
-37 -38 0
-37 -39 0
-38 -39 0
-40 -41 0
-40 -42 0
-41 -42 0
-43 -44 0
-43 -45 0
-44 -45 0
-46 -47 0
-46 -48 0
-47 -48 0
-49 -50 0
-49 -51 0
-50 -51 0
-52 -53 0
-52 -54 0
-53 -54 0
-55 -56 0
-55 -57 0
-56 -57 0
-58 -59 0
-58 -60 0
-59 -60 0
-61 -62 0
-61 -63 0
-62 -63 0
-64 -65 0
-64 -66 0
-65 -66 0
-67 -68 0
-67 -69 0
-68 -69 0
-70 -71 0
-70 -72 0
-71 -72 0
-73 -74 0
-73 -75 0
-74 -75 0
-76 -77 0
-76 -78 0
-77 -78 0
-79 -80 0
-79 -81 0
-80 -81 0
-82 -83 0
-82 -84 0
-83 -84 0
-85 -86 0
-85 -87 0
-86 -87 0
-88 -89 0
-88 -90 0
-89 -90 0
-91 -92 0
-91 -93 0
-92 -93 0
-94 -95 0
-94 -96 0
-95 -96 0
-97 -98 0
-97 -99 0
-98 -99 0
-100 -101 0
-100 -102 0
-101 -102 0
-103 -104 0
-103 -105 0
-104 -105 0
-106 -107 0
-106 -108 0
-107 -108 0
-109 -110 0
-109 -111 0
-110 -111 0
-112 -113 0
-112 -114 0
-113 -114 0
-115 -116 0
-115 -117 0
-116 -117 0
-118 -119 0
-118 -120 0
-119 -120 0
-121 -122 0
-121 -123 0
-122 -123 0
-124 -125 0
-124 -126 0
-125 -126 0
-127 -128 0
-127 -129 0
-128 -129 0
-130 -131 0
-130 -132 0
-131 -132 0
-133 -134 0
-133 -135 0
-134 -135 0
-136 -137 0
-136 -138 0
-137 -138 0
-139 -140 0
-139 -141 0
-140 -141 0
-142 -143 0
-142 -144 0
-143 -144 0
-145 -146 0
-145 -147 0
-146 -147 0
-148 -149 0
-148 -150 0
-149 -150 0
-151 -152 0
-151 -153 0
-152 -153 0
-154 -155 0
-154 -156 0
-155 -156 0
-157 -158 0
-157 -159 0
-158 -159 0
-160 -161 0
-160 -162 0
-161 -162 0
-163 -164 0
-163 -165 0
-164 -165 0
-166 -167 0
-166 -168 0
-167 -168 0
-169 -170 0
-169 -171 0
-170 -171 0
-172 -173 0
-172 -174 0
-173 -174 0
-175 -176 0
-175 -177 0
-176 -177 0
-178 -179 0
-178 -180 0
-179 -180 0
-181 -182 0
-181 -183 0
-182 -183 0
-184 -185 0
-184 -186 0
-185 -186 0
-187 -188 0
-187 -189 0
-188 -189 0
-190 -191 0
-190 -192 0
-191 -192 0
-193 -194 0
-193 -195 0
-194 -195 0
-196 -197 0
-196 -198 0
-197 -198 0
-199 -200 0
-199 -201 0
-200 -201 0
-202 -203 0
-202 -204 0
-203 -204 0
-205 -206 0
-205 -207 0
-206 -207 0
-208 -209 0
-208 -210 0
-209 -210 0
-211 -212 0
-211 -213 0
-212 -213 0
-214 -215 0
-214 -216 0
-215 -216 0
-217 -218 0
-217 -219 0
-218 -219 0
-220 -221 0
-220 -222 0
-221 -222 0
-223 -224 0
-223 -225 0
-224 -225 0
-226 -227 0
-226 -228 0
-227 -228 0
-229 -230 0
-229 -231 0
-230 -231 0
-232 -233 0
-232 -234 0
-233 -234 0
-235 -236 0
-235 -237 0
-236 -237 0
-238 -239 0
-238 -240 0
-239 -240 0
-241 -242 0
-241 -243 0
-242 -243 0
-244 -245 0
-244 -246 0
-245 -246 0
-247 -248 0
-247 -249 0
-248 -249 0
-250 -251 0
-250 -252 0
-251 -252 0
-253 -254 0
-253 -255 0
-254 -255 0
-256 -257 0
-256 -258 0
-257 -258 0
-259 -260 0
-259 -261 0
-260 -261 0
-262 -263 0
-262 -264 0
-263 -264 0
-265 -266 0
-265 -267 0
-266 -267 0
-268 -269 0
-268 -270 0
-269 -270 0
-271 -272 0
-271 -273 0
-272 -273 0
-274 -275 0
-274 -276 0
-275 -276 0
-277 -278 0
-277 -279 0
-278 -279 0
-280 -281 0
-280 -282 0
-281 -282 0
-283 -284 0
-283 -285 0
-284 -285 0
-286 -287 0
-286 -288 0
-287 -288 0
-289 -290 0
-289 -291 0
-290 -291 0
-292 -293 0
-292 -294 0
-293 -294 0
-295 -296 0
-295 -297 0
-296 -297 0
-298 -299 0
-298 -300 0
-299 -300 0
-301 -302 0
-301 -303 0
-302 -303 0
-304 -305 0
-304 -306 0
-305 -306 0
-307 -308 0
-307 -309 0
-308 -309 0
-310 -311 0
-310 -312 0
-311 -312 0
-313 -314 0
-313 -315 0
-314 -315 0
-316 -317 0
-316 -318 0
-317 -318 0
-319 -320 0
-319 -321 0
-320 -321 0
-322 -323 0
-322 -324 0
-323 -324 0
-325 -326 0
-325 -327 0
-326 -327 0
-328 -329 0
-328 -330 0
-329 -330 0
-331 -332 0
-331 -333 0
-332 -333 0
-334 -335 0
-334 -336 0
-335 -336 0
-337 -338 0
-337 -339 0
-338 -339 0
-340 -341 0
-340 -342 0
-341 -342 0
-343 -344 0
-343 -345 0
-344 -345 0
-346 -347 0
-346 -348 0
-347 -348 0
-349 -350 0
-349 -351 0
-350 -351 0
-352 -353 0
-352 -354 0
-353 -354 0
-355 -356 0
-355 -357 0
-356 -357 0
-358 -359 0
-358 -360 0
-359 -360 0
-361 -362 0
-361 -363 0
-362 -363 0
-364 -365 0
-364 -366 0
-365 -366 0
-367 -368 0
-367 -369 0
-368 -369 0
-370 -371 0
-370 -372 0
-371 -372 0
-373 -374 0
-373 -375 0
-374 -375 0
-376 -377 0
-376 -378 0
-377 -378 0
-379 -380 0
-379 -381 0
-380 -381 0
-382 -383 0
-382 -384 0
-383 -384 0
-385 -386 0
-385 -387 0
-386 -387 0
-388 -389 0
-388 -390 0
-389 -390 0
-391 -392 0
-391 -393 0
-392 -393 0
-394 -395 0
-394 -396 0
-395 -396 0
-397 -398 0
-397 -399 0
-398 -399 0
-400 -401 0
-400 -402 0
-401 -402 0
-403 -404 0
-403 -405 0
-404 -405 0
-406 -407 0
-406 -408 0
-407 -408 0
-409 -410 0
-409 -411 0
-410 -411 0
-412 -413 0
-412 -414 0
-413 -414 0
-415 -416 0
-415 -417 0
-416 -417 0
-418 -419 0
-418 -420 0
-419 -420 0
-421 -422 0
-421 -423 0
-422 -423 0
-424 -425 0
-424 -426 0
-425 -426 0
-427 -428 0
-427 -429 0
-428 -429 0
-430 -431 0
-430 -432 0
-431 -432 0
-433 -434 0
-433 -435 0
-434 -435 0
-436 -437 0
-436 -438 0
-437 -438 0
-439 -440 0
-439 -441 0
-440 -441 0
-442 -443 0
-442 -444 0
-443 -444 0
-445 -446 0
-445 -447 0
-446 -447 0
-448 -449 0
-448 -450 0
-449 -450 0
-451 -452 0
-451 -453 0
-452 -453 0
-454 -455 0
-454 -456 0
-455 -456 0
-457 -458 0
-457 -459 0
-458 -459 0
-460 -461 0
-460 -462 0
-461 -462 0
-463 -464 0
-463 -465 0
-464 -465 0
-466 -467 0
-466 -468 0
-467 -468 0
-469 -470 0
-469 -471 0
-470 -471 0
-472 -473 0
-472 -474 0
-473 -474 0
-475 -476 0
-475 -477 0
-476 -477 0
-478 -479 0
-478 -480 0
-479 -480 0
-481 -482 0
-481 -483 0
-482 -483 0
-484 -485 0
-484 -486 0
-485 -486 0
-487 -488 0
-487 -489 0
-488 -489 0
-490 -491 0
-490 -492 0
-491 -492 0
-493 -494 0
-493 -495 0
-494 -495 0
-496 -497 0
-496 -498 0
-497 -498 0
-499 -500 0
-499 -501 0
-500 -501 0
-502 -503 0
-502 -504 0
-503 -504 0
-505 -506 0
-505 -507 0
-506 -507 0
-508 -509 0
-508 -510 0
-509 -510 0
-511 -512 0
-511 -513 0
-512 -513 0
-514 -515 0
-514 -516 0
-515 -516 0
-517 -518 0
-517 -519 0
-518 -519 0
-520 -521 0
-520 -522 0
-521 -522 0
-523 -524 0
-523 -525 0
-524 -525 0
-526 -527 0
-526 -528 0
-527 -528 0
-529 -530 0
-529 -531 0
-530 -531 0
-532 -533 0
-532 -534 0
-533 -534 0
-535 -536 0
-535 -537 0
-536 -537 0
-538 -539 0
-538 -540 0
-539 -540 0
-541 -542 0
-541 -543 0
-542 -543 0
-544 -545 0
-544 -546 0
-545 -546 0
-547 -548 0
-547 -549 0
-548 -549 0
-550 -551 0
-550 -552 0
-551 -552 0
-553 -554 0
-553 -555 0
-554 -555 0
-556 -557 0
-556 -558 0
-557 -558 0
-559 -560 0
-559 -561 0
-560 -561 0
-562 -563 0
-562 -564 0
-563 -564 0
-565 -566 0
-565 -567 0
-566 -567 0
-568 -569 0
-568 -570 0
-569 -570 0
-571 -572 0
-571 -573 0
-572 -573 0
-574 -575 0
-574 -576 0
-575 -576 0
-577 -578 0
-577 -579 0
-578 -579 0
-580 -581 0
-580 -582 0
-581 -582 0
-583 -584 0
-583 -585 0
-584 -585 0
-586 -587 0
-586 -588 0
-587 -588 0
-589 -590 0
-589 -591 0
-590 -591 0
-592 -593 0
-592 -594 0
-593 -594 0
-595 -596 0
-595 -597 0
-596 -597 0
-598 -599 0
-598 -600 0
-599 -600 0
-601 -602 0
-601 -603 0
-602 -603 0
-604 -605 0
-604 -606 0
-605 -606 0
-607 -608 0
-607 -609 0
-608 -609 0
-610 -611 0
-610 -612 0
-611 -612 0
-613 -614 0
-613 -615 0
-614 -615 0
-616 -617 0
-616 -618 0
-617 -618 0
-619 -620 0
-619 -621 0
-620 -621 0
-622 -623 0
-622 -624 0
-623 -624 0
-625 -626 0
-625 -627 0
-626 -627 0
-628 -629 0
-628 -630 0
-629 -630 0
-631 -632 0
-631 -633 0
-632 -633 0
-634 -635 0
-634 -636 0
-635 -636 0
-637 -638 0
-637 -639 0
-638 -639 0
-640 -641 0
-640 -642 0
-641 -642 0
-643 -644 0
-643 -645 0
-644 -645 0
-646 -647 0
-646 -648 0
-647 -648 0
-649 -650 0
-649 -651 0
-650 -651 0
-652 -653 0
-652 -654 0
-653 -654 0
-655 -656 0
-655 -657 0
-656 -657 0
-658 -659 0
-658 -660 0
-659 -660 0
-661 -662 0
-661 -663 0
-662 -663 0
-664 -665 0
-664 -666 0
-665 -666 0
-667 -668 0
-667 -669 0
-668 -669 0
-670 -671 0
-670 -672 0
-671 -672 0
-673 -674 0
-673 -675 0
-674 -675 0
-676 -677 0
-676 -678 0
-677 -678 0
-679 -680 0
-679 -681 0
-680 -681 0
-682 -683 0
-682 -684 0
-683 -684 0
-685 -686 0
-685 -687 0
-686 -687 0
-688 -689 0
-688 -690 0
-689 -690 0
-691 -692 0
-691 -693 0
-692 -693 0
-694 -695 0
-694 -696 0
-695 -696 0
-697 -698 0
-697 -699 0
-698 -699 0
-700 -701 0
-700 -702 0
-701 -702 0
-703 -704 0
-703 -705 0
-704 -705 0
-706 -707 0
-706 -708 0
-707 -708 0
-709 -710 0
-709 -711 0
-710 -711 0
-712 -713 0
-712 -714 0
-713 -714 0
-715 -716 0
-715 -717 0
-716 -717 0
-718 -719 0
-718 -720 0
-719 -720 0
-721 -722 0
-721 -723 0
-722 -723 0
-724 -725 0
-724 -726 0
-725 -726 0
-727 -728 0
-727 -729 0
-728 -729 0
-730 -731 0
-730 -732 0
-731 -732 0
-733 -734 0
-733 -735 0
-734 -735 0
-736 -737 0
-736 -738 0
-737 -738 0
-739 -740 0
-739 -741 0
-740 -741 0
-742 -743 0
-742 -744 0
-743 -744 0
-745 -746 0
-745 -747 0
-746 -747 0
-748 -749 0
-748 -750 0
-749 -750 0
-751 -752 0
-751 -753 0
-752 -753 0
-754 -755 0
-754 -756 0
-755 -756 0
-757 -758 0
-757 -759 0
-758 -759 0
-760 -761 0
-760 -762 0
-761 -762 0
-763 -764 0
-763 -765 0
-764 -765 0
-766 -767 0
-766 -768 0
-767 -768 0
-769 -770 0
-769 -771 0
-770 -771 0
-772 -773 0
-772 -774 0
-773 -774 0
-775 -776 0
-775 -777 0
-776 -777 0
-778 -779 0
-778 -780 0
-779 -780 0
-781 -782 0
-781 -783 0
-782 -783 0
-784 -785 0
-784 -786 0
-785 -786 0
-787 -788 0
-787 -789 0
-788 -789 0
-790 -791 0
-790 -792 0
-791 -792 0
-793 -794 0
-793 -795 0
-794 -795 0
-796 -797 0
-796 -798 0
-797 -798 0
-799 -800 0
-799 -801 0
-800 -801 0
-802 -803 0
-802 -804 0
-803 -804 0
-805 -806 0
-805 -807 0
-806 -807 0
-808 -809 0
-808 -810 0
-809 -810 0
-811 -812 0
-811 -813 0
-812 -813 0
-814 -815 0
-814 -816 0
-815 -816 0
-817 -818 0
-817 -819 0
-818 -819 0
-820 -821 0
-820 -822 0
-821 -822 0
-823 -824 0
-823 -825 0
-824 -825 0
-826 -827 0
-826 -828 0
-827 -828 0
-829 -830 0
-829 -831 0
-830 -831 0
-832 -833 0
-832 -834 0
-833 -834 0
-835 -836 0
-835 -837 0
-836 -837 0
-838 -839 0
-838 -840 0
-839 -840 0
-841 -842 0
-841 -843 0
-842 -843 0
-844 -845 0
-844 -846 0
-845 -846 0
-847 -848 0
-847 -849 0
-848 -849 0
-850 -851 0
-850 -852 0
-851 -852 0
-853 -854 0
-853 -855 0
-854 -855 0
-856 -857 0
-856 -858 0
-857 -858 0
-859 -860 0
-859 -861 0
-860 -861 0
-862 -863 0
-862 -864 0
-863 -864 0
-865 -866 0
-865 -867 0
-866 -867 0
-868 -869 0
-868 -870 0
-869 -870 0
-871 -872 0
-871 -873 0
-872 -873 0
-874 -875 0
-874 -876 0
-875 -876 0
-877 -878 0
-877 -879 0
-878 -879 0
-880 -881 0
-880 -882 0
-881 -882 0
-883 -884 0
-883 -885 0
-884 -885 0
-886 -887 0
-886 -888 0
-887 -888 0
-889 -890 0
-889 -891 0
-890 -891 0
-892 -893 0
-892 -894 0
-893 -894 0
-895 -896 0
-895 -897 0
-896 -897 0
-898 -899 0
-898 -900 0
-899 -900 0
-901 -902 0
-901 -903 0
-902 -903 0
-904 -905 0
-904 -906 0
-905 -906 0
-907 -908 0
-907 -909 0
-908 -909 0
-910 -911 0
-910 -912 0
-911 -912 0
-913 -914 0
-913 -915 0
-914 -915 0
-916 -917 0
-916 -918 0
-917 -918 0
-919 -920 0
-919 -921 0
-920 -921 0
-922 -923 0
-922 -924 0
-923 -924 0
-925 -926 0
-925 -927 0
-926 -927 0
-928 -929 0
-928 -930 0
-929 -930 0
-931 -932 0
-931 -933 0
-932 -933 0
-934 -935 0
-934 -936 0
-935 -936 0
-937 -938 0
-937 -939 0
-938 -939 0
-940 -941 0
-940 -942 0
-941 -942 0
-943 -944 0
-943 -945 0
-944 -945 0
-946 -947 0
-946 -948 0
-947 -948 0
-949 -950 0
-949 -951 0
-950 -951 0
-952 -953 0
-952 -954 0
-953 -954 0
-955 -956 0
-955 -957 0
-956 -957 0
-958 -959 0
-958 -960 0
-959 -960 0
-961 -962 0
-961 -963 0
-962 -963 0
-964 -965 0
-964 -966 0
-965 -966 0
-967 -968 0
-967 -969 0
-968 -969 0
-970 -971 0
-970 -972 0
-971 -972 0
-973 -974 0
-973 -975 0
-974 -975 0
-976 -977 0
-976 -978 0
-977 -978 0
-979 -980 0
-979 -981 0
-980 -981 0
-982 -983 0
-982 -984 0
-983 -984 0
-985 -986 0
-985 -987 0
-986 -987 0
-988 -989 0
-988 -990 0
-989 -990 0
-991 -992 0
-991 -993 0
-992 -993 0
-994 -995 0
-994 -996 0
-995 -996 0
-997 -998 0
-997 -999 0
-998 -999 0
-1000 -1001 0
-1000 -1002 0
-1001 -1002 0
-1003 -1004 0
-1003 -1005 0
-1004 -1005 0
-1006 -1007 0
-1006 -1008 0
-1007 -1008 0
-1009 -1010 0
-1009 -1011 0
-1010 -1011 0
-1012 -1013 0
-1012 -1014 0
-1013 -1014 0
-1015 -1016 0
-1015 -1017 0
-1016 -1017 0
-1018 -1019 0
-1018 -1020 0
-1019 -1020 0
-1021 -1022 0
-1021 -1023 0
-1022 -1023 0
-1024 -1025 0
-1024 -1026 0
-1025 -1026 0
-1027 -1028 0
-1027 -1029 0
-1028 -1029 0
-1030 -1031 0
-1030 -1032 0
-1031 -1032 0
-1033 -1034 0
-1033 -1035 0
-1034 -1035 0
-1036 -1037 0
-1036 -1038 0
-1037 -1038 0
-1039 -1040 0
-1039 -1041 0
-1040 -1041 0
-1042 -1043 0
-1042 -1044 0
-1043 -1044 0
-1045 -1046 0
-1045 -1047 0
-1046 -1047 0
-1048 -1049 0
-1048 -1050 0
-1049 -1050 0
-1051 -1052 0
-1051 -1053 0
-1052 -1053 0
-1054 -1055 0
-1054 -1056 0
-1055 -1056 0
-1057 -1058 0
-1057 -1059 0
-1058 -1059 0
-1060 -1061 0
-1060 -1062 0
-1061 -1062 0
-1063 -1064 0
-1063 -1065 0
-1064 -1065 0
-1066 -1067 0
-1066 -1068 0
-1067 -1068 0
-1069 -1070 0
-1069 -1071 0
-1070 -1071 0
-1072 -1073 0
-1072 -1074 0
-1073 -1074 0
-1075 -1076 0
-1075 -1077 0
-1076 -1077 0
-1078 -1079 0
-1078 -1080 0
-1079 -1080 0
-1081 -1082 0
-1081 -1083 0
-1082 -1083 0
-1084 -1085 0
-1084 -1086 0
-1085 -1086 0
-1087 -1088 0
-1087 -1089 0
-1088 -1089 0
-1090 -1091 0
-1090 -1092 0
-1091 -1092 0
-1093 -1094 0
-1093 -1095 0
-1094 -1095 0
-1096 -1097 0
-1096 -1098 0
-1097 -1098 0
-1099 -1100 0
-1099 -1101 0
-1100 -1101 0
-1102 -1103 0
-1102 -1104 0
-1103 -1104 0
-1105 -1106 0
-1105 -1107 0
-1106 -1107 0
-1108 -1109 0
-1108 -1110 0
-1109 -1110 0
-1111 -1112 0
-1111 -1113 0
-1112 -1113 0
-1114 -1115 0
-1114 -1116 0
-1115 -1116 0
-1117 -1118 0
-1117 -1119 0
-1118 -1119 0
-1120 -1121 0
-1120 -1122 0
-1121 -1122 0
-1123 -1124 0
-1123 -1125 0
-1124 -1125 0
-1126 -1127 0
-1126 -1128 0
-1127 -1128 0
-1129 -1130 0
-1129 -1131 0
-1130 -1131 0
-1132 -1133 0
-1132 -1134 0
-1133 -1134 0
-1135 -1136 0
-1135 -1137 0
-1136 -1137 0
-1138 -1139 0
-1138 -1140 0
-1139 -1140 0
-1141 -1142 0
-1141 -1143 0
-1142 -1143 0
-1144 -1145 0
-1144 -1146 0
-1145 -1146 0
-1147 -1148 0
-1147 -1149 0
-1148 -1149 0
-1150 -1151 0
-1150 -1152 0
-1151 -1152 0
-1153 -1154 0
-1153 -1155 0
-1154 -1155 0
-1156 -1157 0
-1156 -1158 0
-1157 -1158 0
-1159 -1160 0
-1159 -1161 0
-1160 -1161 0
-1162 -1163 0
-1162 -1164 0
-1163 -1164 0
-1165 -1166 0
-1165 -1167 0
-1166 -1167 0
-1168 -1169 0
-1168 -1170 0
-1169 -1170 0
-1171 -1172 0
-1171 -1173 0
-1172 -1173 0
-1174 -1175 0
-1174 -1176 0
-1175 -1176 0
-1177 -1178 0
-1177 -1179 0
-1178 -1179 0
-1180 -1181 0
-1180 -1182 0
-1181 -1182 0
-1183 -1184 0
-1183 -1185 0
-1184 -1185 0
-1186 -1187 0
-1186 -1188 0
-1187 -1188 0
-1189 -1190 0
-1189 -1191 0
-1190 -1191 0
-1192 -1193 0
-1192 -1194 0
-1193 -1194 0
-1195 -1196 0
-1195 -1197 0
-1196 -1197 0
-1198 -1199 0
-1198 -1200 0
-1199 -1200 0
-1 -109 0
-2 -110 0
-3 -111 0
-1 -241 0
-2 -242 0
-3 -243 0
-1 -304 0
-2 -305 0
-3 -306 0
-1 -520 0
-2 -521 0
-3 -522 0
-1 -565 0
-2 -566 0
-3 -567 0
-1 -655 0
-2 -656 0
-3 -657 0
-1 -871 0
-2 -872 0
-3 -873 0
-4 -529 0
-5 -530 0
-6 -531 0
-4 -625 0
-5 -626 0
-6 -627 0
-4 -736 0
-5 -737 0
-6 -738 0
-4 -760 0
-5 -761 0
-6 -762 0
-4 -889 0
-5 -890 0
-6 -891 0
-4 -1000 0
-5 -1001 0
-6 -1002 0
-4 -1102 0
-5 -1103 0
-6 -1104 0
-7 -76 0
-8 -77 0
-9 -78 0
-7 -202 0
-8 -203 0
-9 -204 0
-7 -337 0
-8 -338 0
-9 -339 0
-7 -451 0
-8 -452 0
-9 -453 0
-7 -709 0
-8 -710 0
-9 -711 0
-7 -784 0
-8 -785 0
-9 -786 0
-7 -1003 0
-8 -1004 0
-9 -1005 0
-10 -493 0
-11 -494 0
-12 -495 0
-10 -727 0
-11 -728 0
-12 -729 0
-10 -1021 0
-11 -1022 0
-12 -1023 0
-10 -1099 0
-11 -1100 0
-12 -1101 0
-10 -1192 0
-11 -1193 0
-12 -1194 0
-13 -64 0
-14 -65 0
-15 -66 0
-13 -112 0
-14 -113 0
-15 -114 0
-13 -988 0
-14 -989 0
-15 -990 0
-13 -1063 0
-14 -1064 0
-15 -1065 0
-13 -1138 0
-14 -1139 0
-15 -1140 0
-16 -85 0
-17 -86 0
-18 -87 0
-16 -454 0
-17 -455 0
-18 -456 0
-16 -538 0
-17 -539 0
-18 -540 0
-16 -649 0
-17 -650 0
-18 -651 0
-16 -664 0
-17 -665 0
-18 -666 0
-16 -847 0
-17 -848 0
-18 -849 0
-16 -1099 0
-17 -1100 0
-18 -1101 0
-19 -130 0
-20 -131 0
-21 -132 0
-19 -250 0
-20 -251 0
-21 -252 0
-19 -427 0
-20 -428 0
-21 -429 0
-19 -439 0
-20 -440 0
-21 -441 0
-19 -586 0
-20 -587 0
-21 -588 0
-19 -598 0
-20 -599 0
-21 -600 0
-19 -616 0
-20 -617 0
-21 -618 0
-22 -115 0
-23 -116 0
-24 -117 0
-22 -193 0
-23 -194 0
-24 -195 0
-22 -319 0
-23 -320 0
-24 -321 0
-22 -442 0
-23 -443 0
-24 -444 0
-22 -706 0
-23 -707 0
-24 -708 0
-25 -154 0
-26 -155 0
-27 -156 0
-25 -385 0
-26 -386 0
-27 -387 0
-25 -475 0
-26 -476 0
-27 -477 0
-25 -955 0
-26 -956 0
-27 -957 0
-25 -1045 0
-26 -1046 0
-27 -1047 0
-28 -319 0
-29 -320 0
-30 -321 0
-28 -754 0
-29 -755 0
-30 -756 0
-28 -784 0
-29 -785 0
-30 -786 0
-28 -913 0
-29 -914 0
-30 -915 0
-31 -109 0
-32 -110 0
-33 -111 0
-31 -376 0
-32 -377 0
-33 -378 0
-31 -787 0
-32 -788 0
-33 -789 0
-34 -58 0
-35 -59 0
-36 -60 0
-34 -130 0
-35 -131 0
-36 -132 0
-34 -622 0
-35 -623 0
-36 -624 0
-34 -634 0
-35 -635 0
-36 -636 0
-34 -673 0
-35 -674 0
-36 -675 0
-34 -979 0
-35 -980 0
-36 -981 0
-37 -73 0
-38 -74 0
-39 -75 0
-37 -133 0
-38 -134 0
-39 -135 0
-40 -544 0
-41 -545 0
-42 -546 0
-40 -682 0
-41 -683 0
-42 -684 0
-40 -688 0
-41 -689 0
-42 -690 0
-43 -157 0
-44 -158 0
-45 -159 0
-43 -181 0
-44 -182 0
-45 -183 0
-43 -241 0
-44 -242 0
-45 -243 0
-43 -307 0
-44 -308 0
-45 -309 0
-43 -412 0
-44 -413 0
-45 -414 0
-43 -586 0
-44 -587 0
-45 -588 0
-43 -670 0
-44 -671 0
-45 -672 0
-43 -709 0
-44 -710 0
-45 -711 0
-43 -961 0
-44 -962 0
-45 -963 0
-46 -136 0
-47 -137 0
-48 -138 0
-46 -190 0
-47 -191 0
-48 -192 0
-46 -661 0
-47 -662 0
-48 -663 0
-46 -934 0
-47 -935 0
-48 -936 0
-49 -199 0
-50 -200 0
-51 -201 0
-49 -253 0
-50 -254 0
-51 -255 0
-49 -694 0
-50 -695 0
-51 -696 0
-52 -328 0
-53 -329 0
-54 -330 0
-52 -334 0
-53 -335 0
-54 -336 0
-52 -724 0
-53 -725 0
-54 -726 0
-52 -742 0
-53 -743 0
-54 -744 0
-52 -778 0
-53 -779 0
-54 -780 0
-55 -367 0
-56 -368 0
-57 -369 0
-55 -472 0
-56 -473 0
-57 -474 0
-55 -691 0
-56 -692 0
-57 -693 0
-55 -1105 0
-56 -1106 0
-57 -1107 0
-58 -358 0
-59 -359 0
-60 -360 0
-58 -361 0
-59 -362 0
-60 -363 0
-58 -679 0
-59 -680 0
-60 -681 0
-64 -544 0
-65 -545 0
-66 -546 0
-64 -697 0
-65 -698 0
-66 -699 0
-64 -1006 0
-65 -1007 0
-66 -1008 0
-67 -181 0
-68 -182 0
-69 -183 0
-67 -430 0
-68 -431 0
-69 -432 0
-67 -1120 0
-68 -1121 0
-69 -1122 0
-70 -439 0
-71 -440 0
-72 -441 0
-70 -556 0
-71 -557 0
-72 -558 0
-70 -715 0
-71 -716 0
-72 -717 0
-70 -799 0
-71 -800 0
-72 -801 0
-70 -1006 0
-71 -1007 0
-72 -1008 0
-76 -382 0
-77 -383 0
-78 -384 0
-76 -823 0
-77 -824 0
-78 -825 0
-76 -1012 0
-77 -1013 0
-78 -1014 0
-79 -142 0
-80 -143 0
-81 -144 0
-79 -361 0
-80 -362 0
-81 -363 0
-79 -976 0
-80 -977 0
-81 -978 0
-79 -1039 0
-80 -1040 0
-81 -1041 0
-82 -280 0
-83 -281 0
-84 -282 0
-82 -1129 0
-83 -1130 0
-84 -1131 0
-85 -154 0
-86 -155 0
-87 -156 0
-85 -196 0
-86 -197 0
-87 -198 0
-85 -727 0
-86 -728 0
-87 -729 0
-85 -904 0
-86 -905 0
-87 -906 0
-88 -415 0
-89 -416 0
-90 -417 0
-88 -550 0
-89 -551 0
-90 -552 0
-88 -640 0
-89 -641 0
-90 -642 0
-91 -709 0
-92 -710 0
-93 -711 0
-91 -1096 0
-92 -1097 0
-93 -1098 0
-94 -127 0
-95 -128 0
-96 -129 0
-94 -193 0
-95 -194 0
-96 -195 0
-94 -235 0
-95 -236 0
-96 -237 0
-94 -667 0
-95 -668 0
-96 -669 0
-94 -1198 0
-95 -1199 0
-96 -1200 0
-97 -271 0
-98 -272 0
-99 -273 0
-97 -571 0
-98 -572 0
-99 -573 0
-100 -115 0
-101 -116 0
-102 -117 0
-100 -223 0
-101 -224 0
-102 -225 0
-100 -484 0
-101 -485 0
-102 -486 0
-100 -493 0
-101 -494 0
-102 -495 0
-100 -562 0
-101 -563 0
-102 -564 0
-103 -217 0
-104 -218 0
-105 -219 0
-103 -829 0
-104 -830 0
-105 -831 0
-103 -895 0
-104 -896 0
-105 -897 0
-103 -961 0
-104 -962 0
-105 -963 0
-106 -376 0
-107 -377 0
-108 -378 0
-106 -403 0
-107 -404 0
-108 -405 0
-106 -655 0
-107 -656 0
-108 -657 0
-106 -1051 0
-107 -1052 0
-108 -1053 0
-109 -292 0
-110 -293 0
-111 -294 0
-109 -445 0
-110 -446 0
-111 -447 0
-109 -1066 0
-110 -1067 0
-111 -1068 0
-109 -1081 0
-110 -1082 0
-111 -1083 0
-109 -1195 0
-110 -1196 0
-111 -1197 0
-112 -736 0
-113 -737 0
-114 -738 0
-112 -886 0
-113 -887 0
-114 -888 0
-112 -913 0
-113 -914 0
-114 -915 0
-115 -280 0
-116 -281 0
-117 -282 0
-115 -355 0
-116 -356 0
-117 -357 0
-115 -367 0
-116 -368 0
-117 -369 0
-115 -595 0
-116 -596 0
-117 -597 0
-115 -1174 0
-116 -1175 0
-117 -1176 0
-118 -178 0
-119 -179 0
-120 -180 0
-118 -259 0
-119 -260 0
-120 -261 0
-118 -418 0
-119 -419 0
-120 -420 0
-118 -427 0
-119 -428 0
-120 -429 0
-118 -742 0
-119 -743 0
-120 -744 0
-118 -1009 0
-119 -1010 0
-120 -1011 0
-118 -1051 0
-119 -1052 0
-120 -1053 0
-118 -1114 0
-119 -1115 0
-120 -1116 0
-121 -370 0
-122 -371 0
-123 -372 0
-121 -580 0
-122 -581 0
-123 -582 0
-121 -724 0
-122 -725 0
-123 -726 0
-121 -880 0
-122 -881 0
-123 -882 0
-121 -1045 0
-122 -1046 0
-123 -1047 0
-124 -253 0
-125 -254 0
-126 -255 0
-124 -412 0
-125 -413 0
-126 -414 0
-124 -715 0
-125 -716 0
-126 -717 0
-124 -760 0
-125 -761 0
-126 -762 0
-124 -862 0
-125 -863 0
-126 -864 0
-124 -1042 0
-125 -1043 0
-126 -1044 0
-127 -466 0
-128 -467 0
-129 -468 0
-127 -649 0
-128 -650 0
-129 -651 0
-127 -781 0
-128 -782 0
-129 -783 0
-127 -817 0
-128 -818 0
-129 -819 0
-127 -1066 0
-128 -1067 0
-129 -1068 0
-127 -1096 0
-128 -1097 0
-129 -1098 0
-127 -1174 0
-128 -1175 0
-129 -1176 0
-130 -469 0
-131 -470 0
-132 -471 0
-130 -694 0
-131 -695 0
-132 -696 0
-130 -934 0
-131 -935 0
-132 -936 0
-130 -1036 0
-131 -1037 0
-132 -1038 0
-130 -1135 0
-131 -1136 0
-132 -1137 0
-130 -1153 0
-131 -1154 0
-132 -1155 0
-133 -436 0
-134 -437 0
-135 -438 0
-133 -559 0
-134 -560 0
-135 -561 0
-133 -766 0
-134 -767 0
-135 -768 0
-133 -943 0
-134 -944 0
-135 -945 0
-133 -961 0
-134 -962 0
-135 -963 0
-133 -1165 0
-134 -1166 0
-135 -1167 0
-136 -388 0
-137 -389 0
-138 -390 0
-136 -463 0
-137 -464 0
-138 -465 0
-136 -562 0
-137 -563 0
-138 -564 0
-139 -781 0
-140 -782 0
-141 -783 0
-139 -937 0
-140 -938 0
-141 -939 0
-139 -1090 0
-140 -1091 0
-141 -1092 0
-139 -1156 0
-140 -1157 0
-141 -1158 0
-142 -232 0
-143 -233 0
-144 -234 0
-142 -358 0
-143 -359 0
-144 -360 0
-142 -880 0
-143 -881 0
-144 -882 0
-142 -1108 0
-143 -1109 0
-144 -1110 0
-145 -163 0
-146 -164 0
-147 -165 0
-145 -574 0
-146 -575 0
-147 -576 0
-145 -709 0
-146 -710 0
-147 -711 0
-145 -1087 0
-146 -1088 0
-147 -1089 0
-145 -1156 0
-146 -1157 0
-147 -1158 0
-145 -1180 0
-146 -1181 0
-147 -1182 0
-148 -856 0
-149 -857 0
-150 -858 0
-148 -1042 0
-149 -1043 0
-150 -1044 0
-148 -1111 0
-149 -1112 0
-150 -1113 0
-148 -1171 0
-149 -1172 0
-150 -1173 0
-148 -1180 0
-149 -1181 0
-150 -1182 0
-151 -289 0
-152 -290 0
-153 -291 0
-151 -682 0
-152 -683 0
-153 -684 0
-151 -706 0
-152 -707 0
-153 -708 0
-151 -790 0
-152 -791 0
-153 -792 0
-151 -901 0
-152 -902 0
-153 -903 0
-154 -982 0
-155 -983 0
-156 -984 0
-154 -1150 0
-155 -1151 0
-156 -1152 0
-157 -220 0
-158 -221 0
-159 -222 0
-157 -289 0
-158 -290 0
-159 -291 0
-157 -775 0
-158 -776 0
-159 -777 0
-157 -961 0
-158 -962 0
-159 -963 0
-157 -1030 0
-158 -1031 0
-159 -1032 0
-157 -1162 0
-158 -1163 0
-159 -1164 0
-160 -181 0
-161 -182 0
-162 -183 0
-160 -541 0
-161 -542 0
-162 -543 0
-160 -829 0
-161 -830 0
-162 -831 0
-160 -970 0
-161 -971 0
-162 -972 0
-163 -316 0
-164 -317 0
-165 -318 0
-163 -643 0
-164 -644 0
-165 -645 0
-166 -364 0
-167 -365 0
-168 -366 0
-166 -427 0
-167 -428 0
-168 -429 0
-166 -640 0
-167 -641 0
-168 -642 0
-166 -691 0
-167 -692 0
-168 -693 0
-166 -700 0
-167 -701 0
-168 -702 0
-166 -823 0
-167 -824 0
-168 -825 0
-169 -781 0
-170 -782 0
-171 -783 0
-169 -964 0
-170 -965 0
-171 -966 0
-169 -1177 0
-170 -1178 0
-171 -1179 0
-172 -916 0
-173 -917 0
-174 -918 0
-172 -991 0
-173 -992 0
-174 -993 0
-172 -1192 0
-173 -1193 0
-174 -1194 0
-175 -235 0
-176 -236 0
-177 -237 0
-175 -577 0
-176 -578 0
-177 -579 0
-175 -685 0
-176 -686 0
-177 -687 0
-175 -1132 0
-176 -1133 0
-177 -1134 0
-178 -220 0
-179 -221 0
-180 -222 0
-178 -871 0
-179 -872 0
-180 -873 0
-181 -775 0
-182 -776 0
-183 -777 0
-181 -994 0
-182 -995 0
-183 -996 0
-184 -295 0
-185 -296 0
-186 -297 0
-184 -391 0
-185 -392 0
-186 -393 0
-184 -865 0
-185 -866 0
-186 -867 0
-184 -1141 0
-185 -1142 0
-186 -1143 0
-187 -217 0
-188 -218 0
-189 -219 0
-187 -307 0
-188 -308 0
-189 -309 0
-187 -451 0
-188 -452 0
-189 -453 0
-187 -751 0
-188 -752 0
-189 -753 0
-187 -1192 0
-188 -1193 0
-189 -1194 0
-190 -610 0
-191 -611 0
-192 -612 0
-190 -922 0
-191 -923 0
-192 -924 0
-190 -931 0
-191 -932 0
-192 -933 0
-190 -1042 0
-191 -1043 0
-192 -1044 0
-190 -1195 0
-191 -1196 0
-192 -1197 0
-193 -841 0
-194 -842 0
-195 -843 0
-193 -1114 0
-194 -1115 0
-195 -1116 0
-196 -217 0
-197 -218 0
-198 -219 0
-196 -367 0
-197 -368 0
-198 -369 0
-196 -376 0
-197 -377 0
-198 -378 0
-196 -409 0
-197 -410 0
-198 -411 0
-196 -547 0
-197 -548 0
-198 -549 0
-196 -610 0
-197 -611 0
-198 -612 0
-196 -745 0
-197 -746 0
-198 -747 0
-196 -895 0
-197 -896 0
-198 -897 0
-196 -1102 0
-197 -1103 0
-198 -1104 0
-199 -493 0
-200 -494 0
-201 -495 0
-199 -604 0
-200 -605 0
-201 -606 0
-199 -904 0
-200 -905 0
-201 -906 0
-199 -910 0
-200 -911 0
-201 -912 0
-199 -967 0
-200 -968 0
-201 -969 0
-199 -1162 0
-200 -1163 0
-201 -1164 0
-202 -700 0
-203 -701 0
-204 -702 0
-205 -247 0
-206 -248 0
-207 -249 0
-205 -289 0
-206 -290 0
-207 -291 0
-205 -418 0
-206 -419 0
-207 -420 0
-205 -457 0
-206 -458 0
-207 -459 0
-205 -565 0
-206 -566 0
-207 -567 0
-208 -280 0
-209 -281 0
-210 -282 0
-208 -574 0
-209 -575 0
-210 -576 0
-208 -652 0
-209 -653 0
-210 -654 0
-208 -745 0
-209 -746 0
-210 -747 0
-214 -328 0
-215 -329 0
-216 -330 0
-214 -661 0
-215 -662 0
-216 -663 0
-214 -691 0
-215 -692 0
-216 -693 0
-214 -712 0
-215 -713 0
-216 -714 0
-217 -598 0
-218 -599 0
-219 -600 0
-217 -688 0
-218 -689 0
-219 -690 0
-217 -820 0
-218 -821 0
-219 -822 0
-217 -865 0
-218 -866 0
-219 -867 0
-220 -499 0
-221 -500 0
-222 -501 0
-223 -349 0
-224 -350 0
-225 -351 0
-223 -499 0
-224 -500 0
-225 -501 0
-223 -574 0
-224 -575 0
-225 -576 0
-223 -607 0
-224 -608 0
-225 -609 0
-223 -649 0
-224 -650 0
-225 -651 0
-223 -751 0
-224 -752 0
-225 -753 0
-223 -808 0
-224 -809 0
-225 -810 0
-223 -1090 0
-224 -1091 0
-225 -1092 0
-223 -1123 0
-224 -1124 0
-225 -1125 0
-229 -463 0
-230 -464 0
-231 -465 0
-229 -520 0
-230 -521 0
-231 -522 0
-229 -535 0
-230 -536 0
-231 -537 0
-232 -343 0
-233 -344 0
-234 -345 0
-232 -367 0
-233 -368 0
-234 -369 0
-232 -400 0
-233 -401 0
-234 -402 0
-232 -526 0
-233 -527 0
-234 -528 0
-232 -754 0
-233 -755 0
-234 -756 0
-232 -925 0
-233 -926 0
-234 -927 0
-235 -400 0
-236 -401 0
-237 -402 0
-235 -517 0
-236 -518 0
-237 -519 0
-235 -577 0
-236 -578 0
-237 -579 0
-235 -778 0
-236 -779 0
-237 -780 0
-235 -781 0
-236 -782 0
-237 -783 0
-235 -907 0
-236 -908 0
-237 -909 0
-235 -994 0
-236 -995 0
-237 -996 0
-238 -286 0
-239 -287 0
-240 -288 0
-238 -400 0
-239 -401 0
-240 -402 0
-238 -742 0
-239 -743 0
-240 -744 0
-238 -1168 0
-239 -1169 0
-240 -1170 0
-241 -388 0
-242 -389 0
-243 -390 0
-244 -259 0
-245 -260 0
-246 -261 0
-244 -424 0
-245 -425 0
-246 -426 0
-244 -718 0
-245 -719 0
-246 -720 0
-244 -829 0
-245 -830 0
-246 -831 0
-244 -1159 0
-245 -1160 0
-246 -1161 0
-247 -334 0
-248 -335 0
-249 -336 0
-247 -508 0
-248 -509 0
-249 -510 0
-247 -601 0
-248 -602 0
-249 -603 0
-247 -721 0
-248 -722 0
-249 -723 0
-247 -841 0
-248 -842 0
-249 -843 0
-250 -517 0
-251 -518 0
-252 -519 0
-250 -649 0
-251 -650 0
-252 -651 0
-250 -844 0
-251 -845 0
-252 -846 0
-250 -988 0
-251 -989 0
-252 -990 0
-250 -1015 0
-251 -1016 0
-252 -1017 0
-253 -622 0
-254 -623 0
-255 -624 0
-253 -655 0
-254 -656 0
-255 -657 0
-256 -481 0
-257 -482 0
-258 -483 0
-256 -1066 0
-257 -1067 0
-258 -1068 0
-259 -343 0
-260 -344 0
-261 -345 0
-259 -1024 0
-260 -1025 0
-261 -1026 0
-262 -286 0
-263 -287 0
-264 -288 0
-262 -361 0
-263 -362 0
-264 -363 0
-262 -520 0
-263 -521 0
-264 -522 0
-265 -1015 0
-266 -1016 0
-267 -1017 0
-268 -301 0
-269 -302 0
-270 -303 0
-268 -340 0
-269 -341 0
-270 -342 0
-268 -445 0
-269 -446 0
-270 -447 0
-268 -613 0
-269 -614 0
-270 -615 0
-268 -949 0
-269 -950 0
-270 -951 0
-268 -1006 0
-269 -1007 0
-270 -1008 0
-268 -1198 0
-269 -1199 0
-270 -1200 0
-271 -322 0
-272 -323 0
-273 -324 0
-271 -826 0
-272 -827 0
-273 -828 0
-271 -1045 0
-272 -1046 0
-273 -1047 0
-274 -601 0
-275 -602 0
-276 -603 0
-274 -874 0
-275 -875 0
-276 -876 0
-274 -901 0
-275 -902 0
-276 -903 0
-277 -283 0
-278 -284 0
-279 -285 0
-277 -1147 0
-278 -1148 0
-279 -1149 0
-277 -1183 0
-278 -1184 0
-279 -1185 0
-280 -436 0
-281 -437 0
-282 -438 0
-280 -883 0
-281 -884 0
-282 -885 0
-283 -460 0
-284 -461 0
-285 -462 0
-283 -640 0
-284 -641 0
-285 -642 0
-283 -1009 0
-284 -1010 0
-285 -1011 0
-286 -568 0
-287 -569 0
-288 -570 0
-286 -664 0
-287 -665 0
-288 -666 0
-286 -910 0
-287 -911 0
-288 -912 0
-289 -436 0
-290 -437 0
-291 -438 0
-289 -508 0
-290 -509 0
-291 -510 0
-289 -589 0
-290 -590 0
-291 -591 0
-289 -682 0
-290 -683 0
-291 -684 0
-289 -850 0
-290 -851 0
-291 -852 0
-289 -913 0
-290 -914 0
-291 -915 0
-289 -1159 0
-290 -1160 0
-291 -1161 0
-292 -394 0
-293 -395 0
-294 -396 0
-292 -709 0
-293 -710 0
-294 -711 0
-292 -1033 0
-293 -1034 0
-294 -1035 0
-292 -1159 0
-293 -1160 0
-294 -1161 0
-295 -907 0
-296 -908 0
-297 -909 0
-295 -1093 0
-296 -1094 0
-297 -1095 0
-295 -1165 0
-296 -1166 0
-297 -1167 0
-298 -598 0
-299 -599 0
-300 -600 0
-298 -703 0
-299 -704 0
-300 -705 0
-298 -913 0
-299 -914 0
-300 -915 0
-298 -1039 0
-299 -1040 0
-300 -1041 0
-298 -1114 0
-299 -1115 0
-300 -1116 0
-301 -496 0
-302 -497 0
-303 -498 0
-304 -310 0
-305 -311 0
-306 -312 0
-304 -826 0
-305 -827 0
-306 -828 0
-304 -943 0
-305 -944 0
-306 -945 0
-304 -976 0
-305 -977 0
-306 -978 0
-304 -979 0
-305 -980 0
-306 -981 0
-307 -601 0
-308 -602 0
-309 -603 0
-307 -1192 0
-308 -1193 0
-309 -1194 0
-310 -817 0
-311 -818 0
-312 -819 0
-310 -1081 0
-311 -1082 0
-312 -1083 0
-313 -442 0
-314 -443 0
-315 -444 0
-313 -610 0
-314 -611 0
-315 -612 0
-313 -943 0
-314 -944 0
-315 -945 0
-316 -823 0
-317 -824 0
-318 -825 0
-316 -913 0
-317 -914 0
-318 -915 0
-316 -985 0
-317 -986 0
-318 -987 0
-316 -1063 0
-317 -1064 0
-318 -1065 0
-316 -1150 0
-317 -1151 0
-318 -1152 0
-319 -355 0
-320 -356 0
-321 -357 0
-319 -454 0
-320 -455 0
-321 -456 0
-319 -490 0
-320 -491 0
-321 -492 0
-319 -688 0
-320 -689 0
-321 -690 0
-319 -949 0
-320 -950 0
-321 -951 0
-322 -484 0
-323 -485 0
-324 -486 0
-322 -1012 0
-323 -1013 0
-324 -1014 0
-322 -1054 0
-323 -1055 0
-324 -1056 0
-325 -931 0
-326 -932 0
-327 -933 0
-325 -1036 0
-326 -1037 0
-327 -1038 0
-325 -1048 0
-326 -1049 0
-327 -1050 0
-325 -1168 0
-326 -1169 0
-327 -1170 0
-328 -481 0
-329 -482 0
-330 -483 0
-328 -493 0
-329 -494 0
-330 -495 0
-328 -634 0
-329 -635 0
-330 -636 0
-328 -958 0
-329 -959 0
-330 -960 0
-331 -652 0
-332 -653 0
-333 -654 0
-331 -715 0
-332 -716 0
-333 -717 0
-331 -748 0
-332 -749 0
-333 -750 0
-334 -409 0
-335 -410 0
-336 -411 0
-334 -868 0
-335 -869 0
-336 -870 0
-334 -904 0
-335 -905 0
-336 -906 0
-337 -1012 0
-338 -1013 0
-339 -1014 0
-340 -418 0
-341 -419 0
-342 -420 0
-340 -685 0
-341 -686 0
-342 -687 0
-340 -715 0
-341 -716 0
-342 -717 0
-340 -1198 0
-341 -1199 0
-342 -1200 0
-343 -508 0
-344 -509 0
-345 -510 0
-343 -613 0
-344 -614 0
-345 -615 0
-343 -673 0
-344 -674 0
-345 -675 0
-343 -739 0
-344 -740 0
-345 -741 0
-343 -1042 0
-344 -1043 0
-345 -1044 0
-346 -1036 0
-347 -1037 0
-348 -1038 0
-346 -1183 0
-347 -1184 0
-348 -1185 0
-349 -613 0
-350 -614 0
-351 -615 0
-349 -631 0
-350 -632 0
-351 -633 0
-349 -910 0
-350 -911 0
-351 -912 0
-349 -940 0
-350 -941 0
-351 -942 0
-349 -1018 0
-350 -1019 0
-351 -1020 0
-349 -1060 0
-350 -1061 0
-351 -1062 0
-352 -463 0
-353 -464 0
-354 -465 0
-352 -493 0
-353 -494 0
-354 -495 0
-352 -517 0
-353 -518 0
-354 -519 0
-352 -676 0
-353 -677 0
-354 -678 0
-352 -745 0
-353 -746 0
-354 -747 0
-352 -877 0
-353 -878 0
-354 -879 0
-352 -1045 0
-353 -1046 0
-354 -1047 0
-352 -1108 0
-353 -1109 0
-354 -1110 0
-355 -463 0
-356 -464 0
-357 -465 0
-358 -1138 0
-359 -1139 0
-360 -1140 0
-361 -415 0
-362 -416 0
-363 -417 0
-361 -763 0
-362 -764 0
-363 -765 0
-364 -781 0
-365 -782 0
-366 -783 0
-364 -889 0
-365 -890 0
-366 -891 0
-364 -922 0
-365 -923 0
-366 -924 0
-364 -1087 0
-365 -1088 0
-366 -1089 0
-367 -1105 0
-368 -1106 0
-369 -1107 0
-370 -559 0
-371 -560 0
-372 -561 0
-370 -667 0
-371 -668 0
-372 -669 0
-370 -787 0
-371 -788 0
-372 -789 0
-370 -1198 0
-371 -1199 0
-372 -1200 0
-373 -493 0
-374 -494 0
-375 -495 0
-373 -565 0
-374 -566 0
-375 -567 0
-373 -643 0
-374 -644 0
-375 -645 0
-373 -1042 0
-374 -1043 0
-375 -1044 0
-376 -625 0
-377 -626 0
-378 -627 0
-376 -925 0
-377 -926 0
-378 -927 0
-379 -559 0
-380 -560 0
-381 -561 0
-379 -562 0
-380 -563 0
-381 -564 0
-379 -928 0
-380 -929 0
-381 -930 0
-379 -1066 0
-380 -1067 0
-381 -1068 0
-379 -1084 0
-380 -1085 0
-381 -1086 0
-382 -478 0
-383 -479 0
-384 -480 0
-382 -715 0
-383 -716 0
-384 -717 0
-382 -736 0
-383 -737 0
-384 -738 0
-382 -760 0
-383 -761 0
-384 -762 0
-388 -454 0
-389 -455 0
-390 -456 0
-388 -925 0
-389 -926 0
-390 -927 0
-391 -817 0
-392 -818 0
-393 -819 0
-391 -1153 0
-392 -1154 0
-393 -1155 0
-394 -598 0
-395 -599 0
-396 -600 0
-394 -796 0
-395 -797 0
-396 -798 0
-397 -541 0
-398 -542 0
-399 -543 0
-400 -730 0
-401 -731 0
-402 -732 0
-400 -970 0
-401 -971 0
-402 -972 0
-403 -517 0
-404 -518 0
-405 -519 0
-403 -883 0
-404 -884 0
-405 -885 0
-403 -1093 0
-404 -1094 0
-405 -1095 0
-403 -1099 0
-404 -1100 0
-405 -1101 0
-406 -436 0
-407 -437 0
-408 -438 0
-406 -1102 0
-407 -1103 0
-408 -1104 0
-409 -418 0
-410 -419 0
-411 -420 0
-409 -853 0
-410 -854 0
-411 -855 0
-409 -1006 0
-410 -1007 0
-411 -1008 0
-409 -1135 0
-410 -1136 0
-411 -1137 0
-412 -586 0
-413 -587 0
-414 -588 0
-412 -796 0
-413 -797 0
-414 -798 0
-412 -823 0
-413 -824 0
-414 -825 0
-412 -1075 0
-413 -1076 0
-414 -1077 0
-412 -1111 0
-413 -1112 0
-414 -1113 0
-415 -442 0
-416 -443 0
-417 -444 0
-415 -796 0
-416 -797 0
-417 -798 0
-415 -964 0
-416 -965 0
-417 -966 0
-418 -580 0
-419 -581 0
-420 -582 0
-418 -775 0
-419 -776 0
-420 -777 0
-418 -1063 0
-419 -1064 0
-420 -1065 0
-421 -637 0
-422 -638 0
-423 -639 0
-421 -643 0
-422 -644 0
-423 -645 0
-421 -970 0
-422 -971 0
-423 -972 0
-421 -1039 0
-422 -1040 0
-423 -1041 0
-421 -1198 0
-422 -1199 0
-423 -1200 0
-424 -562 0
-425 -563 0
-426 -564 0
-424 -1009 0
-425 -1010 0
-426 -1011 0
-427 -970 0
-428 -971 0
-429 -972 0
-433 -598 0
-434 -599 0
-435 -600 0
-433 -742 0
-434 -743 0
-435 -744 0
-433 -880 0
-434 -881 0
-435 -882 0
-433 -985 0
-434 -986 0
-435 -987 0
-436 -646 0
-437 -647 0
-438 -648 0
-436 -658 0
-437 -659 0
-438 -660 0
-436 -673 0
-437 -674 0
-438 -675 0
-436 -826 0
-437 -827 0
-438 -828 0
-439 -475 0
-440 -476 0
-441 -477 0
-439 -733 0
-440 -734 0
-441 -735 0
-439 -796 0
-440 -797 0
-441 -798 0
-439 -925 0
-440 -926 0
-441 -927 0
-442 -559 0
-443 -560 0
-444 -561 0
-442 -886 0
-443 -887 0
-444 -888 0
-442 -895 0
-443 -896 0
-444 -897 0
-442 -910 0
-443 -911 0
-444 -912 0
-442 -1135 0
-443 -1136 0
-444 -1137 0
-445 -559 0
-446 -560 0
-447 -561 0
-445 -676 0
-446 -677 0
-447 -678 0
-448 -565 0
-449 -566 0
-450 -567 0
-448 -631 0
-449 -632 0
-450 -633 0
-448 -1096 0
-449 -1097 0
-450 -1098 0
-448 -1123 0
-449 -1124 0
-450 -1125 0
-451 -511 0
-452 -512 0
-453 -513 0
-451 -1087 0
-452 -1088 0
-453 -1089 0
-454 -511 0
-455 -512 0
-456 -513 0
-454 -532 0
-455 -533 0
-456 -534 0
-454 -544 0
-455 -545 0
-456 -546 0
-454 -565 0
-455 -566 0
-456 -567 0
-454 -724 0
-455 -725 0
-456 -726 0
-454 -736 0
-455 -737 0
-456 -738 0
-454 -946 0
-455 -947 0
-456 -948 0
-454 -1090 0
-455 -1091 0
-456 -1092 0
-454 -1153 0
-455 -1154 0
-456 -1155 0
-457 -667 0
-458 -668 0
-459 -669 0
-460 -487 0
-461 -488 0
-462 -489 0
-460 -511 0
-461 -512 0
-462 -513 0
-460 -535 0
-461 -536 0
-462 -537 0
-460 -670 0
-461 -671 0
-462 -672 0
-460 -985 0
-461 -986 0
-462 -987 0
-460 -988 0
-461 -989 0
-462 -990 0
-463 -766 0
-464 -767 0
-465 -768 0
-463 -853 0
-464 -854 0
-465 -855 0
-463 -913 0
-464 -914 0
-465 -915 0
-463 -1081 0
-464 -1082 0
-465 -1083 0
-466 -478 0
-467 -479 0
-468 -480 0
-466 -592 0
-467 -593 0
-468 -594 0
-466 -634 0
-467 -635 0
-468 -636 0
-472 -490 0
-473 -491 0
-474 -492 0
-472 -562 0
-473 -563 0
-474 -564 0
-472 -850 0
-473 -851 0
-474 -852 0
-472 -976 0
-473 -977 0
-474 -978 0
-475 -634 0
-476 -635 0
-477 -636 0
-475 -811 0
-476 -812 0
-477 -813 0
-475 -850 0
-476 -851 0
-477 -852 0
-478 -796 0
-479 -797 0
-480 -798 0
-478 -1003 0
-479 -1004 0
-480 -1005 0
-478 -1054 0
-479 -1055 0
-480 -1056 0
-478 -1168 0
-479 -1169 0
-480 -1170 0
-481 -487 0
-482 -488 0
-483 -489 0
-481 -535 0
-482 -536 0
-483 -537 0
-481 -1027 0
-482 -1028 0
-483 -1029 0
-481 -1096 0
-482 -1097 0
-483 -1098 0
-481 -1114 0
-482 -1115 0
-483 -1116 0
-481 -1198 0
-482 -1199 0
-483 -1200 0
-484 -517 0
-485 -518 0
-486 -519 0
-484 -637 0
-485 -638 0
-486 -639 0
-484 -871 0
-485 -872 0
-486 -873 0
-484 -937 0
-485 -938 0
-486 -939 0
-484 -1021 0
-485 -1022 0
-486 -1023 0
-487 -892 0
-488 -893 0
-489 -894 0
-487 -985 0
-488 -986 0
-489 -987 0
-487 -1030 0
-488 -1031 0
-489 -1032 0
-490 -670 0
-491 -671 0
-492 -672 0
-490 -721 0
-491 -722 0
-492 -723 0
-490 -766 0
-491 -767 0
-492 -768 0
-490 -835 0
-491 -836 0
-492 -837 0
-493 -643 0
-494 -644 0
-495 -645 0
-493 -778 0
-494 -779 0
-495 -780 0
-493 -790 0
-494 -791 0
-495 -792 0
-493 -799 0
-494 -800 0
-495 -801 0
-493 -841 0
-494 -842 0
-495 -843 0
-493 -1069 0
-494 -1070 0
-495 -1071 0
-499 -523 0
-500 -524 0
-501 -525 0
-499 -784 0
-500 -785 0
-501 -786 0
-499 -895 0
-500 -896 0
-501 -897 0
-499 -1012 0
-500 -1013 0
-501 -1014 0
-499 -1084 0
-500 -1085 0
-501 -1086 0
-505 -838 0
-506 -839 0
-507 -840 0
-505 -916 0
-506 -917 0
-507 -918 0
-505 -1084 0
-506 -1085 0
-507 -1086 0
-508 -676 0
-509 -677 0
-510 -678 0
-508 -1006 0
-509 -1007 0
-510 -1008 0
-508 -1111 0
-509 -1112 0
-510 -1113 0
-508 -1123 0
-509 -1124 0
-510 -1125 0
-511 -688 0
-512 -689 0
-513 -690 0
-514 -682 0
-515 -683 0
-516 -684 0
-514 -862 0
-515 -863 0
-516 -864 0
-514 -928 0
-515 -929 0
-516 -930 0
-514 -1192 0
-515 -1193 0
-516 -1194 0
-517 -589 0
-518 -590 0
-519 -591 0
-517 -658 0
-518 -659 0
-519 -660 0
-517 -841 0
-518 -842 0
-519 -843 0
-523 -685 0
-524 -686 0
-525 -687 0
-523 -718 0
-524 -719 0
-525 -720 0
-523 -730 0
-524 -731 0
-525 -732 0
-523 -811 0
-524 -812 0
-525 -813 0
-523 -823 0
-524 -824 0
-525 -825 0
-523 -838 0
-524 -839 0
-525 -840 0
-523 -1189 0
-524 -1190 0
-525 -1191 0
-526 -580 0
-527 -581 0
-528 -582 0
-526 -1174 0
-527 -1175 0
-528 -1176 0
-529 -754 0
-530 -755 0
-531 -756 0
-529 -1108 0
-530 -1109 0
-531 -1110 0
-532 -565 0
-533 -566 0
-534 -567 0
-532 -583 0
-533 -584 0
-534 -585 0
-532 -640 0
-533 -641 0
-534 -642 0
-532 -715 0
-533 -716 0
-534 -717 0
-532 -880 0
-533 -881 0
-534 -882 0
-532 -955 0
-533 -956 0
-534 -957 0
-532 -967 0
-533 -968 0
-534 -969 0
-532 -979 0
-533 -980 0
-534 -981 0
-535 -703 0
-536 -704 0
-537 -705 0
-535 -784 0
-536 -785 0
-537 -786 0
-535 -901 0
-536 -902 0
-537 -903 0
-535 -958 0
-536 -959 0
-537 -960 0
-538 -691 0
-539 -692 0
-540 -693 0
-538 -808 0
-539 -809 0
-540 -810 0
-541 -631 0
-542 -632 0
-543 -633 0
-541 -751 0
-542 -752 0
-543 -753 0
-541 -946 0
-542 -947 0
-543 -948 0
-541 -1114 0
-542 -1115 0
-543 -1116 0
-544 -670 0
-545 -671 0
-546 -672 0
-547 -607 0
-548 -608 0
-549 -609 0
-547 -859 0
-548 -860 0
-549 -861 0
-550 -802 0
-551 -803 0
-552 -804 0
-553 -751 0
-554 -752 0
-555 -753 0
-553 -949 0
-554 -950 0
-555 -951 0
-559 -691 0
-560 -692 0
-561 -693 0
-559 -838 0
-560 -839 0
-561 -840 0
-559 -853 0
-560 -854 0
-561 -855 0
-559 -1123 0
-560 -1124 0
-561 -1125 0
-559 -1141 0
-560 -1142 0
-561 -1143 0
-562 -1195 0
-563 -1196 0
-564 -1197 0
-565 -700 0
-566 -701 0
-567 -702 0
-565 -826 0
-566 -827 0
-567 -828 0
-565 -850 0
-566 -851 0
-567 -852 0
-565 -892 0
-566 -893 0
-567 -894 0
-568 -601 0
-569 -602 0
-570 -603 0
-568 -730 0
-569 -731 0
-570 -732 0
-568 -784 0
-569 -785 0
-570 -786 0
-571 -742 0
-572 -743 0
-573 -744 0
-571 -1165 0
-572 -1166 0
-573 -1167 0
-574 -577 0
-575 -578 0
-576 -579 0
-574 -580 0
-575 -581 0
-576 -582 0
-574 -622 0
-575 -623 0
-576 -624 0
-574 -760 0
-575 -761 0
-576 -762 0
-574 -1012 0
-575 -1013 0
-576 -1014 0
-574 -1174 0
-575 -1175 0
-576 -1176 0
-580 -793 0
-581 -794 0
-582 -795 0
-580 -1135 0
-581 -1136 0
-582 -1137 0
-583 -709 0
-584 -710 0
-585 -711 0
-583 -721 0
-584 -722 0
-585 -723 0
-583 -835 0
-584 -836 0
-585 -837 0
-583 -874 0
-584 -875 0
-585 -876 0
-586 -724 0
-587 -725 0
-588 -726 0
-586 -730 0
-587 -731 0
-588 -732 0
-586 -796 0
-587 -797 0
-588 -798 0
-589 -811 0
-590 -812 0
-591 -813 0
-592 -904 0
-593 -905 0
-594 -906 0
-592 -967 0
-593 -968 0
-594 -969 0
-595 -598 0
-596 -599 0
-597 -600 0
-595 -658 0
-596 -659 0
-597 -660 0
-595 -754 0
-596 -755 0
-597 -756 0
-595 -895 0
-596 -896 0
-597 -897 0
-598 -616 0
-599 -617 0
-600 -618 0
-598 -658 0
-599 -659 0
-600 -660 0
-598 -697 0
-599 -698 0
-600 -699 0
-598 -880 0
-599 -881 0
-600 -882 0
-598 -958 0
-599 -959 0
-600 -960 0
-598 -1111 0
-599 -1112 0
-600 -1113 0
-601 -865 0
-602 -866 0
-603 -867 0
-601 -1087 0
-602 -1088 0
-603 -1089 0
-604 -700 0
-605 -701 0
-606 -702 0
-604 -1021 0
-605 -1022 0
-606 -1023 0
-604 -1087 0
-605 -1088 0
-606 -1089 0
-607 -661 0
-608 -662 0
-609 -663 0
-607 -664 0
-608 -665 0
-609 -666 0
-607 -928 0
-608 -929 0
-609 -930 0
-607 -1096 0
-608 -1097 0
-609 -1098 0
-610 -916 0
-611 -917 0
-612 -918 0
-613 -1039 0
-614 -1040 0
-615 -1041 0
-616 -646 0
-617 -647 0
-618 -648 0
-616 -754 0
-617 -755 0
-618 -756 0
-616 -1081 0
-617 -1082 0
-618 -1083 0
-616 -1093 0
-617 -1094 0
-618 -1095 0
-619 -820 0
-620 -821 0
-621 -822 0
-619 -853 0
-620 -854 0
-621 -855 0
-619 -1021 0
-620 -1022 0
-621 -1023 0
-622 -955 0
-623 -956 0
-624 -957 0
-622 -979 0
-623 -980 0
-624 -981 0
-625 -1009 0
-626 -1010 0
-627 -1011 0
-625 -1108 0
-626 -1109 0
-627 -1110 0
-628 -994 0
-629 -995 0
-630 -996 0
-637 -922 0
-638 -923 0
-639 -924 0
-640 -766 0
-641 -767 0
-642 -768 0
-640 -805 0
-641 -806 0
-642 -807 0
-640 -988 0
-641 -989 0
-642 -990 0
-640 -1075 0
-641 -1076 0
-642 -1077 0
-640 -1087 0
-641 -1088 0
-642 -1089 0
-640 -1111 0
-641 -1112 0
-642 -1113 0
-643 -724 0
-644 -725 0
-645 -726 0
-643 -985 0
-644 -986 0
-645 -987 0
-646 -751 0
-647 -752 0
-648 -753 0
-649 -1024 0
-650 -1025 0
-651 -1026 0
-652 -679 0
-653 -680 0
-654 -681 0
-652 -886 0
-653 -887 0
-654 -888 0
-652 -913 0
-653 -914 0
-654 -915 0
-652 -991 0
-653 -992 0
-654 -993 0
-652 -1003 0
-653 -1004 0
-654 -1005 0
-652 -1051 0
-653 -1052 0
-654 -1053 0
-655 -781 0
-656 -782 0
-657 -783 0
-655 -1141 0
-656 -1142 0
-657 -1143 0
-658 -766 0
-659 -767 0
-660 -768 0
-658 -1054 0
-659 -1055 0
-660 -1056 0
-661 -676 0
-662 -677 0
-663 -678 0
-661 -691 0
-662 -692 0
-663 -693 0
-661 -1186 0
-662 -1187 0
-663 -1188 0
-664 -739 0
-665 -740 0
-666 -741 0
-664 -1069 0
-665 -1070 0
-666 -1071 0
-664 -1171 0
-665 -1172 0
-666 -1173 0
-670 -697 0
-671 -698 0
-672 -699 0
-670 -892 0
-671 -893 0
-672 -894 0
-670 -904 0
-671 -905 0
-672 -906 0
-670 -919 0
-671 -920 0
-672 -921 0
-673 -769 0
-674 -770 0
-675 -771 0
-673 -853 0
-674 -854 0
-675 -855 0
-673 -1057 0
-674 -1058 0
-675 -1059 0
-673 -1093 0
-674 -1094 0
-675 -1095 0
-676 -730 0
-677 -731 0
-678 -732 0
-676 -799 0
-677 -800 0
-678 -801 0
-676 -922 0
-677 -923 0
-678 -924 0
-676 -1186 0
-677 -1187 0
-678 -1188 0
-679 -916 0
-680 -917 0
-681 -918 0
-679 -1027 0
-680 -1028 0
-681 -1029 0
-682 -841 0
-683 -842 0
-684 -843 0
-682 -907 0
-683 -908 0
-684 -909 0
-685 -739 0
-686 -740 0
-687 -741 0
-688 -832 0
-689 -833 0
-690 -834 0
-688 -910 0
-689 -911 0
-690 -912 0
-691 -718 0
-692 -719 0
-693 -720 0
-694 -721 0
-695 -722 0
-696 -723 0
-694 -793 0
-695 -794 0
-696 -795 0
-694 -1096 0
-695 -1097 0
-696 -1098 0
-697 -874 0
-698 -875 0
-699 -876 0
-697 -1102 0
-698 -1103 0
-699 -1104 0
-697 -1195 0
-698 -1196 0
-699 -1197 0
-700 -763 0
-701 -764 0
-702 -765 0
-700 -940 0
-701 -941 0
-702 -942 0
-700 -1108 0
-701 -1109 0
-702 -1110 0
-703 -796 0
-704 -797 0
-705 -798 0
-706 -856 0
-707 -857 0
-708 -858 0
-706 -961 0
-707 -962 0
-708 -963 0
-706 -1021 0
-707 -1022 0
-708 -1023 0
-709 -751 0
-710 -752 0
-711 -753 0
-709 -931 0
-710 -932 0
-711 -933 0
-709 -985 0
-710 -986 0
-711 -987 0
-709 -1075 0
-710 -1076 0
-711 -1077 0
-712 -1015 0
-713 -1016 0
-714 -1017 0
-715 -874 0
-716 -875 0
-717 -876 0
-715 -1069 0
-716 -1070 0
-717 -1071 0
-715 -1096 0
-716 -1097 0
-717 -1098 0
-718 -928 0
-719 -929 0
-720 -930 0
-718 -1033 0
-719 -1034 0
-720 -1035 0
-718 -1102 0
-719 -1103 0
-720 -1104 0
-718 -1114 0
-719 -1115 0
-720 -1116 0
-721 -826 0
-722 -827 0
-723 -828 0
-721 -907 0
-722 -908 0
-723 -909 0
-721 -1105 0
-722 -1106 0
-723 -1107 0
-727 -814 0
-728 -815 0
-729 -816 0
-727 -1057 0
-728 -1058 0
-729 -1059 0
-730 -856 0
-731 -857 0
-732 -858 0
-730 -919 0
-731 -920 0
-732 -921 0
-733 -754 0
-734 -755 0
-735 -756 0
-733 -769 0
-734 -770 0
-735 -771 0
-733 -958 0
-734 -959 0
-735 -960 0
-733 -1147 0
-734 -1148 0
-735 -1149 0
-736 -778 0
-737 -779 0
-738 -780 0
-739 -826 0
-740 -827 0
-741 -828 0
-739 -1096 0
-740 -1097 0
-741 -1098 0
-739 -1144 0
-740 -1145 0
-741 -1146 0
-739 -1147 0
-740 -1148 0
-741 -1149 0
-739 -1189 0
-740 -1190 0
-741 -1191 0
-742 -1090 0
-743 -1091 0
-744 -1092 0
-742 -1096 0
-743 -1097 0
-744 -1098 0
-745 -835 0
-746 -836 0
-747 -837 0
-748 -943 0
-749 -944 0
-750 -945 0
-751 -1153 0
-752 -1154 0
-753 -1155 0
-757 -1093 0
-758 -1094 0
-759 -1095 0
-757 -1138 0
-758 -1139 0
-759 -1140 0
-763 -904 0
-764 -905 0
-765 -906 0
-763 -1027 0
-764 -1028 0
-765 -1029 0
-763 -1186 0
-764 -1187 0
-765 -1188 0
-766 -1057 0
-767 -1058 0
-768 -1059 0
-766 -1186 0
-767 -1187 0
-768 -1188 0
-769 -1144 0
-770 -1145 0
-771 -1146 0
-769 -1150 0
-770 -1151 0
-771 -1152 0
-769 -1165 0
-770 -1166 0
-771 -1167 0
-772 -1087 0
-773 -1088 0
-774 -1089 0
-772 -1171 0
-773 -1172 0
-774 -1173 0
-775 -1171 0
-776 -1172 0
-777 -1173 0
-778 -853 0
-779 -854 0
-780 -855 0
-781 -931 0
-782 -932 0
-783 -933 0
-781 -1105 0
-782 -1106 0
-783 -1107 0
-784 -862 0
-785 -863 0
-786 -864 0
-784 -868 0
-785 -869 0
-786 -870 0
-784 -1096 0
-785 -1097 0
-786 -1098 0
-787 -1057 0
-788 -1058 0
-789 -1059 0
-793 -859 0
-794 -860 0
-795 -861 0
-793 -1147 0
-794 -1148 0
-795 -1149 0
-793 -1183 0
-794 -1184 0
-795 -1185 0
-796 -979 0
-797 -980 0
-798 -981 0
-796 -985 0
-797 -986 0
-798 -987 0
-799 -913 0
-800 -914 0
-801 -915 0
-802 -820 0
-803 -821 0
-804 -822 0
-802 -919 0
-803 -920 0
-804 -921 0
-805 -838 0
-806 -839 0
-807 -840 0
-805 -964 0
-806 -965 0
-807 -966 0
-808 -820 0
-809 -821 0
-810 -822 0
-808 -1105 0
-809 -1106 0
-810 -1107 0
-808 -1123 0
-809 -1124 0
-810 -1125 0
-811 -880 0
-812 -881 0
-813 -882 0
-811 -976 0
-812 -977 0
-813 -978 0
-817 -937 0
-818 -938 0
-819 -939 0
-820 -937 0
-821 -938 0
-822 -939 0
-820 -952 0
-821 -953 0
-822 -954 0
-820 -1156 0
-821 -1157 0
-822 -1158 0
-826 -1033 0
-827 -1034 0
-828 -1035 0
-826 -1054 0
-827 -1055 0
-828 -1056 0
-829 -895 0
-830 -896 0
-831 -897 0
-832 -1060 0
-833 -1061 0
-834 -1062 0
-838 -964 0
-839 -965 0
-840 -966 0
-838 -1054 0
-839 -1055 0
-840 -1056 0
-841 -850 0
-842 -851 0
-843 -852 0
-841 -982 0
-842 -983 0
-843 -984 0
-841 -1174 0
-842 -1175 0
-843 -1176 0
-844 -853 0
-845 -854 0
-846 -855 0
-844 -1042 0
-845 -1043 0
-846 -1044 0
-847 -856 0
-848 -857 0
-849 -858 0
-847 -1156 0
-848 -1157 0
-849 -1158 0
-850 -988 0
-851 -989 0
-852 -990 0
-856 -883 0
-857 -884 0
-858 -885 0
-856 -955 0
-857 -956 0
-858 -957 0
-856 -1048 0
-857 -1049 0
-858 -1050 0
-856 -1138 0
-857 -1139 0
-858 -1140 0
-862 -916 0
-863 -917 0
-864 -918 0
-862 -928 0
-863 -929 0
-864 -930 0
-865 -1075 0
-866 -1076 0
-867 -1077 0
-865 -1081 0
-866 -1082 0
-867 -1083 0
-868 -1030 0
-869 -1031 0
-870 -1032 0
-871 -919 0
-872 -920 0
-873 -921 0
-871 -1117 0
-872 -1118 0
-873 -1119 0
-871 -1186 0
-872 -1187 0
-873 -1188 0
-874 -1171 0
-875 -1172 0
-876 -1173 0
-880 -943 0
-881 -944 0
-882 -945 0
-880 -1054 0
-881 -1055 0
-882 -1056 0
-883 -1066 0
-884 -1067 0
-885 -1068 0
-889 -1012 0
-890 -1013 0
-891 -1014 0
-895 -1003 0
-896 -1004 0
-897 -1005 0
-895 -1075 0
-896 -1076 0
-897 -1077 0
-901 -1027 0
-902 -1028 0
-903 -1029 0
-901 -1081 0
-902 -1082 0
-903 -1083 0
-904 -955 0
-905 -956 0
-906 -957 0
-904 -1018 0
-905 -1019 0
-906 -1020 0
-904 -1072 0
-905 -1073 0
-906 -1074 0
-907 -1198 0
-908 -1199 0
-909 -1200 0
-913 -1111 0
-914 -1112 0
-915 -1113 0
-919 -1051 0
-920 -1052 0
-921 -1053 0
-919 -1144 0
-920 -1145 0
-921 -1146 0
-919 -1156 0
-920 -1157 0
-921 -1158 0
-922 -1141 0
-923 -1142 0
-924 -1143 0
-925 -1018 0
-926 -1019 0
-927 -1020 0
-937 -1045 0
-938 -1046 0
-939 -1047 0
-949 -991 0
-950 -992 0
-951 -993 0
-958 -1195 0
-959 -1196 0
-960 -1197 0
-961 -994 0
-962 -995 0
-963 -996 0
-961 -1042 0
-962 -1043 0
-963 -1044 0
-961 -1072 0
-962 -1073 0
-963 -1074 0
-961 -1126 0
-962 -1127 0
-963 -1128 0
-964 -1027 0
-965 -1028 0
-966 -1029 0
-964 -1150 0
-965 -1151 0
-966 -1152 0
-967 -1120 0
-968 -1121 0
-969 -1122 0
-970 -1120 0
-971 -1121 0
-972 -1122 0
-970 -1198 0
-971 -1199 0
-972 -1200 0
-973 -994 0
-974 -995 0
-975 -996 0
-979 -1156 0
-980 -1157 0
-981 -1158 0
-982 -1087 0
-983 -1088 0
-984 -1089 0
-985 -1153 0
-986 -1154 0
-987 -1155 0
-988 -1102 0
-989 -1103 0
-990 -1104 0
-1000 -1153 0
-1001 -1154 0
-1002 -1155 0
-1003 -1183 0
-1004 -1184 0
-1005 -1185 0
-1006 -1066 0
-1007 -1067 0
-1008 -1068 0
-1009 -1084 0
-1010 -1085 0
-1011 -1086 0
-1012 -1156 0
-1013 -1157 0
-1014 -1158 0
-1018 -1189 0
-1019 -1190 0
-1020 -1191 0
-1027 -1072 0
-1028 -1073 0
-1029 -1074 0
-1027 -1087 0
-1028 -1088 0
-1029 -1089 0
-1036 -1192 0
-1037 -1193 0
-1038 -1194 0
-1042 -1075 0
-1043 -1076 0
-1044 -1077 0
-1042 -1144 0
-1043 -1145 0
-1044 -1146 0
-1060 -1069 0
-1061 -1070 0
-1062 -1071 0
-1063 -1093 0
-1064 -1094 0
-1065 -1095 0
-1066 -1111 0
-1067 -1112 0
-1068 -1113 0
-1072 -1096 0
-1073 -1097 0
-1074 -1098 0
-1078 -1141 0
-1079 -1142 0
-1080 -1143 0
-1078 -1168 0
-1079 -1169 0
-1080 -1170 0
-1087 -1192 0
-1088 -1193 0
-1089 -1194 0
-1090 -1150 0
-1091 -1151 0
-1092 -1152 0
-1096 -1135 0
-1097 -1136 0
-1098 -1137 0
-1117 -1198 0
-1118 -1199 0
-1119 -1200 0
-1123 -1135 0
-1124 -1136 0
-1125 -1137 0
-1138 -1198 0
-1139 -1199 0
-1140 -1200 0
-1141 -1162 0
-1142 -1163 0
-1143 -1164 0
-1174 -1186 0
-1175 -1187 0
-1176 -1188 0
