p cnf 1200 4402
1 2 3 0
4 5 6 0
7 8 9 0
10 11 12 0
13 14 15 0
16 17 18 0
19 20 21 0
22 23 24 0
25 26 27 0
28 29 30 0
31 32 33 0
34 35 36 0
37 38 39 0
40 41 42 0
43 44 45 0
46 47 48 0
49 50 51 0
52 53 54 0
55 56 57 0
58 59 60 0
61 62 63 0
64 65 66 0
67 68 69 0
70 71 72 0
73 74 75 0
76 77 78 0
79 80 81 0
82 83 84 0
85 86 87 0
88 89 90 0
91 92 93 0
94 95 96 0
97 98 99 0
100 101 102 0
103 104 105 0
106 107 108 0
109 110 111 0
112 113 114 0
115 116 117 0
118 119 120 0
121 122 123 0
124 125 126 0
127 128 129 0
130 131 132 0
133 134 135 0
136 137 138 0
139 140 141 0
142 143 144 0
145 146 147 0
148 149 150 0
151 152 153 0
154 155 156 0
157 158 159 0
160 161 162 0
163 164 165 0
166 167 168 0
169 170 171 0
172 173 174 0
175 176 177 0
178 179 180 0
181 182 183 0
184 185 186 0
187 188 189 0
190 191 192 0
193 194 195 0
196 197 198 0
199 200 201 0
202 203 204 0
205 206 207 0
208 209 210 0
211 212 213 0
214 215 216 0
217 218 219 0
220 221 222 0
223 224 225 0
226 227 228 0
229 230 231 0
232 233 234 0
235 236 237 0
238 239 240 0
241 242 243 0
244 245 246 0
247 248 249 0
250 251 252 0
253 254 255 0
256 257 258 0
259 260 261 0
262 263 264 0
265 266 267 0
268 269 270 0
271 272 273 0
274 275 276 0
277 278 279 0
280 281 282 0
283 284 285 0
286 287 288 0
289 290 291 0
292 293 294 0
295 296 297 0
298 299 300 0
301 302 303 0
304 305 306 0
307 308 309 0
310 311 312 0
313 314 315 0
316 317 318 0
319 320 321 0
322 323 324 0
325 326 327 0
328 329 330 0
331 332 333 0
334 335 336 0
337 338 339 0
340 341 342 0
343 344 345 0
346 347 348 0
349 350 351 0
352 353 354 0
355 356 357 0
358 359 360 0
361 362 363 0
364 365 366 0
367 368 369 0
370 371 372 0
373 374 375 0
376 377 378 0
379 380 381 0
382 383 384 0
385 386 387 0
388 389 390 0
391 392 393 0
394 395 396 0
397 398 399 0
400 401 402 0
403 404 405 0
406 407 408 0
409 410 411 0
412 413 414 0
415 416 417 0
418 419 420 0
421 422 423 0
424 425 426 0
427 428 429 0
430 431 432 0
433 434 435 0
436 437 438 0
439 440 441 0
442 443 444 0
445 446 447 0
448 449 450 0
451 452 453 0
454 455 456 0
457 458 459 0
460 461 462 0
463 464 465 0
466 467 468 0
469 470 471 0
472 473 474 0
475 476 477 0
478 479 480 0
481 482 483 0
484 485 486 0
487 488 489 0
490 491 492 0
493 494 495 0
496 497 498 0
499 500 501 0
502 503 504 0
505 506 507 0
508 509 510 0
511 512 513 0
514 515 516 0
517 518 519 0
520 521 522 0
523 524 525 0
526 527 528 0
529 530 531 0
532 533 534 0
535 536 537 0
538 539 540 0
541 542 543 0
544 545 546 0
547 548 549 0
550 551 552 0
553 554 555 0
556 557 558 0
559 560 561 0
562 563 564 0
565 566 567 0
568 569 570 0
571 572 573 0
574 575 576 0
577 578 579 0
580 581 582 0
583 584 585 0
586 587 588 0
589 590 591 0
592 593 594 0
595 596 597 0
598 599 600 0
601 602 603 0
604 605 606 0
607 608 609 0
610 611 612 0
613 614 615 0
616 617 618 0
619 620 621 0
622 623 624 0
625 626 627 0
628 629 630 0
631 632 633 0
634 635 636 0
637 638 639 0
640 641 642 0
643 644 645 0
646 647 648 0
649 650 651 0
652 653 654 0
655 656 657 0
658 659 660 0
661 662 663 0
664 665 666 0
667 668 669 0
670 671 672 0
673 674 675 0
676 677 678 0
679 680 681 0
682 683 684 0
685 686 687 0
688 689 690 0
691 692 693 0
694 695 696 0
697 698 699 0
700 701 702 0
703 704 705 0
706 707 708 0
709 710 711 0
712 713 714 0
715 716 717 0
718 719 720 0
721 722 723 0
724 725 726 0
727 728 729 0
730 731 732 0
733 734 735 0
736 737 738 0
739 740 741 0
742 743 744 0
745 746 747 0
748 749 750 0
751 752 753 0
754 755 756 0
757 758 759 0
760 761 762 0
763 764 765 0
766 767 768 0
769 770 771 0
772 773 774 0
775 776 777 0
778 779 780 0
781 782 783 0
784 785 786 0
787 788 789 0
790 791 792 0
793 794 795 0
796 797 798 0
799 800 801 0
802 803 804 0
805 806 807 0
808 809 810 0
811 812 813 0
814 815 816 0
817 818 819 0
820 821 822 0
823 824 825 0
826 827 828 0
829 830 831 0
832 833 834 0
835 836 837 0
838 839 840 0
841 842 843 0
844 845 846 0
847 848 849 0
850 851 852 0
853 854 855 0
856 857 858 0
859 860 861 0
862 863 864 0
865 866 867 0
868 869 870 0
871 872 873 0
874 875 876 0
877 878 879 0
880 881 882 0
883 884 885 0
886 887 888 0
889 890 891 0
892 893 894 0
895 896 897 0
898 899 900 0
901 902 903 0
904 905 906 0
907 908 909 0
910 911 912 0
913 914 915 0
916 917 918 0
919 920 921 0
922 923 924 0
925 926 927 0
928 929 930 0
931 932 933 0
934 935 936 0
937 938 939 0
940 941 942 0
943 944 945 0
946 947 948 0
949 950 951 0
952 953 954 0
955 956 957 0
958 959 960 0
961 962 963 0
964 965 966 0
967 968 969 0
970 971 972 0
973 974 975 0
976 977 978 0
979 980 981 0
982 983 984 0
985 986 987 0
988 989 990 0
991 992 993 0
994 995 996 0
997 998 999 0
1000 1001 1002 0
1003 1004 1005 0
1006 1007 1008 0
1009 1010 1011 0
1012 1013 1014 0
1015 1016 1017 0
1018 1019 1020 0
1021 1022 1023 0
1024 1025 1026 0
1027 1028 1029 0
1030 1031 1032 0
1033 1034 1035 0
1036 1037 1038 0
1039 1040 1041 0
1042 1043 1044 0
1045 1046 1047 0
1048 1049 1050 0
1051 1052 1053 0
1054 1055 1056 0
1057 1058 1059 0
1060 1061 1062 0
1063 1064 1065 0
1066 1067 1068 0
1069 1070 1071 0
1072 1073 1074 0
1075 1076 1077 0
1078 1079 1080 0
1081 1082 1083 0
1084 1085 1086 0
1087 1088 1089 0
1090 1091 1092 0
1093 1094 1095 0
1096 1097 1098 0
1099 1100 1101 0
1102 1103 1104 0
1105 1106 1107 0
1108 1109 1110 0
1111 1112 1113 0
1114 1115 1116 0
1117 1118 1119 0
1120 1121 1122 0
1123 1124 1125 0
1126 1127 1128 0
1129 1130 1131 0
1132 1133 1134 0
1135 1136 1137 0
1138 1139 1140 0
1141 1142 1143 0
1144 1145 1146 0
1147 1148 1149 0
1150 1151 1152 0
1153 1154 1155 0
1156 1157 1158 0
1159 1160 1161 0
1162 1163 1164 0
1165 1166 1167 0
1168 1169 1170 0
1171 1172 1173 0
1174 1175 1176 0
1177 1178 1179 0
1180 1181 1182 0
1183 1184 1185 0
1186 1187 1188 0
1189 1190 1191 0
1192 1193 1194 0
1195 1196 1197 0
1198 1199 1200 0
-1 -2 0
-1 -3 0
-2 -3 0
-4 -5 0
-4 -6 0
-5 -6 0
-7 -8 0
-7 -9 0
-8 -9 0
-10 -11 0
-10 -12 0
-11 -12 0
-13 -14 0
-13 -15 0
-14 -15 0
-16 -17 0
-16 -18 0
-17 -18 0
-19 -20 0
-19 -21 0
-20 -21 0
-22 -23 0
-22 -24 0
-23 -24 0
-25 -26 0
-25 -27 0
-26 -27 0
-28 -29 0
-28 -30 0
-29 -30 0
-31 -32 0
-31 -33 0
-32 -33 0
-34 -35 0
-34 -36 0
-35 -36 0
-37 -38 0
-37 -39 0
-38 -39 0
-40 -41 0
-40 -42 0
-41 -42 0
-43 -44 0
-43 -45 0
-44 -45 0
-46 -47 0
-46 -48 0
-47 -48 0
-49 -50 0
-49 -51 0
-50 -51 0
-52 -53 0
-52 -54 0
-53 -54 0
-55 -56 0
-55 -57 0
-56 -57 0
-58 -59 0
-58 -60 0
-59 -60 0
-61 -62 0
-61 -63 0
-62 -63 0
-64 -65 0
-64 -66 0
-65 -66 0
-67 -68 0
-67 -69 0
-68 -69 0
-70 -71 0
-70 -72 0
-71 -72 0
-73 -74 0
-73 -75 0
-74 -75 0
-76 -77 0
-76 -78 0
-77 -78 0
-79 -80 0
-79 -81 0
-80 -81 0
-82 -83 0
-82 -84 0
-83 -84 0
-85 -86 0
-85 -87 0
-86 -87 0
-88 -89 0
-88 -90 0
-89 -90 0
-91 -92 0
-91 -93 0
-92 -93 0
-94 -95 0
-94 -96 0
-95 -96 0
-97 -98 0
-97 -99 0
-98 -99 0
-100 -101 0
-100 -102 0
-101 -102 0
-103 -104 0
-103 -105 0
-104 -105 0
-106 -107 0
-106 -108 0
-107 -108 0
-109 -110 0
-109 -111 0
-110 -111 0
-112 -113 0
-112 -114 0
-113 -114 0
-115 -116 0
-115 -117 0
-116 -117 0
-118 -119 0
-118 -120 0
-119 -120 0
-121 -122 0
-121 -123 0
-122 -123 0
-124 -125 0
-124 -126 0
-125 -126 0
-127 -128 0
-127 -129 0
-128 -129 0
-130 -131 0
-130 -132 0
-131 -132 0
-133 -134 0
-133 -135 0
-134 -135 0
-136 -137 0
-136 -138 0
-137 -138 0
-139 -140 0
-139 -141 0
-140 -141 0
-142 -143 0
-142 -144 0
-143 -144 0
-145 -146 0
-145 -147 0
-146 -147 0
-148 -149 0
-148 -150 0
-149 -150 0
-151 -152 0
-151 -153 0
-152 -153 0
-154 -155 0
-154 -156 0
-155 -156 0
-157 -158 0
-157 -159 0
-158 -159 0
-160 -161 0
-160 -162 0
-161 -162 0
-163 -164 0
-163 -165 0
-164 -165 0
-166 -167 0
-166 -168 0
-167 -168 0
-169 -170 0
-169 -171 0
-170 -171 0
-172 -173 0
-172 -174 0
-173 -174 0
-175 -176 0
-175 -177 0
-176 -177 0
-178 -179 0
-178 -180 0
-179 -180 0
-181 -182 0
-181 -183 0
-182 -183 0
-184 -185 0
-184 -186 0
-185 -186 0
-187 -188 0
-187 -189 0
-188 -189 0
-190 -191 0
-190 -192 0
-191 -192 0
-193 -194 0
-193 -195 0
-194 -195 0
-196 -197 0
-196 -198 0
-197 -198 0
-199 -200 0
-199 -201 0
-200 -201 0
-202 -203 0
-202 -204 0
-203 -204 0
-205 -206 0
-205 -207 0
-206 -207 0
-208 -209 0
-208 -210 0
-209 -210 0
-211 -212 0
-211 -213 0
-212 -213 0
-214 -215 0
-214 -216 0
-215 -216 0
-217 -218 0
-217 -219 0
-218 -219 0
-220 -221 0
-220 -222 0
-221 -222 0
-223 -224 0
-223 -225 0
-224 -225 0
-226 -227 0
-226 -228 0
-227 -228 0
-229 -230 0
-229 -231 0
-230 -231 0
-232 -233 0
-232 -234 0
-233 -234 0
-235 -236 0
-235 -237 0
-236 -237 0
-238 -239 0
-238 -240 0
-239 -240 0
-241 -242 0
-241 -243 0
-242 -243 0
-244 -245 0
-244 -246 0
-245 -246 0
-247 -248 0
-247 -249 0
-248 -249 0
-250 -251 0
-250 -252 0
-251 -252 0
-253 -254 0
-253 -255 0
-254 -255 0
-256 -257 0
-256 -258 0
-257 -258 0
-259 -260 0
-259 -261 0
-260 -261 0
-262 -263 0
-262 -264 0
-263 -264 0
-265 -266 0
-265 -267 0
-266 -267 0
-268 -269 0
-268 -270 0
-269 -270 0
-271 -272 0
-271 -273 0
-272 -273 0
-274 -275 0
-274 -276 0
-275 -276 0
-277 -278 0
-277 -279 0
-278 -279 0
-280 -281 0
-280 -282 0
-281 -282 0
-283 -284 0
-283 -285 0
-284 -285 0
-286 -287 0
-286 -288 0
-287 -288 0
-289 -290 0
-289 -291 0
-290 -291 0
-292 -293 0
-292 -294 0
-293 -294 0
-295 -296 0
-295 -297 0
-296 -297 0
-298 -299 0
-298 -300 0
-299 -300 0
-301 -302 0
-301 -303 0
-302 -303 0
-304 -305 0
-304 -306 0
-305 -306 0
-307 -308 0
-307 -309 0
-308 -309 0
-310 -311 0
-310 -312 0
-311 -312 0
-313 -314 0
-313 -315 0
-314 -315 0
-316 -317 0
-316 -318 0
-317 -318 0
-319 -320 0
-319 -321 0
-320 -321 0
-322 -323 0
-322 -324 0
-323 -324 0
-325 -326 0
-325 -327 0
-326 -327 0
-328 -329 0
-328 -330 0
-329 -330 0
-331 -332 0
-331 -333 0
-332 -333 0
-334 -335 0
-334 -336 0
-335 -336 0
-337 -338 0
-337 -339 0
-338 -339 0
-340 -341 0
-340 -342 0
-341 -342 0
-343 -344 0
-343 -345 0
-344 -345 0
-346 -347 0
-346 -348 0
-347 -348 0
-349 -350 0
-349 -351 0
-350 -351 0
-352 -353 0
-352 -354 0
-353 -354 0
-355 -356 0
-355 -357 0
-356 -357 0
-358 -359 0
-358 -360 0
-359 -360 0
-361 -362 0
-361 -363 0
-362 -363 0
-364 -365 0
-364 -366 0
-365 -366 0
-367 -368 0
-367 -369 0
-368 -369 0
-370 -371 0
-370 -372 0
-371 -372 0
-373 -374 0
-373 -375 0
-374 -375 0
-376 -377 0
-376 -378 0
-377 -378 0
-379 -380 0
-379 -381 0
-380 -381 0
-382 -383 0
-382 -384 0
-383 -384 0
-385 -386 0
-385 -387 0
-386 -387 0
-388 -389 0
-388 -390 0
-389 -390 0
-391 -392 0
-391 -393 0
-392 -393 0
-394 -395 0
-394 -396 0
-395 -396 0
-397 -398 0
-397 -399 0
-398 -399 0
-400 -401 0
-400 -402 0
-401 -402 0
-403 -404 0
-403 -405 0
-404 -405 0
-406 -407 0
-406 -408 0
-407 -408 0
-409 -410 0
-409 -411 0
-410 -411 0
-412 -413 0
-412 -414 0
-413 -414 0
-415 -416 0
-415 -417 0
-416 -417 0
-418 -419 0
-418 -420 0
-419 -420 0
-421 -422 0
-421 -423 0
-422 -423 0
-424 -425 0
-424 -426 0
-425 -426 0
-427 -428 0
-427 -429 0
-428 -429 0
-430 -431 0
-430 -432 0
-431 -432 0
-433 -434 0
-433 -435 0
-434 -435 0
-436 -437 0
-436 -438 0
-437 -438 0
-439 -440 0
-439 -441 0
-440 -441 0
-442 -443 0
-442 -444 0
-443 -444 0
-445 -446 0
-445 -447 0
-446 -447 0
-448 -449 0
-448 -450 0
-449 -450 0
-451 -452 0
-451 -453 0
-452 -453 0
-454 -455 0
-454 -456 0
-455 -456 0
-457 -458 0
-457 -459 0
-458 -459 0
-460 -461 0
-460 -462 0
-461 -462 0
-463 -464 0
-463 -465 0
-464 -465 0
-466 -467 0
-466 -468 0
-467 -468 0
-469 -470 0
-469 -471 0
-470 -471 0
-472 -473 0
-472 -474 0
-473 -474 0
-475 -476 0
-475 -477 0
-476 -477 0
-478 -479 0
-478 -480 0
-479 -480 0
-481 -482 0
-481 -483 0
-482 -483 0
-484 -485 0
-484 -486 0
-485 -486 0
-487 -488 0
-487 -489 0
-488 -489 0
-490 -491 0
-490 -492 0
-491 -492 0
-493 -494 0
-493 -495 0
-494 -495 0
-496 -497 0
-496 -498 0
-497 -498 0
-499 -500 0
-499 -501 0
-500 -501 0
-502 -503 0
-502 -504 0
-503 -504 0
-505 -506 0
-505 -507 0
-506 -507 0
-508 -509 0
-508 -510 0
-509 -510 0
-511 -512 0
-511 -513 0
-512 -513 0
-514 -515 0
-514 -516 0
-515 -516 0
-517 -518 0
-517 -519 0
-518 -519 0
-520 -521 0
-520 -522 0
-521 -522 0
-523 -524 0
-523 -525 0
-524 -525 0
-526 -527 0
-526 -528 0
-527 -528 0
-529 -530 0
-529 -531 0
-530 -531 0
-532 -533 0
-532 -534 0
-533 -534 0
-535 -536 0
-535 -537 0
-536 -537 0
-538 -539 0
-538 -540 0
-539 -540 0
-541 -542 0
-541 -543 0
-542 -543 0
-544 -545 0
-544 -546 0
-545 -546 0
-547 -548 0
-547 -549 0
-548 -549 0
-550 -551 0
-550 -552 0
-551 -552 0
-553 -554 0
-553 -555 0
-554 -555 0
-556 -557 0
-556 -558 0
-557 -558 0
-559 -560 0
-559 -561 0
-560 -561 0
-562 -563 0
-562 -564 0
-563 -564 0
-565 -566 0
-565 -567 0
-566 -567 0
-568 -569 0
-568 -570 0
-569 -570 0
-571 -572 0
-571 -573 0
-572 -573 0
-574 -575 0
-574 -576 0
-575 -576 0
-577 -578 0
-577 -579 0
-578 -579 0
-580 -581 0
-580 -582 0
-581 -582 0
-583 -584 0
-583 -585 0
-584 -585 0
-586 -587 0
-586 -588 0
-587 -588 0
-589 -590 0
-589 -591 0
-590 -591 0
-592 -593 0
-592 -594 0
-593 -594 0
-595 -596 0
-595 -597 0
-596 -597 0
-598 -599 0
-598 -600 0
-599 -600 0
-601 -602 0
-601 -603 0
-602 -603 0
-604 -605 0
-604 -606 0
-605 -606 0
-607 -608 0
-607 -609 0
-608 -609 0
-610 -611 0
-610 -612 0
-611 -612 0
-613 -614 0
-613 -615 0
-614 -615 0
-616 -617 0
-616 -618 0
-617 -618 0
-619 -620 0
-619 -621 0
-620 -621 0
-622 -623 0
-622 -624 0
-623 -624 0
-625 -626 0
-625 -627 0
-626 -627 0
-628 -629 0
-628 -630 0
-629 -630 0
-631 -632 0
-631 -633 0
-632 -633 0
-634 -635 0
-634 -636 0
-635 -636 0
-637 -638 0
-637 -639 0
-638 -639 0
-640 -641 0
-640 -642 0
-641 -642 0
-643 -644 0
-643 -645 0
-644 -645 0
-646 -647 0
-646 -648 0
-647 -648 0
-649 -650 0
-649 -651 0
-650 -651 0
-652 -653 0
-652 -654 0
-653 -654 0
-655 -656 0
-655 -657 0
-656 -657 0
-658 -659 0
-658 -660 0
-659 -660 0
-661 -662 0
-661 -663 0
-662 -663 0
-664 -665 0
-664 -666 0
-665 -666 0
-667 -668 0
-667 -669 0
-668 -669 0
-670 -671 0
-670 -672 0
-671 -672 0
-673 -674 0
-673 -675 0
-674 -675 0
-676 -677 0
-676 -678 0
-677 -678 0
-679 -680 0
-679 -681 0
-680 -681 0
-682 -683 0
-682 -684 0
-683 -684 0
-685 -686 0
-685 -687 0
-686 -687 0
-688 -689 0
-688 -690 0
-689 -690 0
-691 -692 0
-691 -693 0
-692 -693 0
-694 -695 0
-694 -696 0
-695 -696 0
-697 -698 0
-697 -699 0
-698 -699 0
-700 -701 0
-700 -702 0
-701 -702 0
-703 -704 0
-703 -705 0
-704 -705 0
-706 -707 0
-706 -708 0
-707 -708 0
-709 -710 0
-709 -711 0
-710 -711 0
-712 -713 0
-712 -714 0
-713 -714 0
-715 -716 0
-715 -717 0
-716 -717 0
-718 -719 0
-718 -720 0
-719 -720 0
-721 -722 0
-721 -723 0
-722 -723 0
-724 -725 0
-724 -726 0
-725 -726 0
-727 -728 0
-727 -729 0
-728 -729 0
-730 -731 0
-730 -732 0
-731 -732 0
-733 -734 0
-733 -735 0
-734 -735 0
-736 -737 0
-736 -738 0
-737 -738 0
-739 -740 0
-739 -741 0
-740 -741 0
-742 -743 0
-742 -744 0
-743 -744 0
-745 -746 0
-745 -747 0
-746 -747 0
-748 -749 0
-748 -750 0
-749 -750 0
-751 -752 0
-751 -753 0
-752 -753 0
-754 -755 0
-754 -756 0
-755 -756 0
-757 -758 0
-757 -759 0
-758 -759 0
-760 -761 0
-760 -762 0
-761 -762 0
-763 -764 0
-763 -765 0
-764 -765 0
-766 -767 0
-766 -768 0
-767 -768 0
-769 -770 0
-769 -771 0
-770 -771 0
-772 -773 0
-772 -774 0
-773 -774 0
-775 -776 0
-775 -777 0
-776 -777 0
-778 -779 0
-778 -780 0
-779 -780 0
-781 -782 0
-781 -783 0
-782 -783 0
-784 -785 0
-784 -786 0
-785 -786 0
-787 -788 0
-787 -789 0
-788 -789 0
-790 -791 0
-790 -792 0
-791 -792 0
-793 -794 0
-793 -795 0
-794 -795 0
-796 -797 0
-796 -798 0
-797 -798 0
-799 -800 0
-799 -801 0
-800 -801 0
-802 -803 0
-802 -804 0
-803 -804 0
-805 -806 0
-805 -807 0
-806 -807 0
-808 -809 0
-808 -810 0
-809 -810 0
-811 -812 0
-811 -813 0
-812 -813 0
-814 -815 0
-814 -816 0
-815 -816 0
-817 -818 0
-817 -819 0
-818 -819 0
-820 -821 0
-820 -822 0
-821 -822 0
-823 -824 0
-823 -825 0
-824 -825 0
-826 -827 0
-826 -828 0
-827 -828 0
-829 -830 0
-829 -831 0
-830 -831 0
-832 -833 0
-832 -834 0
-833 -834 0
-835 -836 0
-835 -837 0
-836 -837 0
-838 -839 0
-838 -840 0
-839 -840 0
-841 -842 0
-841 -843 0
-842 -843 0
-844 -845 0
-844 -846 0
-845 -846 0
-847 -848 0
-847 -849 0
-848 -849 0
-850 -851 0
-850 -852 0
-851 -852 0
-853 -854 0
-853 -855 0
-854 -855 0
-856 -857 0
-856 -858 0
-857 -858 0
-859 -860 0
-859 -861 0
-860 -861 0
-862 -863 0
-862 -864 0
-863 -864 0
-865 -866 0
-865 -867 0
-866 -867 0
-868 -869 0
-868 -870 0
-869 -870 0
-871 -872 0
-871 -873 0
-872 -873 0
-874 -875 0
-874 -876 0
-875 -876 0
-877 -878 0
-877 -879 0
-878 -879 0
-880 -881 0
-880 -882 0
-881 -882 0
-883 -884 0
-883 -885 0
-884 -885 0
-886 -887 0
-886 -888 0
-887 -888 0
-889 -890 0
-889 -891 0
-890 -891 0
-892 -893 0
-892 -894 0
-893 -894 0
-895 -896 0
-895 -897 0
-896 -897 0
-898 -899 0
-898 -900 0
-899 -900 0
-901 -902 0
-901 -903 0
-902 -903 0
-904 -905 0
-904 -906 0
-905 -906 0
-907 -908 0
-907 -909 0
-908 -909 0
-910 -911 0
-910 -912 0
-911 -912 0
-913 -914 0
-913 -915 0
-914 -915 0
-916 -917 0
-916 -918 0
-917 -918 0
-919 -920 0
-919 -921 0
-920 -921 0
-922 -923 0
-922 -924 0
-923 -924 0
-925 -926 0
-925 -927 0
-926 -927 0
-928 -929 0
-928 -930 0
-929 -930 0
-931 -932 0
-931 -933 0
-932 -933 0
-934 -935 0
-934 -936 0
-935 -936 0
-937 -938 0
-937 -939 0
-938 -939 0
-940 -941 0
-940 -942 0
-941 -942 0
-943 -944 0
-943 -945 0
-944 -945 0
-946 -947 0
-946 -948 0
-947 -948 0
-949 -950 0
-949 -951 0
-950 -951 0
-952 -953 0
-952 -954 0
-953 -954 0
-955 -956 0
-955 -957 0
-956 -957 0
-958 -959 0
-958 -960 0
-959 -960 0
-961 -962 0
-961 -963 0
-962 -963 0
-964 -965 0
-964 -966 0
-965 -966 0
-967 -968 0
-967 -969 0
-968 -969 0
-970 -971 0
-970 -972 0
-971 -972 0
-973 -974 0
-973 -975 0
-974 -975 0
-976 -977 0
-976 -978 0
-977 -978 0
-979 -980 0
-979 -981 0
-980 -981 0
-982 -983 0
-982 -984 0
-983 -984 0
-985 -986 0
-985 -987 0
-986 -987 0
-988 -989 0
-988 -990 0
-989 -990 0
-991 -992 0
-991 -993 0
-992 -993 0
-994 -995 0
-994 -996 0
-995 -996 0
-997 -998 0
-997 -999 0
-998 -999 0
-1000 -1001 0
-1000 -1002 0
-1001 -1002 0
-1003 -1004 0
-1003 -1005 0
-1004 -1005 0
-1006 -1007 0
-1006 -1008 0
-1007 -1008 0
-1009 -1010 0
-1009 -1011 0
-1010 -1011 0
-1012 -1013 0
-1012 -1014 0
-1013 -1014 0
-1015 -1016 0
-1015 -1017 0
-1016 -1017 0
-1018 -1019 0
-1018 -1020 0
-1019 -1020 0
-1021 -1022 0
-1021 -1023 0
-1022 -1023 0
-1024 -1025 0
-1024 -1026 0
-1025 -1026 0
-1027 -1028 0
-1027 -1029 0
-1028 -1029 0
-1030 -1031 0
-1030 -1032 0
-1031 -1032 0
-1033 -1034 0
-1033 -1035 0
-1034 -1035 0
-1036 -1037 0
-1036 -1038 0
-1037 -1038 0
-1039 -1040 0
-1039 -1041 0
-1040 -1041 0
-1042 -1043 0
-1042 -1044 0
-1043 -1044 0
-1045 -1046 0
-1045 -1047 0
-1046 -1047 0
-1048 -1049 0
-1048 -1050 0
-1049 -1050 0
-1051 -1052 0
-1051 -1053 0
-1052 -1053 0
-1054 -1055 0
-1054 -1056 0
-1055 -1056 0
-1057 -1058 0
-1057 -1059 0
-1058 -1059 0
-1060 -1061 0
-1060 -1062 0
-1061 -1062 0
-1063 -1064 0
-1063 -1065 0
-1064 -1065 0
-1066 -1067 0
-1066 -1068 0
-1067 -1068 0
-1069 -1070 0
-1069 -1071 0
-1070 -1071 0
-1072 -1073 0
-1072 -1074 0
-1073 -1074 0
-1075 -1076 0
-1075 -1077 0
-1076 -1077 0
-1078 -1079 0
-1078 -1080 0
-1079 -1080 0
-1081 -1082 0
-1081 -1083 0
-1082 -1083 0
-1084 -1085 0
-1084 -1086 0
-1085 -1086 0
-1087 -1088 0
-1087 -1089 0
-1088 -1089 0
-1090 -1091 0
-1090 -1092 0
-1091 -1092 0
-1093 -1094 0
-1093 -1095 0
-1094 -1095 0
-1096 -1097 0
-1096 -1098 0
-1097 -1098 0
-1099 -1100 0
-1099 -1101 0
-1100 -1101 0
-1102 -1103 0
-1102 -1104 0
-1103 -1104 0
-1105 -1106 0
-1105 -1107 0
-1106 -1107 0
-1108 -1109 0
-1108 -1110 0
-1109 -1110 0
-1111 -1112 0
-1111 -1113 0
-1112 -1113 0
-1114 -1115 0
-1114 -1116 0
-1115 -1116 0
-1117 -1118 0
-1117 -1119 0
-1118 -1119 0
-1120 -1121 0
-1120 -1122 0
-1121 -1122 0
-1123 -1124 0
-1123 -1125 0
-1124 -1125 0
-1126 -1127 0
-1126 -1128 0
-1127 -1128 0
-1129 -1130 0
-1129 -1131 0
-1130 -1131 0
-1132 -1133 0
-1132 -1134 0
-1133 -1134 0
-1135 -1136 0
-1135 -1137 0
-1136 -1137 0
-1138 -1139 0
-1138 -1140 0
-1139 -1140 0
-1141 -1142 0
-1141 -1143 0
-1142 -1143 0
-1144 -1145 0
-1144 -1146 0
-1145 -1146 0
-1147 -1148 0
-1147 -1149 0
-1148 -1149 0
-1150 -1151 0
-1150 -1152 0
-1151 -1152 0
-1153 -1154 0
-1153 -1155 0
-1154 -1155 0
-1156 -1157 0
-1156 -1158 0
-1157 -1158 0
-1159 -1160 0
-1159 -1161 0
-1160 -1161 0
-1162 -1163 0
-1162 -1164 0
-1163 -1164 0
-1165 -1166 0
-1165 -1167 0
-1166 -1167 0
-1168 -1169 0
-1168 -1170 0
-1169 -1170 0
-1171 -1172 0
-1171 -1173 0
-1172 -1173 0
-1174 -1175 0
-1174 -1176 0
-1175 -1176 0
-1177 -1178 0
-1177 -1179 0
-1178 -1179 0
-1180 -1181 0
-1180 -1182 0
-1181 -1182 0
-1183 -1184 0
-1183 -1185 0
-1184 -1185 0
-1186 -1187 0
-1186 -1188 0
-1187 -1188 0
-1189 -1190 0
-1189 -1191 0
-1190 -1191 0
-1192 -1193 0
-1192 -1194 0
-1193 -1194 0
-1195 -1196 0
-1195 -1197 0
-1196 -1197 0
-1198 -1199 0
-1198 -1200 0
-1199 -1200 0
-1 -91 0
-2 -92 0
-3 -93 0
-1 -826 0
-2 -827 0
-3 -828 0
-1 -1021 0
-2 -1022 0
-3 -1023 0
-4 -337 0
-5 -338 0
-6 -339 0
-4 -430 0
-5 -431 0
-6 -432 0
-4 -661 0
-5 -662 0
-6 -663 0
-4 -883 0
-5 -884 0
-6 -885 0
-4 -1090 0
-5 -1091 0
-6 -1092 0
-4 -1108 0
-5 -1109 0
-6 -1110 0
-7 -349 0
-8 -350 0
-9 -351 0
-7 -415 0
-8 -416 0
-9 -417 0
-7 -712 0
-8 -713 0
-9 -714 0
-7 -733 0
-8 -734 0
-9 -735 0
-7 -799 0
-8 -800 0
-9 -801 0
-7 -1183 0
-8 -1184 0
-9 -1185 0
-10 -562 0
-11 -563 0
-12 -564 0
-10 -691 0
-11 -692 0
-12 -693 0
-10 -850 0
-11 -851 0
-12 -852 0
-10 -853 0
-11 -854 0
-12 -855 0
-10 -1096 0
-11 -1097 0
-12 -1098 0
-13 -229 0
-14 -230 0
-15 -231 0
-13 -358 0
-14 -359 0
-15 -360 0
-16 -130 0
-17 -131 0
-18 -132 0
-16 -196 0
-17 -197 0
-18 -198 0
-16 -1033 0
-17 -1034 0
-18 -1035 0
-19 -79 0
-20 -80 0
-21 -81 0
-19 -163 0
-20 -164 0
-21 -165 0
-19 -736 0
-20 -737 0
-21 -738 0
-19 -1195 0
-20 -1196 0
-21 -1197 0
-22 -100 0
-23 -101 0
-24 -102 0
-22 -337 0
-23 -338 0
-24 -339 0
-22 -676 0
-23 -677 0
-24 -678 0
-22 -685 0
-23 -686 0
-24 -687 0
-22 -1054 0
-23 -1055 0
-24 -1056 0
-22 -1066 0
-23 -1067 0
-24 -1068 0
-22 -1108 0
-23 -1109 0
-24 -1110 0
-25 -754 0
-26 -755 0
-27 -756 0
-25 -1189 0
-26 -1190 0
-27 -1191 0
-28 -199 0
-29 -200 0
-30 -201 0
-28 -364 0
-29 -365 0
-30 -366 0
-28 -463 0
-29 -464 0
-30 -465 0
-28 -643 0
-29 -644 0
-30 -645 0
-28 -772 0
-29 -773 0
-30 -774 0
-31 -157 0
-32 -158 0
-33 -159 0
-31 -622 0
-32 -623 0
-33 -624 0
-31 -637 0
-32 -638 0
-33 -639 0
-31 -1051 0
-32 -1052 0
-33 -1053 0
-34 -220 0
-35 -221 0
-36 -222 0
-34 -814 0
-35 -815 0
-36 -816 0
-34 -913 0
-35 -914 0
-36 -915 0
-37 -106 0
-38 -107 0
-39 -108 0
-37 -169 0
-38 -170 0
-39 -171 0
-37 -688 0
-38 -689 0
-39 -690 0
-37 -943 0
-38 -944 0
-39 -945 0
-37 -985 0
-38 -986 0
-39 -987 0
-37 -1126 0
-38 -1127 0
-39 -1128 0
-40 -97 0
-41 -98 0
-42 -99 0
-40 -346 0
-41 -347 0
-42 -348 0
-40 -493 0
-41 -494 0
-42 -495 0
-40 -847 0
-41 -848 0
-42 -849 0
-40 -850 0
-41 -851 0
-42 -852 0
-40 -901 0
-41 -902 0
-42 -903 0
-40 -952 0
-41 -953 0
-42 -954 0
-40 -1117 0
-41 -1118 0
-42 -1119 0
-43 -193 0
-44 -194 0
-45 -195 0
-43 -622 0
-44 -623 0
-45 -624 0
-43 -1090 0
-44 -1091 0
-45 -1092 0
-43 -1120 0
-44 -1121 0
-45 -1122 0
-46 -67 0
-47 -68 0
-48 -69 0
-46 -160 0
-47 -161 0
-48 -162 0
-46 -802 0
-47 -803 0
-48 -804 0
-46 -925 0
-47 -926 0
-48 -927 0
-46 -1120 0
-47 -1121 0
-48 -1122 0
-49 -172 0
-50 -173 0
-51 -174 0
-49 -532 0
-50 -533 0
-51 -534 0
-49 -652 0
-50 -653 0
-51 -654 0
-49 -1018 0
-50 -1019 0
-51 -1020 0
-49 -1033 0
-50 -1034 0
-51 -1035 0
-52 -856 0
-53 -857 0
-54 -858 0
-52 -1072 0
-53 -1073 0
-54 -1074 0
-55 -154 0
-56 -155 0
-57 -156 0
-55 -790 0
-56 -791 0
-57 -792 0
-55 -796 0
-56 -797 0
-57 -798 0
-58 -100 0
-59 -101 0
-60 -102 0
-58 -196 0
-59 -197 0
-60 -198 0
-58 -376 0
-59 -377 0
-60 -378 0
-58 -868 0
-59 -869 0
-60 -870 0
-58 -943 0
-59 -944 0
-60 -945 0
-61 -928 0
-62 -929 0
-63 -930 0
-64 -274 0
-65 -275 0
-66 -276 0
-64 -331 0
-65 -332 0
-66 -333 0
-64 -454 0
-65 -455 0
-66 -456 0
-64 -814 0
-65 -815 0
-66 -816 0
-64 -892 0
-65 -893 0
-66 -894 0
-64 -1054 0
-65 -1055 0
-66 -1056 0
-67 -358 0
-68 -359 0
-69 -360 0
-67 -658 0
-68 -659 0
-69 -660 0
-67 -862 0
-68 -863 0
-69 -864 0
-67 -892 0
-68 -893 0
-69 -894 0
-67 -967 0
-68 -968 0
-69 -969 0
-70 -478 0
-71 -479 0
-72 -480 0
-70 -877 0
-71 -878 0
-72 -879 0
-73 -238 0
-74 -239 0
-75 -240 0
-73 -841 0
-74 -842 0
-75 -843 0
-76 -202 0
-77 -203 0
-78 -204 0
-76 -364 0
-77 -365 0
-78 -366 0
-76 -571 0
-77 -572 0
-78 -573 0
-76 -814 0
-77 -815 0
-78 -816 0
-76 -1093 0
-77 -1094 0
-78 -1095 0
-79 -571 0
-80 -572 0
-81 -573 0
-82 -238 0
-83 -239 0
-84 -240 0
-82 -721 0
-83 -722 0
-84 -723 0
-82 -1045 0
-83 -1046 0
-84 -1047 0
-85 -94 0
-86 -95 0
-87 -96 0
-85 -331 0
-86 -332 0
-87 -333 0
-85 -475 0
-86 -476 0
-87 -477 0
-85 -652 0
-86 -653 0
-87 -654 0
-85 -1093 0
-86 -1094 0
-87 -1095 0
-88 -418 0
-89 -419 0
-90 -420 0
-88 -493 0
-89 -494 0
-90 -495 0
-88 -907 0
-89 -908 0
-90 -909 0
-88 -1171 0
-89 -1172 0
-90 -1173 0
-91 -115 0
-92 -116 0
-93 -117 0
-91 -205 0
-92 -206 0
-93 -207 0
-91 -478 0
-92 -479 0
-93 -480 0
-91 -1078 0
-92 -1079 0
-93 -1080 0
-91 -1156 0
-92 -1157 0
-93 -1158 0
-94 -157 0
-95 -158 0
-96 -159 0
-94 -214 0
-95 -215 0
-96 -216 0
-94 -295 0
-95 -296 0
-96 -297 0
-94 -877 0
-95 -878 0
-96 -879 0
-94 -880 0
-95 -881 0
-96 -882 0
-97 -271 0
-98 -272 0
-99 -273 0
-97 -358 0
-98 -359 0
-99 -360 0
-97 -910 0
-98 -911 0
-99 -912 0
-97 -1030 0
-98 -1031 0
-99 -1032 0
-97 -1057 0
-98 -1058 0
-99 -1059 0
-100 -406 0
-101 -407 0
-102 -408 0
-100 -691 0
-101 -692 0
-102 -693 0
-100 -1183 0
-101 -1184 0
-102 -1185 0
-103 -508 0
-104 -509 0
-105 -510 0
-103 -586 0
-104 -587 0
-105 -588 0
-103 -676 0
-104 -677 0
-105 -678 0
-103 -829 0
-104 -830 0
-105 -831 0
-106 -202 0
-107 -203 0
-108 -204 0
-106 -1012 0
-107 -1013 0
-108 -1014 0
-109 -544 0
-110 -545 0
-111 -546 0
-109 -565 0
-110 -566 0
-111 -567 0
-109 -877 0
-110 -878 0
-111 -879 0
-112 -127 0
-113 -128 0
-114 -129 0
-112 -490 0
-113 -491 0
-114 -492 0
-112 -865 0
-113 -866 0
-114 -867 0
-112 -1156 0
-113 -1157 0
-114 -1158 0
-115 -199 0
-116 -200 0
-117 -201 0
-115 -427 0
-116 -428 0
-117 -429 0
-118 -529 0
-119 -530 0
-120 -531 0
-118 -973 0
-119 -974 0
-120 -975 0
-121 -187 0
-122 -188 0
-123 -189 0
-121 -649 0
-122 -650 0
-123 -651 0
-121 -991 0
-122 -992 0
-123 -993 0
-124 -805 0
-125 -806 0
-126 -807 0
-124 -808 0
-125 -809 0
-126 -810 0
-124 -1114 0
-125 -1115 0
-126 -1116 0
-127 -361 0
-128 -362 0
-129 -363 0
-127 -547 0
-128 -548 0
-129 -549 0
-127 -1012 0
-128 -1013 0
-129 -1014 0
-127 -1159 0
-128 -1160 0
-129 -1161 0
-130 -460 0
-131 -461 0
-132 -462 0
-130 -970 0
-131 -971 0
-132 -972 0
-133 -346 0
-134 -347 0
-135 -348 0
-133 -568 0
-134 -569 0
-135 -570 0
-136 -289 0
-137 -290 0
-138 -291 0
-139 -316 0
-140 -317 0
-141 -318 0
-139 -412 0
-140 -413 0
-141 -414 0
-139 -514 0
-140 -515 0
-141 -516 0
-139 -520 0
-140 -521 0
-141 -522 0
-139 -532 0
-140 -533 0
-141 -534 0
-139 -568 0
-140 -569 0
-141 -570 0
-139 -682 0
-140 -683 0
-141 -684 0
-139 -844 0
-140 -845 0
-141 -846 0
-139 -1027 0
-140 -1028 0
-141 -1029 0
-142 -583 0
-143 -584 0
-144 -585 0
-142 -781 0
-143 -782 0
-144 -783 0
-142 -877 0
-143 -878 0
-144 -879 0
-142 -1087 0
-143 -1088 0
-144 -1089 0
-142 -1171 0
-143 -1172 0
-144 -1173 0
-142 -1177 0
-143 -1178 0
-144 -1179 0
-145 -505 0
-146 -506 0
-147 -507 0
-145 -964 0
-146 -965 0
-147 -966 0
-145 -1171 0
-146 -1172 0
-147 -1173 0
-148 -223 0
-149 -224 0
-150 -225 0
-148 -751 0
-149 -752 0
-150 -753 0
-148 -862 0
-149 -863 0
-150 -864 0
-151 -286 0
-152 -287 0
-153 -288 0
-151 -487 0
-152 -488 0
-153 -489 0
-151 -712 0
-152 -713 0
-153 -714 0
-151 -739 0
-152 -740 0
-153 -741 0
-154 -178 0
-155 -179 0
-156 -180 0
-154 -385 0
-155 -386 0
-156 -387 0
-154 -700 0
-155 -701 0
-156 -702 0
-154 -796 0
-155 -797 0
-156 -798 0
-154 -838 0
-155 -839 0
-156 -840 0
-154 -1024 0
-155 -1025 0
-156 -1026 0
-154 -1027 0
-155 -1028 0
-156 -1029 0
-157 -265 0
-158 -266 0
-159 -267 0
-157 -637 0
-158 -638 0
-159 -639 0
-157 -1129 0
-158 -1130 0
-159 -1131 0
-157 -1171 0
-158 -1172 0
-159 -1173 0
-160 -661 0
-161 -662 0
-162 -663 0
-160 -817 0
-161 -818 0
-162 -819 0
-160 -1036 0
-161 -1037 0
-162 -1038 0
-160 -1060 0
-161 -1061 0
-162 -1062 0
-160 -1069 0
-161 -1070 0
-162 -1071 0
-160 -1090 0
-161 -1091 0
-162 -1092 0
-163 -295 0
-164 -296 0
-165 -297 0
-163 -442 0
-164 -443 0
-165 -444 0
-163 -505 0
-164 -506 0
-165 -507 0
-163 -556 0
-164 -557 0
-165 -558 0
-163 -1141 0
-164 -1142 0
-165 -1143 0
-166 -169 0
-167 -170 0
-168 -171 0
-166 -244 0
-167 -245 0
-168 -246 0
-166 -286 0
-167 -287 0
-168 -288 0
-166 -748 0
-167 -749 0
-168 -750 0
-166 -796 0
-167 -797 0
-168 -798 0
-166 -850 0
-167 -851 0
-168 -852 0
-166 -967 0
-167 -968 0
-168 -969 0
-169 -403 0
-170 -404 0
-171 -405 0
-169 -412 0
-170 -413 0
-171 -414 0
-169 -457 0
-170 -458 0
-171 -459 0
-169 -532 0
-170 -533 0
-171 -534 0
-169 -634 0
-170 -635 0
-171 -636 0
-169 -718 0
-170 -719 0
-171 -720 0
-169 -871 0
-170 -872 0
-171 -873 0
-172 -541 0
-173 -542 0
-174 -543 0
-172 -817 0
-173 -818 0
-174 -819 0
-172 -868 0
-173 -869 0
-174 -870 0
-175 -322 0
-176 -323 0
-177 -324 0
-175 -643 0
-176 -644 0
-177 -645 0
-175 -715 0
-176 -716 0
-177 -717 0
-175 -1126 0
-176 -1127 0
-177 -1128 0
-178 -295 0
-179 -296 0
-180 -297 0
-178 -436 0
-179 -437 0
-180 -438 0
-178 -505 0
-179 -506 0
-180 -507 0
-178 -658 0
-179 -659 0
-180 -660 0
-181 -376 0
-182 -377 0
-183 -378 0
-181 -484 0
-182 -485 0
-183 -486 0
-181 -541 0
-182 -542 0
-183 -543 0
-181 -1129 0
-182 -1130 0
-183 -1131 0
-184 -424 0
-185 -425 0
-186 -426 0
-184 -640 0
-185 -641 0
-186 -642 0
-184 -1003 0
-185 -1004 0
-186 -1005 0
-184 -1027 0
-185 -1028 0
-186 -1029 0
-184 -1078 0
-185 -1079 0
-186 -1080 0
-187 -370 0
-188 -371 0
-189 -372 0
-187 -433 0
-188 -434 0
-189 -435 0
-187 -517 0
-188 -518 0
-189 -519 0
-187 -871 0
-188 -872 0
-189 -873 0
-187 -1033 0
-188 -1034 0
-189 -1035 0
-187 -1060 0
-188 -1061 0
-189 -1062 0
-190 -1078 0
-191 -1079 0
-192 -1080 0
-193 -907 0
-194 -908 0
-195 -909 0
-193 -1180 0
-194 -1181 0
-195 -1182 0
-196 -412 0
-197 -413 0
-198 -414 0
-196 -874 0
-197 -875 0
-198 -876 0
-196 -1042 0
-197 -1043 0
-198 -1044 0
-199 -1135 0
-200 -1136 0
-201 -1137 0
-199 -1162 0
-200 -1163 0
-201 -1164 0
-202 -223 0
-203 -224 0
-204 -225 0
-202 -643 0
-203 -644 0
-204 -645 0
-202 -988 0
-203 -989 0
-204 -990 0
-205 -343 0
-206 -344 0
-207 -345 0
-205 -622 0
-206 -623 0
-207 -624 0
-205 -757 0
-206 -758 0
-207 -759 0
-205 -1168 0
-206 -1169 0
-207 -1170 0
-208 -958 0
-209 -959 0
-210 -960 0
-208 -1162 0
-209 -1163 0
-210 -1164 0
-211 -256 0
-212 -257 0
-213 -258 0
-214 -823 0
-215 -824 0
-216 -825 0
-214 -841 0
-215 -842 0
-216 -843 0
-214 -1006 0
-215 -1007 0
-216 -1008 0
-217 -652 0
-218 -653 0
-219 -654 0
-217 -733 0
-218 -734 0
-219 -735 0
-217 -1090 0
-218 -1091 0
-219 -1092 0
-220 -376 0
-221 -377 0
-222 -378 0
-220 -541 0
-221 -542 0
-222 -543 0
-223 -805 0
-224 -806 0
-225 -807 0
-223 -898 0
-224 -899 0
-225 -900 0
-226 -379 0
-227 -380 0
-228 -381 0
-226 -1009 0
-227 -1010 0
-228 -1011 0
-226 -1150 0
-227 -1151 0
-228 -1152 0
-229 -253 0
-230 -254 0
-231 -255 0
-229 -268 0
-230 -269 0
-231 -270 0
-229 -424 0
-230 -425 0
-231 -426 0
-229 -637 0
-230 -638 0
-231 -639 0
-229 -646 0
-230 -647 0
-231 -648 0
-229 -1075 0
-230 -1076 0
-231 -1077 0
-232 -808 0
-233 -809 0
-234 -810 0
-232 -883 0
-233 -884 0
-234 -885 0
-232 -1090 0
-233 -1091 0
-234 -1092 0
-235 -469 0
-236 -470 0
-237 -471 0
-235 -592 0
-236 -593 0
-237 -594 0
-235 -595 0
-236 -596 0
-237 -597 0
-235 -955 0
-236 -956 0
-237 -957 0
-235 -1066 0
-236 -1067 0
-237 -1068 0
-241 -445 0
-242 -446 0
-243 -447 0
-241 -469 0
-242 -470 0
-243 -471 0
-241 -547 0
-242 -548 0
-243 -549 0
-244 -340 0
-245 -341 0
-246 -342 0
-244 -352 0
-245 -353 0
-246 -354 0
-244 -1174 0
-245 -1175 0
-246 -1176 0
-247 -328 0
-248 -329 0
-249 -330 0
-247 -442 0
-248 -443 0
-249 -444 0
-247 -688 0
-248 -689 0
-249 -690 0
-247 -871 0
-248 -872 0
-249 -873 0
-247 -907 0
-248 -908 0
-249 -909 0
-247 -1015 0
-248 -1016 0
-249 -1017 0
-247 -1024 0
-248 -1025 0
-249 -1026 0
-250 -409 0
-251 -410 0
-252 -411 0
-250 -574 0
-251 -575 0
-252 -576 0
-250 -577 0
-251 -578 0
-252 -579 0
-250 -934 0
-251 -935 0
-252 -936 0
-250 -976 0
-251 -977 0
-252 -978 0
-250 -1006 0
-251 -1007 0
-252 -1008 0
-253 -451 0
-254 -452 0
-255 -453 0
-253 -490 0
-254 -491 0
-255 -492 0
-253 -847 0
-254 -848 0
-255 -849 0
-256 -463 0
-257 -464 0
-258 -465 0
-256 -619 0
-257 -620 0
-258 -621 0
-256 -715 0
-257 -716 0
-258 -717 0
-256 -817 0
-257 -818 0
-258 -819 0
-256 -856 0
-257 -857 0
-258 -858 0
-256 -889 0
-257 -890 0
-258 -891 0
-259 -544 0
-260 -545 0
-261 -546 0
-259 -937 0
-260 -938 0
-261 -939 0
-259 -1189 0
-260 -1190 0
-261 -1191 0
-262 -298 0
-263 -299 0
-264 -300 0
-262 -697 0
-263 -698 0
-264 -699 0
-262 -781 0
-263 -782 0
-264 -783 0
-262 -1120 0
-263 -1121 0
-264 -1122 0
-262 -1147 0
-263 -1148 0
-264 -1149 0
-265 -1186 0
-266 -1187 0
-267 -1188 0
-268 -553 0
-269 -554 0
-270 -555 0
-268 -1135 0
-269 -1136 0
-270 -1137 0
-268 -1144 0
-269 -1145 0
-270 -1146 0
-268 -1150 0
-269 -1151 0
-270 -1152 0
-268 -1156 0
-269 -1157 0
-270 -1158 0
-268 -1162 0
-269 -1163 0
-270 -1164 0
-271 -439 0
-272 -440 0
-273 -441 0
-271 -484 0
-272 -485 0
-273 -486 0
-271 -541 0
-272 -542 0
-273 -543 0
-271 -565 0
-272 -566 0
-273 -567 0
-271 -904 0
-272 -905 0
-273 -906 0
-274 -331 0
-275 -332 0
-276 -333 0
-274 -469 0
-275 -470 0
-276 -471 0
-274 -634 0
-275 -635 0
-276 -636 0
-274 -844 0
-275 -845 0
-276 -846 0
-274 -946 0
-275 -947 0
-276 -948 0
-277 -970 0
-278 -971 0
-279 -972 0
-277 -1000 0
-278 -1001 0
-279 -1002 0
-277 -1144 0
-278 -1145 0
-279 -1146 0
-280 -706 0
-281 -707 0
-282 -708 0
-280 -934 0
-281 -935 0
-282 -936 0
-283 -577 0
-284 -578 0
-285 -579 0
-283 -691 0
-284 -692 0
-285 -693 0
-283 -895 0
-284 -896 0
-285 -897 0
-283 -1066 0
-284 -1067 0
-285 -1068 0
-283 -1159 0
-284 -1160 0
-285 -1161 0
-286 -532 0
-287 -533 0
-288 -534 0
-289 -304 0
-290 -305 0
-291 -306 0
-289 -355 0
-290 -356 0
-291 -357 0
-289 -385 0
-290 -386 0
-291 -387 0
-289 -673 0
-290 -674 0
-291 -675 0
-289 -1012 0
-290 -1013 0
-291 -1014 0
-289 -1141 0
-290 -1142 0
-291 -1143 0
-289 -1168 0
-290 -1169 0
-291 -1170 0
-289 -1186 0
-290 -1187 0
-291 -1188 0
-292 -601 0
-293 -602 0
-294 -603 0
-292 -625 0
-293 -626 0
-294 -627 0
-292 -895 0
-293 -896 0
-294 -897 0
-292 -961 0
-293 -962 0
-294 -963 0
-295 -337 0
-296 -338 0
-297 -339 0
-295 -565 0
-296 -566 0
-297 -567 0
-295 -655 0
-296 -656 0
-297 -657 0
-295 -709 0
-296 -710 0
-297 -711 0
-298 -406 0
-299 -407 0
-300 -408 0
-298 -709 0
-299 -710 0
-300 -711 0
-301 -376 0
-302 -377 0
-303 -378 0
-301 -580 0
-302 -581 0
-303 -582 0
-301 -703 0
-302 -704 0
-303 -705 0
-301 -889 0
-302 -890 0
-303 -891 0
-301 -1084 0
-302 -1085 0
-303 -1086 0
-304 -652 0
-305 -653 0
-306 -654 0
-304 -817 0
-305 -818 0
-306 -819 0
-304 -844 0
-305 -845 0
-306 -846 0
-307 -1084 0
-308 -1085 0
-309 -1086 0
-307 -1135 0
-308 -1136 0
-309 -1137 0
-307 -1183 0
-308 -1184 0
-309 -1185 0
-310 -640 0
-311 -641 0
-312 -642 0
-310 -721 0
-311 -722 0
-312 -723 0
-310 -841 0
-311 -842 0
-312 -843 0
-313 -460 0
-314 -461 0
-315 -462 0
-313 -571 0
-314 -572 0
-315 -573 0
-313 -949 0
-314 -950 0
-315 -951 0
-313 -952 0
-314 -953 0
-315 -954 0
-313 -955 0
-314 -956 0
-315 -957 0
-316 -385 0
-317 -386 0
-318 -387 0
-316 -508 0
-317 -509 0
-318 -510 0
-316 -790 0
-317 -791 0
-318 -792 0
-316 -820 0
-317 -821 0
-318 -822 0
-316 -1195 0
-317 -1196 0
-318 -1197 0
-319 -1021 0
-320 -1022 0
-321 -1023 0
-322 -382 0
-323 -383 0
-324 -384 0
-322 -457 0
-323 -458 0
-324 -459 0
-322 -700 0
-323 -701 0
-324 -702 0
-325 -487 0
-326 -488 0
-327 -489 0
-325 -1195 0
-326 -1196 0
-327 -1197 0
-328 -382 0
-329 -383 0
-330 -384 0
-328 -529 0
-329 -530 0
-330 -531 0
-328 -541 0
-329 -542 0
-330 -543 0
-328 -562 0
-329 -563 0
-330 -564 0
-328 -643 0
-329 -644 0
-330 -645 0
-328 -1000 0
-329 -1001 0
-330 -1002 0
-328 -1030 0
-329 -1031 0
-330 -1032 0
-331 -466 0
-332 -467 0
-333 -468 0
-331 -754 0
-332 -755 0
-333 -756 0
-331 -1024 0
-332 -1025 0
-333 -1026 0
-331 -1153 0
-332 -1154 0
-333 -1155 0
-334 -982 0
-335 -983 0
-336 -984 0
-334 -1027 0
-335 -1028 0
-336 -1029 0
-334 -1120 0
-335 -1121 0
-336 -1122 0
-334 -1177 0
-335 -1178 0
-336 -1179 0
-337 -511 0
-338 -512 0
-339 -513 0
-337 -763 0
-338 -764 0
-339 -765 0
-337 -1048 0
-338 -1049 0
-339 -1050 0
-337 -1069 0
-338 -1070 0
-339 -1071 0
-340 -493 0
-341 -494 0
-342 -495 0
-340 -709 0
-341 -710 0
-342 -711 0
-340 -943 0
-341 -944 0
-342 -945 0
-340 -1039 0
-341 -1040 0
-342 -1041 0
-340 -1054 0
-341 -1055 0
-342 -1056 0
-343 -529 0
-344 -530 0
-345 -531 0
-343 -583 0
-344 -584 0
-345 -585 0
-343 -820 0
-344 -821 0
-345 -822 0
-343 -1048 0
-344 -1049 0
-345 -1050 0
-343 -1093 0
-344 -1094 0
-345 -1095 0
-346 -361 0
-347 -362 0
-348 -363 0
-346 -547 0
-347 -548 0
-348 -549 0
-346 -685 0
-347 -686 0
-348 -687 0
-346 -715 0
-347 -716 0
-348 -717 0
-346 -718 0
-347 -719 0
-348 -720 0
-349 -640 0
-350 -641 0
-351 -642 0
-349 -721 0
-350 -722 0
-351 -723 0
-349 -1069 0
-350 -1070 0
-351 -1071 0
-352 -523 0
-353 -524 0
-354 -525 0
-352 -1000 0
-353 -1001 0
-354 -1002 0
-352 -1177 0
-353 -1178 0
-354 -1179 0
-355 -451 0
-356 -452 0
-357 -453 0
-355 -613 0
-356 -614 0
-357 -615 0
-355 -757 0
-356 -758 0
-357 -759 0
-355 -1147 0
-356 -1148 0
-357 -1149 0
-358 -787 0
-359 -788 0
-360 -789 0
-358 -1075 0
-359 -1076 0
-360 -1077 0
-358 -1105 0
-359 -1106 0
-360 -1107 0
-361 -529 0
-362 -530 0
-363 -531 0
-361 -613 0
-362 -614 0
-363 -615 0
-361 -736 0
-362 -737 0
-363 -738 0
-361 -1105 0
-362 -1106 0
-363 -1107 0
-364 -814 0
-365 -815 0
-366 -816 0
-364 -907 0
-365 -908 0
-366 -909 0
-364 -1051 0
-365 -1052 0
-366 -1053 0
-367 -388 0
-368 -389 0
-369 -390 0
-367 -397 0
-368 -398 0
-369 -399 0
-367 -700 0
-368 -701 0
-369 -702 0
-367 -925 0
-368 -926 0
-369 -927 0
-367 -1024 0
-368 -1025 0
-369 -1026 0
-367 -1117 0
-368 -1118 0
-369 -1119 0
-370 -382 0
-371 -383 0
-372 -384 0
-370 -472 0
-371 -473 0
-372 -474 0
-370 -529 0
-371 -530 0
-372 -531 0
-370 -598 0
-371 -599 0
-372 -600 0
-370 -682 0
-371 -683 0
-372 -684 0
-370 -997 0
-371 -998 0
-372 -999 0
-373 -703 0
-374 -704 0
-375 -705 0
-373 -934 0
-374 -935 0
-375 -936 0
-373 -1102 0
-374 -1103 0
-375 -1104 0
-376 -427 0
-377 -428 0
-378 -429 0
-376 -691 0
-377 -692 0
-378 -693 0
-376 -877 0
-377 -878 0
-378 -879 0
-376 -1063 0
-377 -1064 0
-378 -1065 0
-376 -1105 0
-377 -1106 0
-378 -1107 0
-379 -439 0
-380 -440 0
-381 -441 0
-379 -559 0
-380 -560 0
-381 -561 0
-379 -1051 0
-380 -1052 0
-381 -1053 0
-382 -1012 0
-383 -1013 0
-384 -1014 0
-382 -1129 0
-383 -1130 0
-384 -1131 0
-385 -490 0
-386 -491 0
-387 -492 0
-385 -883 0
-386 -884 0
-387 -885 0
-388 -415 0
-389 -416 0
-390 -417 0
-388 -907 0
-389 -908 0
-390 -909 0
-388 -997 0
-389 -998 0
-390 -999 0
-388 -1003 0
-389 -1004 0
-390 -1005 0
-391 -760 0
-392 -761 0
-393 -762 0
-391 -1066 0
-392 -1067 0
-393 -1068 0
-391 -1141 0
-392 -1142 0
-393 -1143 0
-394 -613 0
-395 -614 0
-396 -615 0
-394 -757 0
-395 -758 0
-396 -759 0
-394 -784 0
-395 -785 0
-396 -786 0
-394 -796 0
-395 -797 0
-396 -798 0
-394 -919 0
-395 -920 0
-396 -921 0
-394 -925 0
-395 -926 0
-396 -927 0
-397 -697 0
-398 -698 0
-399 -699 0
-397 -1144 0
-398 -1145 0
-399 -1146 0
-397 -1159 0
-398 -1160 0
-399 -1161 0
-397 -1195 0
-398 -1196 0
-399 -1197 0
-400 -511 0
-401 -512 0
-402 -513 0
-400 -601 0
-401 -602 0
-402 -603 0
-400 -826 0
-401 -827 0
-402 -828 0
-400 -913 0
-401 -914 0
-402 -915 0
-400 -1111 0
-401 -1112 0
-402 -1113 0
-403 -427 0
-404 -428 0
-405 -429 0
-403 -1051 0
-404 -1052 0
-405 -1053 0
-403 -1090 0
-404 -1091 0
-405 -1092 0
-406 -526 0
-407 -527 0
-408 -528 0
-409 -1114 0
-410 -1115 0
-411 -1116 0
-409 -1189 0
-410 -1190 0
-411 -1191 0
-412 -466 0
-413 -467 0
-414 -468 0
-412 -1156 0
-413 -1157 0
-414 -1158 0
-415 -511 0
-416 -512 0
-417 -513 0
-415 -940 0
-416 -941 0
-417 -942 0
-418 -451 0
-419 -452 0
-420 -453 0
-418 -757 0
-419 -758 0
-420 -759 0
-421 -745 0
-422 -746 0
-423 -747 0
-421 -850 0
-422 -851 0
-423 -852 0
-424 -475 0
-425 -476 0
-426 -477 0
-424 -601 0
-425 -602 0
-426 -603 0
-424 -826 0
-425 -827 0
-426 -828 0
-424 -1168 0
-425 -1169 0
-426 -1170 0
-427 -1006 0
-428 -1007 0
-429 -1008 0
-427 -1018 0
-428 -1019 0
-429 -1020 0
-430 -637 0
-431 -638 0
-432 -639 0
-433 -586 0
-434 -587 0
-435 -588 0
-433 -589 0
-434 -590 0
-435 -591 0
-433 -763 0
-434 -764 0
-435 -765 0
-436 -715 0
-437 -716 0
-438 -717 0
-439 -577 0
-440 -578 0
-441 -579 0
-439 -694 0
-440 -695 0
-441 -696 0
-439 -907 0
-440 -908 0
-441 -909 0
-442 -451 0
-443 -452 0
-444 -453 0
-442 -553 0
-443 -554 0
-444 -555 0
-442 -559 0
-443 -560 0
-444 -561 0
-442 -955 0
-443 -956 0
-444 -957 0
-442 -1033 0
-443 -1034 0
-444 -1035 0
-442 -1150 0
-443 -1151 0
-444 -1152 0
-445 -694 0
-446 -695 0
-447 -696 0
-445 -1069 0
-446 -1070 0
-447 -1071 0
-445 -1123 0
-446 -1124 0
-447 -1125 0
-448 -982 0
-449 -983 0
-450 -984 0
-448 -1153 0
-449 -1154 0
-450 -1155 0
-451 -670 0
-452 -671 0
-453 -672 0
-451 -835 0
-452 -836 0
-453 -837 0
-454 -598 0
-455 -599 0
-456 -600 0
-454 -688 0
-455 -689 0
-456 -690 0
-454 -1033 0
-455 -1034 0
-456 -1035 0
-457 -604 0
-458 -605 0
-459 -606 0
-457 -1105 0
-458 -1106 0
-459 -1107 0
-457 -1198 0
-458 -1199 0
-459 -1200 0
-460 -682 0
-461 -683 0
-462 -684 0
-460 -697 0
-461 -698 0
-462 -699 0
-460 -802 0
-461 -803 0
-462 -804 0
-460 -1033 0
-461 -1034 0
-462 -1035 0
-460 -1093 0
-461 -1094 0
-462 -1095 0
-463 -694 0
-464 -695 0
-465 -696 0
-463 -730 0
-464 -731 0
-465 -732 0
-463 -1156 0
-464 -1157 0
-465 -1158 0
-466 -556 0
-467 -557 0
-468 -558 0
-466 -757 0
-467 -758 0
-468 -759 0
-469 -919 0
-470 -920 0
-471 -921 0
-469 -1138 0
-470 -1139 0
-471 -1140 0
-472 -580 0
-473 -581 0
-474 -582 0
-472 -775 0
-473 -776 0
-474 -777 0
-472 -829 0
-473 -830 0
-474 -831 0
-472 -973 0
-473 -974 0
-474 -975 0
-472 -1075 0
-473 -1076 0
-474 -1077 0
-475 -514 0
-476 -515 0
-477 -516 0
-475 -628 0
-476 -629 0
-477 -630 0
-475 -823 0
-476 -824 0
-477 -825 0
-478 -730 0
-479 -731 0
-480 -732 0
-478 -877 0
-479 -878 0
-480 -879 0
-481 -757 0
-482 -758 0
-483 -759 0
-481 -997 0
-482 -998 0
-483 -999 0
-481 -1129 0
-482 -1130 0
-483 -1131 0
-484 -766 0
-485 -767 0
-486 -768 0
-487 -529 0
-488 -530 0
-489 -531 0
-487 -664 0
-488 -665 0
-489 -666 0
-487 -805 0
-488 -806 0
-489 -807 0
-487 -1183 0
-488 -1184 0
-489 -1185 0
-490 -757 0
-491 -758 0
-492 -759 0
-490 -1036 0
-491 -1037 0
-492 -1038 0
-490 -1186 0
-491 -1187 0
-492 -1188 0
-493 -529 0
-494 -530 0
-495 -531 0
-493 -745 0
-494 -746 0
-495 -747 0
-496 -835 0
-497 -836 0
-498 -837 0
-496 -946 0
-497 -947 0
-498 -948 0
-496 -997 0
-497 -998 0
-498 -999 0
-496 -1015 0
-497 -1016 0
-498 -1017 0
-499 -847 0
-500 -848 0
-501 -849 0
-502 -1096 0
-503 -1097 0
-504 -1098 0
-505 -532 0
-506 -533 0
-507 -534 0
-505 -574 0
-506 -575 0
-507 -576 0
-505 -841 0
-506 -842 0
-507 -843 0
-505 -850 0
-506 -851 0
-507 -852 0
-508 -691 0
-509 -692 0
-510 -693 0
-508 -775 0
-509 -776 0
-510 -777 0
-508 -985 0
-509 -986 0
-510 -987 0
-511 -535 0
-512 -536 0
-513 -537 0
-511 -571 0
-512 -572 0
-513 -573 0
-511 -595 0
-512 -596 0
-513 -597 0
-511 -688 0
-512 -689 0
-513 -690 0
-511 -739 0
-512 -740 0
-513 -741 0
-511 -883 0
-512 -884 0
-513 -885 0
-511 -1114 0
-512 -1115 0
-513 -1116 0
-511 -1141 0
-512 -1142 0
-513 -1143 0
-514 -934 0
-515 -935 0
-516 -936 0
-514 -1012 0
-515 -1013 0
-516 -1014 0
-517 -529 0
-518 -530 0
-519 -531 0
-517 -772 0
-518 -773 0
-519 -774 0
-517 -1198 0
-518 -1199 0
-519 -1200 0
-520 -883 0
-521 -884 0
-522 -885 0
-520 -1189 0
-521 -1190 0
-522 -1191 0
-523 -613 0
-524 -614 0
-525 -615 0
-523 -895 0
-524 -896 0
-525 -897 0
-523 -973 0
-524 -974 0
-525 -975 0
-523 -976 0
-524 -977 0
-525 -978 0
-523 -1099 0
-524 -1100 0
-525 -1101 0
-523 -1123 0
-524 -1124 0
-525 -1125 0
-526 -862 0
-527 -863 0
-528 -864 0
-526 -892 0
-527 -893 0
-528 -894 0
-529 -886 0
-530 -887 0
-531 -888 0
-529 -895 0
-530 -896 0
-531 -897 0
-529 -898 0
-530 -899 0
-531 -900 0
-529 -1033 0
-530 -1034 0
-531 -1035 0
-529 -1096 0
-530 -1097 0
-531 -1098 0
-532 -625 0
-533 -626 0
-534 -627 0
-532 -715 0
-533 -716 0
-534 -717 0
-532 -883 0
-533 -884 0
-534 -885 0
-532 -1009 0
-533 -1010 0
-534 -1011 0
-535 -661 0
-536 -662 0
-537 -663 0
-535 -679 0
-536 -680 0
-537 -681 0
-535 -832 0
-536 -833 0
-537 -834 0
-535 -1042 0
-536 -1043 0
-537 -1044 0
-535 -1108 0
-536 -1109 0
-537 -1110 0
-535 -1150 0
-536 -1151 0
-537 -1152 0
-538 -862 0
-539 -863 0
-540 -864 0
-541 -769 0
-542 -770 0
-543 -771 0
-541 -844 0
-542 -845 0
-543 -846 0
-541 -919 0
-542 -920 0
-543 -921 0
-544 -655 0
-545 -656 0
-546 -657 0
-544 -985 0
-545 -986 0
-546 -987 0
-544 -1057 0
-545 -1058 0
-546 -1059 0
-544 -1090 0
-545 -1091 0
-546 -1092 0
-544 -1153 0
-545 -1154 0
-546 -1155 0
-547 -715 0
-548 -716 0
-549 -717 0
-547 -763 0
-548 -764 0
-549 -765 0
-547 -970 0
-548 -971 0
-549 -972 0
-547 -1183 0
-548 -1184 0
-549 -1185 0
-550 -1054 0
-551 -1055 0
-552 -1056 0
-553 -652 0
-554 -653 0
-555 -654 0
-553 -724 0
-554 -725 0
-555 -726 0
-553 -1147 0
-554 -1148 0
-555 -1149 0
-556 -640 0
-557 -641 0
-558 -642 0
-556 -988 0
-557 -989 0
-558 -990 0
-562 -727 0
-563 -728 0
-564 -729 0
-562 -829 0
-563 -830 0
-564 -831 0
-562 -838 0
-563 -839 0
-564 -840 0
-562 -1105 0
-563 -1106 0
-564 -1107 0
-565 -607 0
-566 -608 0
-567 -609 0
-565 -667 0
-566 -668 0
-567 -669 0
-565 -679 0
-566 -680 0
-567 -681 0
-565 -877 0
-566 -878 0
-567 -879 0
-565 -931 0
-566 -932 0
-567 -933 0
-568 -661 0
-569 -662 0
-570 -663 0
-568 -820 0
-569 -821 0
-570 -822 0
-568 -829 0
-569 -830 0
-570 -831 0
-568 -1048 0
-569 -1049 0
-570 -1050 0
-568 -1159 0
-569 -1160 0
-570 -1161 0
-571 -712 0
-572 -713 0
-573 -714 0
-571 -871 0
-572 -872 0
-573 -873 0
-571 -970 0
-572 -971 0
-573 -972 0
-571 -1105 0
-572 -1106 0
-573 -1107 0
-571 -1129 0
-572 -1130 0
-573 -1131 0
-574 -778 0
-575 -779 0
-576 -780 0
-574 -874 0
-575 -875 0
-576 -876 0
-574 -931 0
-575 -932 0
-576 -933 0
-574 -1024 0
-575 -1025 0
-576 -1026 0
-574 -1066 0
-575 -1067 0
-576 -1068 0
-577 -787 0
-578 -788 0
-579 -789 0
-577 -1099 0
-578 -1100 0
-579 -1101 0
-580 -1153 0
-581 -1154 0
-582 -1155 0
-583 -757 0
-584 -758 0
-585 -759 0
-583 -877 0
-584 -878 0
-585 -879 0
-583 -976 0
-584 -977 0
-585 -978 0
-583 -997 0
-584 -998 0
-585 -999 0
-583 -1072 0
-584 -1073 0
-585 -1074 0
-583 -1096 0
-584 -1097 0
-585 -1098 0
-586 -652 0
-587 -653 0
-588 -654 0
-586 -742 0
-587 -743 0
-588 -744 0
-586 -823 0
-587 -824 0
-588 -825 0
-586 -937 0
-587 -938 0
-588 -939 0
-586 -943 0
-587 -944 0
-588 -945 0
-589 -778 0
-590 -779 0
-591 -780 0
-589 -793 0
-590 -794 0
-591 -795 0
-592 -985 0
-593 -986 0
-594 -987 0
-592 -1105 0
-593 -1106 0
-594 -1107 0
-595 -655 0
-596 -656 0
-597 -657 0
-595 -865 0
-596 -866 0
-597 -867 0
-595 -1048 0
-596 -1049 0
-597 -1050 0
-595 -1102 0
-596 -1103 0
-597 -1104 0
-598 -619 0
-599 -620 0
-600 -621 0
-601 -982 0
-602 -983 0
-603 -984 0
-604 -1036 0
-605 -1037 0
-606 -1038 0
-604 -1150 0
-605 -1151 0
-606 -1152 0
-607 -745 0
-608 -746 0
-609 -747 0
-610 -847 0
-611 -848 0
-612 -849 0
-610 -1138 0
-611 -1139 0
-612 -1140 0
-613 -781 0
-614 -782 0
-615 -783 0
-616 -1036 0
-617 -1037 0
-618 -1038 0
-619 -691 0
-620 -692 0
-621 -693 0
-619 -994 0
-620 -995 0
-621 -996 0
-622 -715 0
-623 -716 0
-624 -717 0
-622 -1156 0
-623 -1157 0
-624 -1158 0
-625 -832 0
-626 -833 0
-627 -834 0
-625 -1030 0
-626 -1031 0
-627 -1032 0
-625 -1156 0
-626 -1157 0
-627 -1158 0
-628 -1054 0
-629 -1055 0
-630 -1056 0
-628 -1183 0
-629 -1184 0
-630 -1185 0
-631 -910 0
-632 -911 0
-633 -912 0
-631 -928 0
-632 -929 0
-633 -930 0
-631 -1042 0
-632 -1043 0
-633 -1044 0
-634 -979 0
-635 -980 0
-636 -981 0
-634 -1177 0
-635 -1178 0
-636 -1179 0
-637 -778 0
-638 -779 0
-639 -780 0
-637 -853 0
-638 -854 0
-639 -855 0
-637 -982 0
-638 -983 0
-639 -984 0
-637 -1159 0
-638 -1160 0
-639 -1161 0
-640 -1066 0
-641 -1067 0
-642 -1068 0
-643 -784 0
-644 -785 0
-645 -786 0
-643 -922 0
-644 -923 0
-645 -924 0
-646 -784 0
-647 -785 0
-648 -786 0
-646 -877 0
-647 -878 0
-648 -879 0
-646 -991 0
-647 -992 0
-648 -993 0
-646 -1009 0
-647 -1010 0
-648 -1011 0
-649 -961 0
-650 -962 0
-651 -963 0
-649 -1063 0
-650 -1064 0
-651 -1065 0
-652 -931 0
-653 -932 0
-654 -933 0
-655 -727 0
-656 -728 0
-657 -729 0
-655 -973 0
-656 -974 0
-657 -975 0
-658 -847 0
-659 -848 0
-660 -849 0
-658 -1162 0
-659 -1163 0
-660 -1164 0
-661 -1027 0
-662 -1028 0
-663 -1029 0
-661 -1159 0
-662 -1160 0
-663 -1161 0
-661 -1192 0
-662 -1193 0
-663 -1194 0
-664 -808 0
-665 -809 0
-666 -810 0
-664 -850 0
-665 -851 0
-666 -852 0
-664 -865 0
-665 -866 0
-666 -867 0
-664 -901 0
-665 -902 0
-666 -903 0
-664 -961 0
-665 -962 0
-666 -963 0
-667 -871 0
-668 -872 0
-669 -873 0
-667 -1111 0
-668 -1112 0
-669 -1113 0
-670 -805 0
-671 -806 0
-672 -807 0
-670 -1192 0
-671 -1193 0
-672 -1194 0
-673 -721 0
-674 -722 0
-675 -723 0
-673 -760 0
-674 -761 0
-675 -762 0
-673 -886 0
-674 -887 0
-675 -888 0
-673 -949 0
-674 -950 0
-675 -951 0
-679 -880 0
-680 -881 0
-681 -882 0
-679 -940 0
-680 -941 0
-681 -942 0
-679 -1009 0
-680 -1010 0
-681 -1011 0
-682 -721 0
-683 -722 0
-684 -723 0
-682 -949 0
-683 -950 0
-684 -951 0
-685 -1168 0
-686 -1169 0
-687 -1170 0
-688 -745 0
-689 -746 0
-690 -747 0
-688 -1159 0
-689 -1160 0
-690 -1161 0
-691 -1102 0
-692 -1103 0
-693 -1104 0
-697 -877 0
-698 -878 0
-699 -879 0
-697 -1081 0
-698 -1082 0
-699 -1083 0
-697 -1093 0
-698 -1094 0
-699 -1095 0
-706 -766 0
-707 -767 0
-708 -768 0
-709 -739 0
-710 -740 0
-711 -741 0
-709 -988 0
-710 -989 0
-711 -990 0
-712 -727 0
-713 -728 0
-714 -729 0
-721 -982 0
-722 -983 0
-723 -984 0
-724 -739 0
-725 -740 0
-726 -741 0
-724 -820 0
-725 -821 0
-726 -822 0
-724 -1183 0
-725 -1184 0
-726 -1185 0
-733 -742 0
-734 -743 0
-735 -744 0
-736 -988 0
-737 -989 0
-738 -990 0
-736 -1021 0
-737 -1022 0
-738 -1023 0
-739 -808 0
-740 -809 0
-741 -810 0
-742 -802 0
-743 -803 0
-744 -804 0
-742 -952 0
-743 -953 0
-744 -954 0
-742 -985 0
-743 -986 0
-744 -987 0
-745 -1027 0
-746 -1028 0
-747 -1029 0
-745 -1057 0
-746 -1058 0
-747 -1059 0
-745 -1093 0
-746 -1094 0
-747 -1095 0
-745 -1096 0
-746 -1097 0
-747 -1098 0
-745 -1108 0
-746 -1109 0
-747 -1110 0
-745 -1117 0
-746 -1118 0
-747 -1119 0
-748 -823 0
-749 -824 0
-750 -825 0
-748 -949 0
-749 -950 0
-750 -951 0
-751 -961 0
-752 -962 0
-753 -963 0
-754 -802 0
-755 -803 0
-756 -804 0
-754 -880 0
-755 -881 0
-756 -882 0
-754 -937 0
-755 -938 0
-756 -939 0
-754 -997 0
-755 -998 0
-756 -999 0
-754 -1117 0
-755 -1118 0
-756 -1119 0
-757 -826 0
-758 -827 0
-759 -828 0
-760 -772 0
-761 -773 0
-762 -774 0
-760 -940 0
-761 -941 0
-762 -942 0
-763 -766 0
-764 -767 0
-765 -768 0
-763 -796 0
-764 -797 0
-765 -798 0
-763 -883 0
-764 -884 0
-765 -885 0
-763 -937 0
-764 -938 0
-765 -939 0
-763 -1093 0
-764 -1094 0
-765 -1095 0
-766 -919 0
-767 -920 0
-768 -921 0
-769 -955 0
-770 -956 0
-771 -957 0
-772 -775 0
-773 -776 0
-774 -777 0
-772 -841 0
-773 -842 0
-774 -843 0
-772 -868 0
-773 -869 0
-774 -870 0
-775 -805 0
-776 -806 0
-777 -807 0
-775 -1060 0
-776 -1061 0
-777 -1062 0
-778 -1069 0
-779 -1070 0
-780 -1071 0
-778 -1153 0
-779 -1154 0
-780 -1155 0
-781 -1168 0
-782 -1169 0
-783 -1170 0
-784 -910 0
-785 -911 0
-786 -912 0
-784 -964 0
-785 -965 0
-786 -966 0
-784 -1132 0
-785 -1133 0
-786 -1134 0
-790 -796 0
-791 -797 0
-792 -798 0
-790 -1039 0
-791 -1040 0
-792 -1041 0
-793 -910 0
-794 -911 0
-795 -912 0
-793 -961 0
-794 -962 0
-795 -963 0
-793 -1120 0
-794 -1121 0
-795 -1122 0
-796 -889 0
-797 -890 0
-798 -891 0
-796 -1168 0
-797 -1169 0
-798 -1170 0
-802 -1018 0
-803 -1019 0
-804 -1020 0
-805 -1027 0
-806 -1028 0
-807 -1029 0
-808 -835 0
-809 -836 0
-810 -837 0
-808 -901 0
-809 -902 0
-810 -903 0
-811 -997 0
-812 -998 0
-813 -999 0
-814 -1045 0
-815 -1046 0
-816 -1047 0
-814 -1186 0
-815 -1187 0
-816 -1188 0
-817 -1096 0
-818 -1097 0
-819 -1098 0
-820 -856 0
-821 -857 0
-822 -858 0
-820 -1018 0
-821 -1019 0
-822 -1020 0
-820 -1156 0
-821 -1157 0
-822 -1158 0
-823 -862 0
-824 -863 0
-825 -864 0
-823 -937 0
-824 -938 0
-825 -939 0
-823 -1084 0
-824 -1085 0
-825 -1086 0
-826 -952 0
-827 -953 0
-828 -954 0
-826 -955 0
-827 -956 0
-828 -957 0
-829 -886 0
-830 -887 0
-831 -888 0
-829 -898 0
-830 -899 0
-831 -900 0
-829 -934 0
-830 -935 0
-831 -936 0
-829 -1078 0
-830 -1079 0
-831 -1080 0
-835 -952 0
-836 -953 0
-837 -954 0
-841 -1054 0
-842 -1055 0
-843 -1056 0
-841 -1186 0
-842 -1187 0
-843 -1188 0
-844 -943 0
-845 -944 0
-846 -945 0
-859 -1012 0
-860 -1013 0
-861 -1014 0
-859 -1177 0
-860 -1178 0
-861 -1179 0
-862 -958 0
-863 -959 0
-864 -960 0
-865 -1090 0
-866 -1091 0
-867 -1092 0
-868 -1198 0
-869 -1199 0
-870 -1200 0
-877 -895 0
-878 -896 0
-879 -897 0
-877 -1009 0
-878 -1010 0
-879 -1011 0
-877 -1177 0
-878 -1178 0
-879 -1179 0
-880 -994 0
-881 -995 0
-882 -996 0
-880 -1123 0
-881 -1124 0
-882 -1125 0
-880 -1135 0
-881 -1136 0
-882 -1137 0
-883 -1042 0
-884 -1043 0
-885 -1044 0
-883 -1057 0
-884 -1058 0
-885 -1059 0
-886 -1057 0
-887 -1058 0
-888 -1059 0
-889 -904 0
-890 -905 0
-891 -906 0
-892 -1030 0
-893 -1031 0
-894 -1032 0
-895 -952 0
-896 -953 0
-897 -954 0
-895 -982 0
-896 -983 0
-897 -984 0
-901 -964 0
-902 -965 0
-903 -966 0
-901 -1021 0
-902 -1022 0
-903 -1023 0
-901 -1159 0
-902 -1160 0
-903 -1161 0
-910 -1153 0
-911 -1154 0
-912 -1155 0
-916 -1090 0
-917 -1091 0
-918 -1092 0
-919 -976 0
-920 -977 0
-921 -978 0
-919 -1063 0
-920 -1064 0
-921 -1065 0
-919 -1099 0
-920 -1100 0
-921 -1101 0
-919 -1162 0
-920 -1163 0
-921 -1164 0
-922 -994 0
-923 -995 0
-924 -996 0
-922 -1099 0
-923 -1100 0
-924 -1101 0
-925 -940 0
-926 -941 0
-927 -942 0
-925 -1147 0
-926 -1148 0
-927 -1149 0
-925 -1162 0
-926 -1163 0
-927 -1164 0
-928 -970 0
-929 -971 0
-930 -972 0
-934 -937 0
-935 -938 0
-936 -939 0
-943 -1120 0
-944 -1121 0
-945 -1122 0
-946 -997 0
-947 -998 0
-948 -999 0
-946 -1162 0
-947 -1163 0
-948 -1164 0
-964 -1078 0
-965 -1079 0
-966 -1080 0
-964 -1138 0
-965 -1139 0
-966 -1140 0
-967 -988 0
-968 -989 0
-969 -990 0
-967 -1126 0
-968 -1127 0
-969 -1128 0
-970 -1054 0
-971 -1055 0
-972 -1056 0
-973 -1111 0
-974 -1112 0
-975 -1113 0
-982 -1000 0
-983 -1001 0
-984 -1002 0
-982 -1105 0
-983 -1106 0
-984 -1107 0
-985 -1042 0
-986 -1043 0
-987 -1044 0
-988 -1183 0
-989 -1184 0
-990 -1185 0
-1003 -1165 0
-1004 -1166 0
-1005 -1167 0
-1006 -1162 0
-1007 -1163 0
-1008 -1164 0
-1012 -1024 0
-1013 -1025 0
-1014 -1026 0
-1012 -1066 0
-1013 -1067 0
-1014 -1068 0
-1024 -1048 0
-1025 -1049 0
-1026 -1050 0
-1024 -1069 0
-1025 -1070 0
-1026 -1071 0
-1024 -1135 0
-1025 -1136 0
-1026 -1137 0
-1024 -1186 0
-1025 -1187 0
-1026 -1188 0
-1027 -1075 0
-1028 -1076 0
-1029 -1077 0
-1042 -1111 0
-1043 -1112 0
-1044 -1113 0
-1051 -1105 0
-1052 -1106 0
-1053 -1107 0
-1054 -1084 0
-1055 -1085 0
-1056 -1086 0
-1060 -1096 0
-1061 -1097 0
-1062 -1098 0
-1063 -1081 0
-1064 -1082 0
-1065 -1083 0
-1084 -1102 0
-1085 -1103 0
-1086 -1104 0
-1090 -1117 0
-1091 -1118 0
-1092 -1119 0
-1093 -1153 0
-1094 -1154 0
-1095 -1155 0
-1126 -1135 0
-1127 -1136 0
-1128 -1137 0
-1132 -1153 0
-1133 -1154 0
-1134 -1155 0
-1186 -1189 0
-1187 -1190 0
-1188 -1191 0
