p cnf 1200 4528
1 2 3 0
4 5 6 0
7 8 9 0
10 11 12 0
13 14 15 0
16 17 18 0
19 20 21 0
22 23 24 0
25 26 27 0
28 29 30 0
31 32 33 0
34 35 36 0
37 38 39 0
40 41 42 0
43 44 45 0
46 47 48 0
49 50 51 0
52 53 54 0
55 56 57 0
58 59 60 0
61 62 63 0
64 65 66 0
67 68 69 0
70 71 72 0
73 74 75 0
76 77 78 0
79 80 81 0
82 83 84 0
85 86 87 0
88 89 90 0
91 92 93 0
94 95 96 0
97 98 99 0
100 101 102 0
103 104 105 0
106 107 108 0
109 110 111 0
112 113 114 0
115 116 117 0
118 119 120 0
121 122 123 0
124 125 126 0
127 128 129 0
130 131 132 0
133 134 135 0
136 137 138 0
139 140 141 0
142 143 144 0
145 146 147 0
148 149 150 0
151 152 153 0
154 155 156 0
157 158 159 0
160 161 162 0
163 164 165 0
166 167 168 0
169 170 171 0
172 173 174 0
175 176 177 0
178 179 180 0
181 182 183 0
184 185 186 0
187 188 189 0
190 191 192 0
193 194 195 0
196 197 198 0
199 200 201 0
202 203 204 0
205 206 207 0
208 209 210 0
211 212 213 0
214 215 216 0
217 218 219 0
220 221 222 0
223 224 225 0
226 227 228 0
229 230 231 0
232 233 234 0
235 236 237 0
238 239 240 0
241 242 243 0
244 245 246 0
247 248 249 0
250 251 252 0
253 254 255 0
256 257 258 0
259 260 261 0
262 263 264 0
265 266 267 0
268 269 270 0
271 272 273 0
274 275 276 0
277 278 279 0
280 281 282 0
283 284 285 0
286 287 288 0
289 290 291 0
292 293 294 0
295 296 297 0
298 299 300 0
301 302 303 0
304 305 306 0
307 308 309 0
310 311 312 0
313 314 315 0
316 317 318 0
319 320 321 0
322 323 324 0
325 326 327 0
328 329 330 0
331 332 333 0
334 335 336 0
337 338 339 0
340 341 342 0
343 344 345 0
346 347 348 0
349 350 351 0
352 353 354 0
355 356 357 0
358 359 360 0
361 362 363 0
364 365 366 0
367 368 369 0
370 371 372 0
373 374 375 0
376 377 378 0
379 380 381 0
382 383 384 0
385 386 387 0
388 389 390 0
391 392 393 0
394 395 396 0
397 398 399 0
400 401 402 0
403 404 405 0
406 407 408 0
409 410 411 0
412 413 414 0
415 416 417 0
418 419 420 0
421 422 423 0
424 425 426 0
427 428 429 0
430 431 432 0
433 434 435 0
436 437 438 0
439 440 441 0
442 443 444 0
445 446 447 0
448 449 450 0
451 452 453 0
454 455 456 0
457 458 459 0
460 461 462 0
463 464 465 0
466 467 468 0
469 470 471 0
472 473 474 0
475 476 477 0
478 479 480 0
481 482 483 0
484 485 486 0
487 488 489 0
490 491 492 0
493 494 495 0
496 497 498 0
499 500 501 0
502 503 504 0
505 506 507 0
508 509 510 0
511 512 513 0
514 515 516 0
517 518 519 0
520 521 522 0
523 524 525 0
526 527 528 0
529 530 531 0
532 533 534 0
535 536 537 0
538 539 540 0
541 542 543 0
544 545 546 0
547 548 549 0
550 551 552 0
553 554 555 0
556 557 558 0
559 560 561 0
562 563 564 0
565 566 567 0
568 569 570 0
571 572 573 0
574 575 576 0
577 578 579 0
580 581 582 0
583 584 585 0
586 587 588 0
589 590 591 0
592 593 594 0
595 596 597 0
598 599 600 0
601 602 603 0
604 605 606 0
607 608 609 0
610 611 612 0
613 614 615 0
616 617 618 0
619 620 621 0
622 623 624 0
625 626 627 0
628 629 630 0
631 632 633 0
634 635 636 0
637 638 639 0
640 641 642 0
643 644 645 0
646 647 648 0
649 650 651 0
652 653 654 0
655 656 657 0
658 659 660 0
661 662 663 0
664 665 666 0
667 668 669 0
670 671 672 0
673 674 675 0
676 677 678 0
679 680 681 0
682 683 684 0
685 686 687 0
688 689 690 0
691 692 693 0
694 695 696 0
697 698 699 0
700 701 702 0
703 704 705 0
706 707 708 0
709 710 711 0
712 713 714 0
715 716 717 0
718 719 720 0
721 722 723 0
724 725 726 0
727 728 729 0
730 731 732 0
733 734 735 0
736 737 738 0
739 740 741 0
742 743 744 0
745 746 747 0
748 749 750 0
751 752 753 0
754 755 756 0
757 758 759 0
760 761 762 0
763 764 765 0
766 767 768 0
769 770 771 0
772 773 774 0
775 776 777 0
778 779 780 0
781 782 783 0
784 785 786 0
787 788 789 0
790 791 792 0
793 794 795 0
796 797 798 0
799 800 801 0
802 803 804 0
805 806 807 0
808 809 810 0
811 812 813 0
814 815 816 0
817 818 819 0
820 821 822 0
823 824 825 0
826 827 828 0
829 830 831 0
832 833 834 0
835 836 837 0
838 839 840 0
841 842 843 0
844 845 846 0
847 848 849 0
850 851 852 0
853 854 855 0
856 857 858 0
859 860 861 0
862 863 864 0
865 866 867 0
868 869 870 0
871 872 873 0
874 875 876 0
877 878 879 0
880 881 882 0
883 884 885 0
886 887 888 0
889 890 891 0
892 893 894 0
895 896 897 0
898 899 900 0
901 902 903 0
904 905 906 0
907 908 909 0
910 911 912 0
913 914 915 0
916 917 918 0
919 920 921 0
922 923 924 0
925 926 927 0
928 929 930 0
931 932 933 0
934 935 936 0
937 938 939 0
940 941 942 0
943 944 945 0
946 947 948 0
949 950 951 0
952 953 954 0
955 956 957 0
958 959 960 0
961 962 963 0
964 965 966 0
967 968 969 0
970 971 972 0
973 974 975 0
976 977 978 0
979 980 981 0
982 983 984 0
985 986 987 0
988 989 990 0
991 992 993 0
994 995 996 0
997 998 999 0
1000 1001 1002 0
1003 1004 1005 0
1006 1007 1008 0
1009 1010 1011 0
1012 1013 1014 0
1015 1016 1017 0
1018 1019 1020 0
1021 1022 1023 0
1024 1025 1026 0
1027 1028 1029 0
1030 1031 1032 0
1033 1034 1035 0
1036 1037 1038 0
1039 1040 1041 0
1042 1043 1044 0
1045 1046 1047 0
1048 1049 1050 0
1051 1052 1053 0
1054 1055 1056 0
1057 1058 1059 0
1060 1061 1062 0
1063 1064 1065 0
1066 1067 1068 0
1069 1070 1071 0
1072 1073 1074 0
1075 1076 1077 0
1078 1079 1080 0
1081 1082 1083 0
1084 1085 1086 0
1087 1088 1089 0
1090 1091 1092 0
1093 1094 1095 0
1096 1097 1098 0
1099 1100 1101 0
1102 1103 1104 0
1105 1106 1107 0
1108 1109 1110 0
1111 1112 1113 0
1114 1115 1116 0
1117 1118 1119 0
1120 1121 1122 0
1123 1124 1125 0
1126 1127 1128 0
1129 1130 1131 0
1132 1133 1134 0
1135 1136 1137 0
1138 1139 1140 0
1141 1142 1143 0
1144 1145 1146 0
1147 1148 1149 0
1150 1151 1152 0
1153 1154 1155 0
1156 1157 1158 0
1159 1160 1161 0
1162 1163 1164 0
1165 1166 1167 0
1168 1169 1170 0
1171 1172 1173 0
1174 1175 1176 0
1177 1178 1179 0
1180 1181 1182 0
1183 1184 1185 0
1186 1187 1188 0
1189 1190 1191 0
1192 1193 1194 0
1195 1196 1197 0
1198 1199 1200 0
-1 -2 0
-1 -3 0
-2 -3 0
-4 -5 0
-4 -6 0
-5 -6 0
-7 -8 0
-7 -9 0
-8 -9 0
-10 -11 0
-10 -12 0
-11 -12 0
-13 -14 0
-13 -15 0
-14 -15 0
-16 -17 0
-16 -18 0
-17 -18 0
-19 -20 0
-19 -21 0
-20 -21 0
-22 -23 0
-22 -24 0
-23 -24 0
-25 -26 0
-25 -27 0
-26 -27 0
-28 -29 0
-28 -30 0
-29 -30 0
-31 -32 0
-31 -33 0
-32 -33 0
-34 -35 0
-34 -36 0
-35 -36 0
-37 -38 0
-37 -39 0
-38 -39 0
-40 -41 0
-40 -42 0
-41 -42 0
-43 -44 0
-43 -45 0
-44 -45 0
-46 -47 0
-46 -48 0
-47 -48 0
-49 -50 0
-49 -51 0
-50 -51 0
-52 -53 0
-52 -54 0
-53 -54 0
-55 -56 0
-55 -57 0
-56 -57 0
-58 -59 0
-58 -60 0
-59 -60 0
-61 -62 0
-61 -63 0
-62 -63 0
-64 -65 0
-64 -66 0
-65 -66 0
-67 -68 0
-67 -69 0
-68 -69 0
-70 -71 0
-70 -72 0
-71 -72 0
-73 -74 0
-73 -75 0
-74 -75 0
-76 -77 0
-76 -78 0
-77 -78 0
-79 -80 0
-79 -81 0
-80 -81 0
-82 -83 0
-82 -84 0
-83 -84 0
-85 -86 0
-85 -87 0
-86 -87 0
-88 -89 0
-88 -90 0
-89 -90 0
-91 -92 0
-91 -93 0
-92 -93 0
-94 -95 0
-94 -96 0
-95 -96 0
-97 -98 0
-97 -99 0
-98 -99 0
-100 -101 0
-100 -102 0
-101 -102 0
-103 -104 0
-103 -105 0
-104 -105 0
-106 -107 0
-106 -108 0
-107 -108 0
-109 -110 0
-109 -111 0
-110 -111 0
-112 -113 0
-112 -114 0
-113 -114 0
-115 -116 0
-115 -117 0
-116 -117 0
-118 -119 0
-118 -120 0
-119 -120 0
-121 -122 0
-121 -123 0
-122 -123 0
-124 -125 0
-124 -126 0
-125 -126 0
-127 -128 0
-127 -129 0
-128 -129 0
-130 -131 0
-130 -132 0
-131 -132 0
-133 -134 0
-133 -135 0
-134 -135 0
-136 -137 0
-136 -138 0
-137 -138 0
-139 -140 0
-139 -141 0
-140 -141 0
-142 -143 0
-142 -144 0
-143 -144 0
-145 -146 0
-145 -147 0
-146 -147 0
-148 -149 0
-148 -150 0
-149 -150 0
-151 -152 0
-151 -153 0
-152 -153 0
-154 -155 0
-154 -156 0
-155 -156 0
-157 -158 0
-157 -159 0
-158 -159 0
-160 -161 0
-160 -162 0
-161 -162 0
-163 -164 0
-163 -165 0
-164 -165 0
-166 -167 0
-166 -168 0
-167 -168 0
-169 -170 0
-169 -171 0
-170 -171 0
-172 -173 0
-172 -174 0
-173 -174 0
-175 -176 0
-175 -177 0
-176 -177 0
-178 -179 0
-178 -180 0
-179 -180 0
-181 -182 0
-181 -183 0
-182 -183 0
-184 -185 0
-184 -186 0
-185 -186 0
-187 -188 0
-187 -189 0
-188 -189 0
-190 -191 0
-190 -192 0
-191 -192 0
-193 -194 0
-193 -195 0
-194 -195 0
-196 -197 0
-196 -198 0
-197 -198 0
-199 -200 0
-199 -201 0
-200 -201 0
-202 -203 0
-202 -204 0
-203 -204 0
-205 -206 0
-205 -207 0
-206 -207 0
-208 -209 0
-208 -210 0
-209 -210 0
-211 -212 0
-211 -213 0
-212 -213 0
-214 -215 0
-214 -216 0
-215 -216 0
-217 -218 0
-217 -219 0
-218 -219 0
-220 -221 0
-220 -222 0
-221 -222 0
-223 -224 0
-223 -225 0
-224 -225 0
-226 -227 0
-226 -228 0
-227 -228 0
-229 -230 0
-229 -231 0
-230 -231 0
-232 -233 0
-232 -234 0
-233 -234 0
-235 -236 0
-235 -237 0
-236 -237 0
-238 -239 0
-238 -240 0
-239 -240 0
-241 -242 0
-241 -243 0
-242 -243 0
-244 -245 0
-244 -246 0
-245 -246 0
-247 -248 0
-247 -249 0
-248 -249 0
-250 -251 0
-250 -252 0
-251 -252 0
-253 -254 0
-253 -255 0
-254 -255 0
-256 -257 0
-256 -258 0
-257 -258 0
-259 -260 0
-259 -261 0
-260 -261 0
-262 -263 0
-262 -264 0
-263 -264 0
-265 -266 0
-265 -267 0
-266 -267 0
-268 -269 0
-268 -270 0
-269 -270 0
-271 -272 0
-271 -273 0
-272 -273 0
-274 -275 0
-274 -276 0
-275 -276 0
-277 -278 0
-277 -279 0
-278 -279 0
-280 -281 0
-280 -282 0
-281 -282 0
-283 -284 0
-283 -285 0
-284 -285 0
-286 -287 0
-286 -288 0
-287 -288 0
-289 -290 0
-289 -291 0
-290 -291 0
-292 -293 0
-292 -294 0
-293 -294 0
-295 -296 0
-295 -297 0
-296 -297 0
-298 -299 0
-298 -300 0
-299 -300 0
-301 -302 0
-301 -303 0
-302 -303 0
-304 -305 0
-304 -306 0
-305 -306 0
-307 -308 0
-307 -309 0
-308 -309 0
-310 -311 0
-310 -312 0
-311 -312 0
-313 -314 0
-313 -315 0
-314 -315 0
-316 -317 0
-316 -318 0
-317 -318 0
-319 -320 0
-319 -321 0
-320 -321 0
-322 -323 0
-322 -324 0
-323 -324 0
-325 -326 0
-325 -327 0
-326 -327 0
-328 -329 0
-328 -330 0
-329 -330 0
-331 -332 0
-331 -333 0
-332 -333 0
-334 -335 0
-334 -336 0
-335 -336 0
-337 -338 0
-337 -339 0
-338 -339 0
-340 -341 0
-340 -342 0
-341 -342 0
-343 -344 0
-343 -345 0
-344 -345 0
-346 -347 0
-346 -348 0
-347 -348 0
-349 -350 0
-349 -351 0
-350 -351 0
-352 -353 0
-352 -354 0
-353 -354 0
-355 -356 0
-355 -357 0
-356 -357 0
-358 -359 0
-358 -360 0
-359 -360 0
-361 -362 0
-361 -363 0
-362 -363 0
-364 -365 0
-364 -366 0
-365 -366 0
-367 -368 0
-367 -369 0
-368 -369 0
-370 -371 0
-370 -372 0
-371 -372 0
-373 -374 0
-373 -375 0
-374 -375 0
-376 -377 0
-376 -378 0
-377 -378 0
-379 -380 0
-379 -381 0
-380 -381 0
-382 -383 0
-382 -384 0
-383 -384 0
-385 -386 0
-385 -387 0
-386 -387 0
-388 -389 0
-388 -390 0
-389 -390 0
-391 -392 0
-391 -393 0
-392 -393 0
-394 -395 0
-394 -396 0
-395 -396 0
-397 -398 0
-397 -399 0
-398 -399 0
-400 -401 0
-400 -402 0
-401 -402 0
-403 -404 0
-403 -405 0
-404 -405 0
-406 -407 0
-406 -408 0
-407 -408 0
-409 -410 0
-409 -411 0
-410 -411 0
-412 -413 0
-412 -414 0
-413 -414 0
-415 -416 0
-415 -417 0
-416 -417 0
-418 -419 0
-418 -420 0
-419 -420 0
-421 -422 0
-421 -423 0
-422 -423 0
-424 -425 0
-424 -426 0
-425 -426 0
-427 -428 0
-427 -429 0
-428 -429 0
-430 -431 0
-430 -432 0
-431 -432 0
-433 -434 0
-433 -435 0
-434 -435 0
-436 -437 0
-436 -438 0
-437 -438 0
-439 -440 0
-439 -441 0
-440 -441 0
-442 -443 0
-442 -444 0
-443 -444 0
-445 -446 0
-445 -447 0
-446 -447 0
-448 -449 0
-448 -450 0
-449 -450 0
-451 -452 0
-451 -453 0
-452 -453 0
-454 -455 0
-454 -456 0
-455 -456 0
-457 -458 0
-457 -459 0
-458 -459 0
-460 -461 0
-460 -462 0
-461 -462 0
-463 -464 0
-463 -465 0
-464 -465 0
-466 -467 0
-466 -468 0
-467 -468 0
-469 -470 0
-469 -471 0
-470 -471 0
-472 -473 0
-472 -474 0
-473 -474 0
-475 -476 0
-475 -477 0
-476 -477 0
-478 -479 0
-478 -480 0
-479 -480 0
-481 -482 0
-481 -483 0
-482 -483 0
-484 -485 0
-484 -486 0
-485 -486 0
-487 -488 0
-487 -489 0
-488 -489 0
-490 -491 0
-490 -492 0
-491 -492 0
-493 -494 0
-493 -495 0
-494 -495 0
-496 -497 0
-496 -498 0
-497 -498 0
-499 -500 0
-499 -501 0
-500 -501 0
-502 -503 0
-502 -504 0
-503 -504 0
-505 -506 0
-505 -507 0
-506 -507 0
-508 -509 0
-508 -510 0
-509 -510 0
-511 -512 0
-511 -513 0
-512 -513 0
-514 -515 0
-514 -516 0
-515 -516 0
-517 -518 0
-517 -519 0
-518 -519 0
-520 -521 0
-520 -522 0
-521 -522 0
-523 -524 0
-523 -525 0
-524 -525 0
-526 -527 0
-526 -528 0
-527 -528 0
-529 -530 0
-529 -531 0
-530 -531 0
-532 -533 0
-532 -534 0
-533 -534 0
-535 -536 0
-535 -537 0
-536 -537 0
-538 -539 0
-538 -540 0
-539 -540 0
-541 -542 0
-541 -543 0
-542 -543 0
-544 -545 0
-544 -546 0
-545 -546 0
-547 -548 0
-547 -549 0
-548 -549 0
-550 -551 0
-550 -552 0
-551 -552 0
-553 -554 0
-553 -555 0
-554 -555 0
-556 -557 0
-556 -558 0
-557 -558 0
-559 -560 0
-559 -561 0
-560 -561 0
-562 -563 0
-562 -564 0
-563 -564 0
-565 -566 0
-565 -567 0
-566 -567 0
-568 -569 0
-568 -570 0
-569 -570 0
-571 -572 0
-571 -573 0
-572 -573 0
-574 -575 0
-574 -576 0
-575 -576 0
-577 -578 0
-577 -579 0
-578 -579 0
-580 -581 0
-580 -582 0
-581 -582 0
-583 -584 0
-583 -585 0
-584 -585 0
-586 -587 0
-586 -588 0
-587 -588 0
-589 -590 0
-589 -591 0
-590 -591 0
-592 -593 0
-592 -594 0
-593 -594 0
-595 -596 0
-595 -597 0
-596 -597 0
-598 -599 0
-598 -600 0
-599 -600 0
-601 -602 0
-601 -603 0
-602 -603 0
-604 -605 0
-604 -606 0
-605 -606 0
-607 -608 0
-607 -609 0
-608 -609 0
-610 -611 0
-610 -612 0
-611 -612 0
-613 -614 0
-613 -615 0
-614 -615 0
-616 -617 0
-616 -618 0
-617 -618 0
-619 -620 0
-619 -621 0
-620 -621 0
-622 -623 0
-622 -624 0
-623 -624 0
-625 -626 0
-625 -627 0
-626 -627 0
-628 -629 0
-628 -630 0
-629 -630 0
-631 -632 0
-631 -633 0
-632 -633 0
-634 -635 0
-634 -636 0
-635 -636 0
-637 -638 0
-637 -639 0
-638 -639 0
-640 -641 0
-640 -642 0
-641 -642 0
-643 -644 0
-643 -645 0
-644 -645 0
-646 -647 0
-646 -648 0
-647 -648 0
-649 -650 0
-649 -651 0
-650 -651 0
-652 -653 0
-652 -654 0
-653 -654 0
-655 -656 0
-655 -657 0
-656 -657 0
-658 -659 0
-658 -660 0
-659 -660 0
-661 -662 0
-661 -663 0
-662 -663 0
-664 -665 0
-664 -666 0
-665 -666 0
-667 -668 0
-667 -669 0
-668 -669 0
-670 -671 0
-670 -672 0
-671 -672 0
-673 -674 0
-673 -675 0
-674 -675 0
-676 -677 0
-676 -678 0
-677 -678 0
-679 -680 0
-679 -681 0
-680 -681 0
-682 -683 0
-682 -684 0
-683 -684 0
-685 -686 0
-685 -687 0
-686 -687 0
-688 -689 0
-688 -690 0
-689 -690 0
-691 -692 0
-691 -693 0
-692 -693 0
-694 -695 0
-694 -696 0
-695 -696 0
-697 -698 0
-697 -699 0
-698 -699 0
-700 -701 0
-700 -702 0
-701 -702 0
-703 -704 0
-703 -705 0
-704 -705 0
-706 -707 0
-706 -708 0
-707 -708 0
-709 -710 0
-709 -711 0
-710 -711 0
-712 -713 0
-712 -714 0
-713 -714 0
-715 -716 0
-715 -717 0
-716 -717 0
-718 -719 0
-718 -720 0
-719 -720 0
-721 -722 0
-721 -723 0
-722 -723 0
-724 -725 0
-724 -726 0
-725 -726 0
-727 -728 0
-727 -729 0
-728 -729 0
-730 -731 0
-730 -732 0
-731 -732 0
-733 -734 0
-733 -735 0
-734 -735 0
-736 -737 0
-736 -738 0
-737 -738 0
-739 -740 0
-739 -741 0
-740 -741 0
-742 -743 0
-742 -744 0
-743 -744 0
-745 -746 0
-745 -747 0
-746 -747 0
-748 -749 0
-748 -750 0
-749 -750 0
-751 -752 0
-751 -753 0
-752 -753 0
-754 -755 0
-754 -756 0
-755 -756 0
-757 -758 0
-757 -759 0
-758 -759 0
-760 -761 0
-760 -762 0
-761 -762 0
-763 -764 0
-763 -765 0
-764 -765 0
-766 -767 0
-766 -768 0
-767 -768 0
-769 -770 0
-769 -771 0
-770 -771 0
-772 -773 0
-772 -774 0
-773 -774 0
-775 -776 0
-775 -777 0
-776 -777 0
-778 -779 0
-778 -780 0
-779 -780 0
-781 -782 0
-781 -783 0
-782 -783 0
-784 -785 0
-784 -786 0
-785 -786 0
-787 -788 0
-787 -789 0
-788 -789 0
-790 -791 0
-790 -792 0
-791 -792 0
-793 -794 0
-793 -795 0
-794 -795 0
-796 -797 0
-796 -798 0
-797 -798 0
-799 -800 0
-799 -801 0
-800 -801 0
-802 -803 0
-802 -804 0
-803 -804 0
-805 -806 0
-805 -807 0
-806 -807 0
-808 -809 0
-808 -810 0
-809 -810 0
-811 -812 0
-811 -813 0
-812 -813 0
-814 -815 0
-814 -816 0
-815 -816 0
-817 -818 0
-817 -819 0
-818 -819 0
-820 -821 0
-820 -822 0
-821 -822 0
-823 -824 0
-823 -825 0
-824 -825 0
-826 -827 0
-826 -828 0
-827 -828 0
-829 -830 0
-829 -831 0
-830 -831 0
-832 -833 0
-832 -834 0
-833 -834 0
-835 -836 0
-835 -837 0
-836 -837 0
-838 -839 0
-838 -840 0
-839 -840 0
-841 -842 0
-841 -843 0
-842 -843 0
-844 -845 0
-844 -846 0
-845 -846 0
-847 -848 0
-847 -849 0
-848 -849 0
-850 -851 0
-850 -852 0
-851 -852 0
-853 -854 0
-853 -855 0
-854 -855 0
-856 -857 0
-856 -858 0
-857 -858 0
-859 -860 0
-859 -861 0
-860 -861 0
-862 -863 0
-862 -864 0
-863 -864 0
-865 -866 0
-865 -867 0
-866 -867 0
-868 -869 0
-868 -870 0
-869 -870 0
-871 -872 0
-871 -873 0
-872 -873 0
-874 -875 0
-874 -876 0
-875 -876 0
-877 -878 0
-877 -879 0
-878 -879 0
-880 -881 0
-880 -882 0
-881 -882 0
-883 -884 0
-883 -885 0
-884 -885 0
-886 -887 0
-886 -888 0
-887 -888 0
-889 -890 0
-889 -891 0
-890 -891 0
-892 -893 0
-892 -894 0
-893 -894 0
-895 -896 0
-895 -897 0
-896 -897 0
-898 -899 0
-898 -900 0
-899 -900 0
-901 -902 0
-901 -903 0
-902 -903 0
-904 -905 0
-904 -906 0
-905 -906 0
-907 -908 0
-907 -909 0
-908 -909 0
-910 -911 0
-910 -912 0
-911 -912 0
-913 -914 0
-913 -915 0
-914 -915 0
-916 -917 0
-916 -918 0
-917 -918 0
-919 -920 0
-919 -921 0
-920 -921 0
-922 -923 0
-922 -924 0
-923 -924 0
-925 -926 0
-925 -927 0
-926 -927 0
-928 -929 0
-928 -930 0
-929 -930 0
-931 -932 0
-931 -933 0
-932 -933 0
-934 -935 0
-934 -936 0
-935 -936 0
-937 -938 0
-937 -939 0
-938 -939 0
-940 -941 0
-940 -942 0
-941 -942 0
-943 -944 0
-943 -945 0
-944 -945 0
-946 -947 0
-946 -948 0
-947 -948 0
-949 -950 0
-949 -951 0
-950 -951 0
-952 -953 0
-952 -954 0
-953 -954 0
-955 -956 0
-955 -957 0
-956 -957 0
-958 -959 0
-958 -960 0
-959 -960 0
-961 -962 0
-961 -963 0
-962 -963 0
-964 -965 0
-964 -966 0
-965 -966 0
-967 -968 0
-967 -969 0
-968 -969 0
-970 -971 0
-970 -972 0
-971 -972 0
-973 -974 0
-973 -975 0
-974 -975 0
-976 -977 0
-976 -978 0
-977 -978 0
-979 -980 0
-979 -981 0
-980 -981 0
-982 -983 0
-982 -984 0
-983 -984 0
-985 -986 0
-985 -987 0
-986 -987 0
-988 -989 0
-988 -990 0
-989 -990 0
-991 -992 0
-991 -993 0
-992 -993 0
-994 -995 0
-994 -996 0
-995 -996 0
-997 -998 0
-997 -999 0
-998 -999 0
-1000 -1001 0
-1000 -1002 0
-1001 -1002 0
-1003 -1004 0
-1003 -1005 0
-1004 -1005 0
-1006 -1007 0
-1006 -1008 0
-1007 -1008 0
-1009 -1010 0
-1009 -1011 0
-1010 -1011 0
-1012 -1013 0
-1012 -1014 0
-1013 -1014 0
-1015 -1016 0
-1015 -1017 0
-1016 -1017 0
-1018 -1019 0
-1018 -1020 0
-1019 -1020 0
-1021 -1022 0
-1021 -1023 0
-1022 -1023 0
-1024 -1025 0
-1024 -1026 0
-1025 -1026 0
-1027 -1028 0
-1027 -1029 0
-1028 -1029 0
-1030 -1031 0
-1030 -1032 0
-1031 -1032 0
-1033 -1034 0
-1033 -1035 0
-1034 -1035 0
-1036 -1037 0
-1036 -1038 0
-1037 -1038 0
-1039 -1040 0
-1039 -1041 0
-1040 -1041 0
-1042 -1043 0
-1042 -1044 0
-1043 -1044 0
-1045 -1046 0
-1045 -1047 0
-1046 -1047 0
-1048 -1049 0
-1048 -1050 0
-1049 -1050 0
-1051 -1052 0
-1051 -1053 0
-1052 -1053 0
-1054 -1055 0
-1054 -1056 0
-1055 -1056 0
-1057 -1058 0
-1057 -1059 0
-1058 -1059 0
-1060 -1061 0
-1060 -1062 0
-1061 -1062 0
-1063 -1064 0
-1063 -1065 0
-1064 -1065 0
-1066 -1067 0
-1066 -1068 0
-1067 -1068 0
-1069 -1070 0
-1069 -1071 0
-1070 -1071 0
-1072 -1073 0
-1072 -1074 0
-1073 -1074 0
-1075 -1076 0
-1075 -1077 0
-1076 -1077 0
-1078 -1079 0
-1078 -1080 0
-1079 -1080 0
-1081 -1082 0
-1081 -1083 0
-1082 -1083 0
-1084 -1085 0
-1084 -1086 0
-1085 -1086 0
-1087 -1088 0
-1087 -1089 0
-1088 -1089 0
-1090 -1091 0
-1090 -1092 0
-1091 -1092 0
-1093 -1094 0
-1093 -1095 0
-1094 -1095 0
-1096 -1097 0
-1096 -1098 0
-1097 -1098 0
-1099 -1100 0
-1099 -1101 0
-1100 -1101 0
-1102 -1103 0
-1102 -1104 0
-1103 -1104 0
-1105 -1106 0
-1105 -1107 0
-1106 -1107 0
-1108 -1109 0
-1108 -1110 0
-1109 -1110 0
-1111 -1112 0
-1111 -1113 0
-1112 -1113 0
-1114 -1115 0
-1114 -1116 0
-1115 -1116 0
-1117 -1118 0
-1117 -1119 0
-1118 -1119 0
-1120 -1121 0
-1120 -1122 0
-1121 -1122 0
-1123 -1124 0
-1123 -1125 0
-1124 -1125 0
-1126 -1127 0
-1126 -1128 0
-1127 -1128 0
-1129 -1130 0
-1129 -1131 0
-1130 -1131 0
-1132 -1133 0
-1132 -1134 0
-1133 -1134 0
-1135 -1136 0
-1135 -1137 0
-1136 -1137 0
-1138 -1139 0
-1138 -1140 0
-1139 -1140 0
-1141 -1142 0
-1141 -1143 0
-1142 -1143 0
-1144 -1145 0
-1144 -1146 0
-1145 -1146 0
-1147 -1148 0
-1147 -1149 0
-1148 -1149 0
-1150 -1151 0
-1150 -1152 0
-1151 -1152 0
-1153 -1154 0
-1153 -1155 0
-1154 -1155 0
-1156 -1157 0
-1156 -1158 0
-1157 -1158 0
-1159 -1160 0
-1159 -1161 0
-1160 -1161 0
-1162 -1163 0
-1162 -1164 0
-1163 -1164 0
-1165 -1166 0
-1165 -1167 0
-1166 -1167 0
-1168 -1169 0
-1168 -1170 0
-1169 -1170 0
-1171 -1172 0
-1171 -1173 0
-1172 -1173 0
-1174 -1175 0
-1174 -1176 0
-1175 -1176 0
-1177 -1178 0
-1177 -1179 0
-1178 -1179 0
-1180 -1181 0
-1180 -1182 0
-1181 -1182 0
-1183 -1184 0
-1183 -1185 0
-1184 -1185 0
-1186 -1187 0
-1186 -1188 0
-1187 -1188 0
-1189 -1190 0
-1189 -1191 0
-1190 -1191 0
-1192 -1193 0
-1192 -1194 0
-1193 -1194 0
-1195 -1196 0
-1195 -1197 0
-1196 -1197 0
-1198 -1199 0
-1198 -1200 0
-1199 -1200 0
-1 -205 0
-2 -206 0
-3 -207 0
-1 -361 0
-2 -362 0
-3 -363 0
-1 -685 0
-2 -686 0
-3 -687 0
-1 -916 0
-2 -917 0
-3 -918 0
-4 -109 0
-5 -110 0
-6 -111 0
-4 -610 0
-5 -611 0
-6 -612 0
-4 -646 0
-5 -647 0
-6 -648 0
-4 -862 0
-5 -863 0
-6 -864 0
-4 -949 0
-5 -950 0
-6 -951 0
-4 -985 0
-5 -986 0
-6 -987 0
-10 -130 0
-11 -131 0
-12 -132 0
-10 -163 0
-11 -164 0
-12 -165 0
-10 -679 0
-11 -680 0
-12 -681 0
-10 -808 0
-11 -809 0
-12 -810 0
-10 -1150 0
-11 -1151 0
-12 -1152 0
-13 -775 0
-14 -776 0
-15 -777 0
-16 -22 0
-17 -23 0
-18 -24 0
-16 -187 0
-17 -188 0
-18 -189 0
-16 -313 0
-17 -314 0
-18 -315 0
-16 -385 0
-17 -386 0
-18 -387 0
-16 -664 0
-17 -665 0
-18 -666 0
-16 -895 0
-17 -896 0
-18 -897 0
-16 -1162 0
-17 -1163 0
-18 -1164 0
-19 -67 0
-20 -68 0
-21 -69 0
-19 -304 0
-20 -305 0
-21 -306 0
-19 -550 0
-20 -551 0
-21 -552 0
-19 -661 0
-20 -662 0
-21 -663 0
-19 -826 0
-20 -827 0
-21 -828 0
-19 -1162 0
-20 -1163 0
-21 -1164 0
-22 -235 0
-23 -236 0
-24 -237 0
-22 -352 0
-23 -353 0
-24 -354 0
-22 -379 0
-23 -380 0
-24 -381 0
-22 -466 0
-23 -467 0
-24 -468 0
-22 -484 0
-23 -485 0
-24 -486 0
-22 -595 0
-23 -596 0
-24 -597 0
-22 -631 0
-23 -632 0
-24 -633 0
-22 -685 0
-23 -686 0
-24 -687 0
-22 -1108 0
-23 -1109 0
-24 -1110 0
-25 -205 0
-26 -206 0
-27 -207 0
-25 -418 0
-26 -419 0
-27 -420 0
-25 -439 0
-26 -440 0
-27 -441 0
-25 -475 0
-26 -476 0
-27 -477 0
-25 -640 0
-26 -641 0
-27 -642 0
-25 -649 0
-26 -650 0
-27 -651 0
-25 -676 0
-26 -677 0
-27 -678 0
-25 -775 0
-26 -776 0
-27 -777 0
-25 -796 0
-26 -797 0
-27 -798 0
-25 -1057 0
-26 -1058 0
-27 -1059 0
-28 -514 0
-29 -515 0
-30 -516 0
-28 -925 0
-29 -926 0
-30 -927 0
-31 -184 0
-32 -185 0
-33 -186 0
-31 -529 0
-32 -530 0
-33 -531 0
-31 -646 0
-32 -647 0
-33 -648 0
-31 -823 0
-32 -824 0
-33 -825 0
-31 -898 0
-32 -899 0
-33 -900 0
-31 -973 0
-32 -974 0
-33 -975 0
-34 -568 0
-35 -569 0
-36 -570 0
-34 -577 0
-35 -578 0
-36 -579 0
-37 -187 0
-38 -188 0
-39 -189 0
-37 -241 0
-38 -242 0
-39 -243 0
-37 -286 0
-38 -287 0
-39 -288 0
-37 -568 0
-38 -569 0
-39 -570 0
-37 -844 0
-38 -845 0
-39 -846 0
-37 -1192 0
-38 -1193 0
-39 -1194 0
-40 -940 0
-41 -941 0
-42 -942 0
-40 -1039 0
-41 -1040 0
-42 -1041 0
-40 -1069 0
-41 -1070 0
-42 -1071 0
-40 -1072 0
-41 -1073 0
-42 -1074 0
-40 -1096 0
-41 -1097 0
-42 -1098 0
-40 -1099 0
-41 -1100 0
-42 -1101 0
-43 -625 0
-44 -626 0
-45 -627 0
-43 -664 0
-44 -665 0
-45 -666 0
-43 -1000 0
-44 -1001 0
-45 -1002 0
-46 -343 0
-47 -344 0
-48 -345 0
-46 -406 0
-47 -407 0
-48 -408 0
-46 -430 0
-47 -431 0
-48 -432 0
-46 -493 0
-47 -494 0
-48 -495 0
-46 -661 0
-47 -662 0
-48 -663 0
-49 -346 0
-50 -347 0
-51 -348 0
-49 -352 0
-50 -353 0
-51 -354 0
-49 -637 0
-50 -638 0
-51 -639 0
-49 -793 0
-50 -794 0
-51 -795 0
-49 -949 0
-50 -950 0
-51 -951 0
-49 -1012 0
-50 -1013 0
-51 -1014 0
-49 -1093 0
-50 -1094 0
-51 -1095 0
-52 -679 0
-53 -680 0
-54 -681 0
-52 -955 0
-53 -956 0
-54 -957 0
-55 -259 0
-56 -260 0
-57 -261 0
-55 -385 0
-56 -386 0
-57 -387 0
-55 -1066 0
-56 -1067 0
-57 -1068 0
-58 -76 0
-59 -77 0
-60 -78 0
-58 -112 0
-59 -113 0
-60 -114 0
-58 -298 0
-59 -299 0
-60 -300 0
-58 -325 0
-59 -326 0
-60 -327 0
-58 -379 0
-59 -380 0
-60 -381 0
-58 -385 0
-59 -386 0
-60 -387 0
-58 -595 0
-59 -596 0
-60 -597 0
-58 -841 0
-59 -842 0
-60 -843 0
-58 -850 0
-59 -851 0
-60 -852 0
-58 -982 0
-59 -983 0
-60 -984 0
-61 -82 0
-62 -83 0
-63 -84 0
-61 -202 0
-62 -203 0
-63 -204 0
-61 -355 0
-62 -356 0
-63 -357 0
-61 -364 0
-62 -365 0
-63 -366 0
-61 -505 0
-62 -506 0
-63 -507 0
-61 -877 0
-62 -878 0
-63 -879 0
-61 -928 0
-62 -929 0
-63 -930 0
-61 -1000 0
-62 -1001 0
-63 -1002 0
-61 -1120 0
-62 -1121 0
-63 -1122 0
-64 -499 0
-65 -500 0
-66 -501 0
-67 -94 0
-68 -95 0
-69 -96 0
-67 -343 0
-68 -344 0
-69 -345 0
-67 -727 0
-68 -728 0
-69 -729 0
-67 -838 0
-68 -839 0
-69 -840 0
-67 -1069 0
-68 -1070 0
-69 -1071 0
-70 -202 0
-71 -203 0
-72 -204 0
-70 -235 0
-71 -236 0
-72 -237 0
-70 -388 0
-71 -389 0
-72 -390 0
-70 -697 0
-71 -698 0
-72 -699 0
-70 -769 0
-71 -770 0
-72 -771 0
-70 -1057 0
-71 -1058 0
-72 -1059 0
-73 -859 0
-74 -860 0
-75 -861 0
-76 -352 0
-77 -353 0
-78 -354 0
-76 -655 0
-77 -656 0
-78 -657 0
-79 -922 0
-80 -923 0
-81 -924 0
-82 -241 0
-83 -242 0
-84 -243 0
-82 -634 0
-83 -635 0
-84 -636 0
-82 -796 0
-83 -797 0
-84 -798 0
-82 -925 0
-83 -926 0
-84 -927 0
-82 -985 0
-83 -986 0
-84 -987 0
-85 -142 0
-86 -143 0
-87 -144 0
-85 -928 0
-86 -929 0
-87 -930 0
-85 -1195 0
-86 -1196 0
-87 -1197 0
-88 -97 0
-89 -98 0
-90 -99 0
-88 -109 0
-89 -110 0
-90 -111 0
-88 -385 0
-89 -386 0
-90 -387 0
-88 -754 0
-89 -755 0
-90 -756 0
-88 -868 0
-89 -869 0
-90 -870 0
-91 -214 0
-92 -215 0
-93 -216 0
-91 -523 0
-92 -524 0
-93 -525 0
-91 -631 0
-92 -632 0
-93 -633 0
-91 -961 0
-92 -962 0
-93 -963 0
-94 -214 0
-95 -215 0
-96 -216 0
-94 -511 0
-95 -512 0
-96 -513 0
-94 -544 0
-95 -545 0
-96 -546 0
-94 -673 0
-95 -674 0
-96 -675 0
-97 -595 0
-98 -596 0
-99 -597 0
-97 -721 0
-98 -722 0
-99 -723 0
-97 -772 0
-98 -773 0
-99 -774 0
-97 -832 0
-98 -833 0
-99 -834 0
-97 -853 0
-98 -854 0
-99 -855 0
-97 -922 0
-98 -923 0
-99 -924 0
-97 -1156 0
-98 -1157 0
-99 -1158 0
-97 -1183 0
-98 -1184 0
-99 -1185 0
-100 -307 0
-101 -308 0
-102 -309 0
-100 -931 0
-101 -932 0
-102 -933 0
-100 -1081 0
-101 -1082 0
-102 -1083 0
-103 -139 0
-104 -140 0
-105 -141 0
-103 -229 0
-104 -230 0
-105 -231 0
-103 -259 0
-104 -260 0
-105 -261 0
-103 -280 0
-104 -281 0
-105 -282 0
-103 -766 0
-104 -767 0
-105 -768 0
-103 -1006 0
-104 -1007 0
-105 -1008 0
-106 -145 0
-107 -146 0
-108 -147 0
-106 -496 0
-107 -497 0
-108 -498 0
-106 -1036 0
-107 -1037 0
-108 -1038 0
-106 -1159 0
-107 -1160 0
-108 -1161 0
-109 -511 0
-110 -512 0
-111 -513 0
-109 -931 0
-110 -932 0
-111 -933 0
-109 -1099 0
-110 -1100 0
-111 -1101 0
-112 -199 0
-113 -200 0
-114 -201 0
-112 -529 0
-113 -530 0
-114 -531 0
-112 -856 0
-113 -857 0
-114 -858 0
-112 -955 0
-113 -956 0
-114 -957 0
-112 -991 0
-113 -992 0
-114 -993 0
-112 -1075 0
-113 -1076 0
-114 -1077 0
-115 -226 0
-116 -227 0
-117 -228 0
-115 -280 0
-116 -281 0
-117 -282 0
-115 -523 0
-116 -524 0
-117 -525 0
-115 -772 0
-116 -773 0
-117 -774 0
-115 -814 0
-116 -815 0
-117 -816 0
-115 -886 0
-116 -887 0
-117 -888 0
-115 -1111 0
-116 -1112 0
-117 -1113 0
-118 -148 0
-119 -149 0
-120 -150 0
-118 -205 0
-119 -206 0
-120 -207 0
-118 -241 0
-119 -242 0
-120 -243 0
-118 -481 0
-119 -482 0
-120 -483 0
-121 -307 0
-122 -308 0
-123 -309 0
-121 -592 0
-122 -593 0
-123 -594 0
-121 -664 0
-122 -665 0
-123 -666 0
-121 -1099 0
-122 -1100 0
-123 -1101 0
-124 -613 0
-125 -614 0
-126 -615 0
-124 -946 0
-125 -947 0
-126 -948 0
-124 -1171 0
-125 -1172 0
-126 -1173 0
-127 -226 0
-128 -227 0
-129 -228 0
-127 -664 0
-128 -665 0
-129 -666 0
-127 -679 0
-128 -680 0
-129 -681 0
-127 -691 0
-128 -692 0
-129 -693 0
-127 -844 0
-128 -845 0
-129 -846 0
-127 -1102 0
-128 -1103 0
-129 -1104 0
-127 -1180 0
-128 -1181 0
-129 -1182 0
-130 -259 0
-131 -260 0
-132 -261 0
-130 -328 0
-131 -329 0
-132 -330 0
-130 -706 0
-131 -707 0
-132 -708 0
-130 -1018 0
-131 -1019 0
-132 -1020 0
-130 -1042 0
-131 -1043 0
-132 -1044 0
-133 -136 0
-134 -137 0
-135 -138 0
-133 -202 0
-134 -203 0
-135 -204 0
-133 -493 0
-134 -494 0
-135 -495 0
-133 -514 0
-134 -515 0
-135 -516 0
-133 -907 0
-134 -908 0
-135 -909 0
-136 -373 0
-137 -374 0
-138 -375 0
-136 -802 0
-137 -803 0
-138 -804 0
-136 -913 0
-137 -914 0
-138 -915 0
-136 -1051 0
-137 -1052 0
-138 -1053 0
-136 -1123 0
-137 -1124 0
-138 -1125 0
-136 -1171 0
-137 -1172 0
-138 -1173 0
-136 -1180 0
-137 -1181 0
-138 -1182 0
-139 -787 0
-140 -788 0
-141 -789 0
-139 -970 0
-140 -971 0
-141 -972 0
-142 -397 0
-143 -398 0
-144 -399 0
-142 -424 0
-143 -425 0
-144 -426 0
-142 -475 0
-143 -476 0
-144 -477 0
-142 -715 0
-143 -716 0
-144 -717 0
-142 -760 0
-143 -761 0
-144 -762 0
-142 -940 0
-143 -941 0
-144 -942 0
-142 -949 0
-143 -950 0
-144 -951 0
-145 -628 0
-146 -629 0
-147 -630 0
-145 -652 0
-146 -653 0
-147 -654 0
-145 -739 0
-146 -740 0
-147 -741 0
-145 -799 0
-146 -800 0
-147 -801 0
-145 -1021 0
-146 -1022 0
-147 -1023 0
-148 -727 0
-149 -728 0
-150 -729 0
-148 -958 0
-149 -959 0
-150 -960 0
-148 -1165 0
-149 -1166 0
-150 -1167 0
-151 -643 0
-152 -644 0
-153 -645 0
-151 -814 0
-152 -815 0
-153 -816 0
-151 -910 0
-152 -911 0
-153 -912 0
-151 -1060 0
-152 -1061 0
-153 -1062 0
-151 -1186 0
-152 -1187 0
-153 -1188 0
-154 -190 0
-155 -191 0
-156 -192 0
-154 -319 0
-155 -320 0
-156 -321 0
-154 -544 0
-155 -545 0
-156 -546 0
-154 -775 0
-155 -776 0
-156 -777 0
-154 -949 0
-155 -950 0
-156 -951 0
-154 -1093 0
-155 -1094 0
-156 -1095 0
-157 -424 0
-158 -425 0
-159 -426 0
-157 -448 0
-158 -449 0
-159 -450 0
-157 -946 0
-158 -947 0
-159 -948 0
-160 -175 0
-161 -176 0
-162 -177 0
-160 -199 0
-161 -200 0
-162 -201 0
-160 -235 0
-161 -236 0
-162 -237 0
-160 -583 0
-161 -584 0
-162 -585 0
-160 -637 0
-161 -638 0
-162 -639 0
-160 -649 0
-161 -650 0
-162 -651 0
-160 -838 0
-161 -839 0
-162 -840 0
-163 -358 0
-164 -359 0
-165 -360 0
-163 -646 0
-164 -647 0
-165 -648 0
-163 -868 0
-164 -869 0
-165 -870 0
-163 -919 0
-164 -920 0
-165 -921 0
-163 -1150 0
-164 -1151 0
-165 -1152 0
-166 -358 0
-167 -359 0
-168 -360 0
-166 -373 0
-167 -374 0
-168 -375 0
-166 -463 0
-167 -464 0
-168 -465 0
-166 -670 0
-167 -671 0
-168 -672 0
-166 -829 0
-167 -830 0
-168 -831 0
-169 -355 0
-170 -356 0
-171 -357 0
-169 -448 0
-170 -449 0
-171 -450 0
-172 -247 0
-173 -248 0
-174 -249 0
-172 -379 0
-173 -380 0
-174 -381 0
-172 -418 0
-173 -419 0
-174 -420 0
-172 -496 0
-173 -497 0
-174 -498 0
-172 -697 0
-173 -698 0
-174 -699 0
-172 -790 0
-173 -791 0
-174 -792 0
-172 -811 0
-173 -812 0
-174 -813 0
-172 -877 0
-173 -878 0
-174 -879 0
-172 -886 0
-173 -887 0
-174 -888 0
-175 -334 0
-176 -335 0
-177 -336 0
-175 -394 0
-176 -395 0
-177 -396 0
-175 -532 0
-176 -533 0
-177 -534 0
-175 -955 0
-176 -956 0
-177 -957 0
-175 -1114 0
-176 -1115 0
-177 -1116 0
-178 -631 0
-179 -632 0
-180 -633 0
-178 -649 0
-179 -650 0
-180 -651 0
-178 -775 0
-179 -776 0
-180 -777 0
-178 -1033 0
-179 -1034 0
-180 -1035 0
-178 -1042 0
-179 -1043 0
-180 -1044 0
-178 -1066 0
-179 -1067 0
-180 -1068 0
-181 -373 0
-182 -374 0
-183 -375 0
-181 -718 0
-182 -719 0
-183 -720 0
-184 -496 0
-185 -497 0
-186 -498 0
-184 -922 0
-185 -923 0
-186 -924 0
-184 -988 0
-185 -989 0
-186 -990 0
-187 -892 0
-188 -893 0
-189 -894 0
-190 -217 0
-191 -218 0
-192 -219 0
-190 -346 0
-191 -347 0
-192 -348 0
-190 -532 0
-191 -533 0
-192 -534 0
-190 -1015 0
-191 -1016 0
-192 -1017 0
-190 -1111 0
-191 -1112 0
-192 -1113 0
-193 -409 0
-194 -410 0
-195 -411 0
-193 -967 0
-194 -968 0
-195 -969 0
-193 -1048 0
-194 -1049 0
-195 -1050 0
-196 -277 0
-197 -278 0
-198 -279 0
-196 -682 0
-197 -683 0
-198 -684 0
-196 -868 0
-197 -869 0
-198 -870 0
-196 -1087 0
-197 -1088 0
-198 -1089 0
-196 -1093 0
-197 -1094 0
-198 -1095 0
-199 -304 0
-200 -305 0
-201 -306 0
-199 -334 0
-200 -335 0
-201 -336 0
-199 -712 0
-200 -713 0
-201 -714 0
-199 -907 0
-200 -908 0
-201 -909 0
-202 -328 0
-203 -329 0
-204 -330 0
-202 -448 0
-203 -449 0
-204 -450 0
-202 -874 0
-203 -875 0
-204 -876 0
-202 -1198 0
-203 -1199 0
-204 -1200 0
-205 -253 0
-206 -254 0
-207 -255 0
-205 -676 0
-206 -677 0
-207 -678 0
-205 -913 0
-206 -914 0
-207 -915 0
-208 -670 0
-209 -671 0
-210 -672 0
-208 -904 0
-209 -905 0
-210 -906 0
-208 -961 0
-209 -962 0
-210 -963 0
-211 -217 0
-212 -218 0
-213 -219 0
-211 -712 0
-212 -713 0
-213 -714 0
-214 -583 0
-215 -584 0
-216 -585 0
-214 -739 0
-215 -740 0
-216 -741 0
-214 -865 0
-215 -866 0
-216 -867 0
-214 -973 0
-215 -974 0
-216 -975 0
-217 -250 0
-218 -251 0
-219 -252 0
-217 -292 0
-218 -293 0
-219 -294 0
-217 -910 0
-218 -911 0
-219 -912 0
-220 -385 0
-221 -386 0
-222 -387 0
-220 -550 0
-221 -551 0
-222 -552 0
-220 -619 0
-221 -620 0
-222 -621 0
-223 -571 0
-224 -572 0
-225 -573 0
-223 -733 0
-224 -734 0
-225 -735 0
-223 -979 0
-224 -980 0
-225 -981 0
-223 -1120 0
-224 -1121 0
-225 -1122 0
-226 -442 0
-227 -443 0
-228 -444 0
-226 -607 0
-227 -608 0
-228 -609 0
-226 -1054 0
-227 -1055 0
-228 -1056 0
-226 -1132 0
-227 -1133 0
-228 -1134 0
-226 -1147 0
-227 -1148 0
-228 -1149 0
-229 -487 0
-230 -488 0
-231 -489 0
-229 -835 0
-230 -836 0
-231 -837 0
-229 -895 0
-230 -896 0
-231 -897 0
-229 -919 0
-230 -920 0
-231 -921 0
-229 -1021 0
-230 -1022 0
-231 -1023 0
-229 -1051 0
-230 -1052 0
-231 -1053 0
-232 -496 0
-233 -497 0
-234 -498 0
-232 -583 0
-233 -584 0
-234 -585 0
-232 -730 0
-233 -731 0
-234 -732 0
-232 -1009 0
-233 -1010 0
-234 -1011 0
-235 -553 0
-236 -554 0
-237 -555 0
-235 -1144 0
-236 -1145 0
-237 -1146 0
-238 -775 0
-239 -776 0
-240 -777 0
-238 -1033 0
-239 -1034 0
-240 -1035 0
-241 -253 0
-242 -254 0
-243 -255 0
-241 -358 0
-242 -359 0
-243 -360 0
-241 -682 0
-242 -683 0
-243 -684 0
-241 -685 0
-242 -686 0
-243 -687 0
-241 -931 0
-242 -932 0
-243 -933 0
-244 -295 0
-245 -296 0
-246 -297 0
-244 -328 0
-245 -329 0
-246 -330 0
-244 -514 0
-245 -515 0
-246 -516 0
-244 -664 0
-245 -665 0
-246 -666 0
-244 -934 0
-245 -935 0
-246 -936 0
-244 -940 0
-245 -941 0
-246 -942 0
-244 -1174 0
-245 -1175 0
-246 -1176 0
-247 -1033 0
-248 -1034 0
-249 -1035 0
-247 -1102 0
-248 -1103 0
-249 -1104 0
-247 -1153 0
-248 -1154 0
-249 -1155 0
-250 -505 0
-251 -506 0
-252 -507 0
-250 -685 0
-251 -686 0
-252 -687 0
-250 -823 0
-251 -824 0
-252 -825 0
-253 -526 0
-254 -527 0
-255 -528 0
-253 -541 0
-254 -542 0
-255 -543 0
-253 -589 0
-254 -590 0
-255 -591 0
-253 -691 0
-254 -692 0
-255 -693 0
-253 -727 0
-254 -728 0
-255 -729 0
-253 -778 0
-254 -779 0
-255 -780 0
-253 -946 0
-254 -947 0
-255 -948 0
-253 -1045 0
-254 -1046 0
-255 -1047 0
-253 -1129 0
-254 -1130 0
-255 -1131 0
-256 -292 0
-257 -293 0
-258 -294 0
-256 -376 0
-257 -377 0
-258 -378 0
-256 -895 0
-257 -896 0
-258 -897 0
-259 -280 0
-260 -281 0
-261 -282 0
-259 -316 0
-260 -317 0
-261 -318 0
-259 -583 0
-260 -584 0
-261 -585 0
-259 -739 0
-260 -740 0
-261 -741 0
-259 -1093 0
-260 -1094 0
-261 -1095 0
-262 -361 0
-263 -362 0
-264 -363 0
-262 -379 0
-263 -380 0
-264 -381 0
-262 -433 0
-263 -434 0
-264 -435 0
-262 -673 0
-263 -674 0
-264 -675 0
-262 -1120 0
-263 -1121 0
-264 -1122 0
-265 -364 0
-266 -365 0
-267 -366 0
-265 -376 0
-266 -377 0
-267 -378 0
-265 -418 0
-266 -419 0
-267 -420 0
-265 -571 0
-266 -572 0
-267 -573 0
-265 -739 0
-266 -740 0
-267 -741 0
-265 -1030 0
-266 -1031 0
-267 -1032 0
-265 -1156 0
-266 -1157 0
-267 -1158 0
-265 -1159 0
-266 -1160 0
-267 -1161 0
-268 -313 0
-269 -314 0
-270 -315 0
-268 -613 0
-269 -614 0
-270 -615 0
-268 -664 0
-269 -665 0
-270 -666 0
-268 -760 0
-269 -761 0
-270 -762 0
-268 -928 0
-269 -929 0
-270 -930 0
-268 -1051 0
-269 -1052 0
-270 -1053 0
-271 -277 0
-272 -278 0
-273 -279 0
-271 -346 0
-272 -347 0
-273 -348 0
-271 -688 0
-272 -689 0
-273 -690 0
-271 -871 0
-272 -872 0
-273 -873 0
-271 -1138 0
-272 -1139 0
-273 -1140 0
-274 -373 0
-275 -374 0
-276 -375 0
-274 -448 0
-275 -449 0
-276 -450 0
-274 -625 0
-275 -626 0
-276 -627 0
-274 -1069 0
-275 -1070 0
-276 -1071 0
-277 -328 0
-278 -329 0
-279 -330 0
-277 -331 0
-278 -332 0
-279 -333 0
-277 -409 0
-278 -410 0
-279 -411 0
-277 -781 0
-278 -782 0
-279 -783 0
-277 -913 0
-278 -914 0
-279 -915 0
-280 -532 0
-281 -533 0
-282 -534 0
-280 -664 0
-281 -665 0
-282 -666 0
-280 -769 0
-281 -770 0
-282 -771 0
-280 -811 0
-281 -812 0
-282 -813 0
-280 -946 0
-281 -947 0
-282 -948 0
-283 -748 0
-284 -749 0
-285 -750 0
-283 -1111 0
-284 -1112 0
-285 -1113 0
-286 -322 0
-287 -323 0
-288 -324 0
-286 -583 0
-287 -584 0
-288 -585 0
-289 -352 0
-290 -353 0
-291 -354 0
-289 -970 0
-290 -971 0
-291 -972 0
-289 -1072 0
-290 -1073 0
-291 -1074 0
-289 -1180 0
-290 -1181 0
-291 -1182 0
-292 -586 0
-293 -587 0
-294 -588 0
-292 -1129 0
-293 -1130 0
-294 -1131 0
-295 -613 0
-296 -614 0
-297 -615 0
-295 -895 0
-296 -896 0
-297 -897 0
-298 -316 0
-299 -317 0
-300 -318 0
-298 -421 0
-299 -422 0
-300 -423 0
-298 -847 0
-299 -848 0
-300 -849 0
-298 -898 0
-299 -899 0
-300 -900 0
-298 -919 0
-299 -920 0
-300 -921 0
-298 -1150 0
-299 -1151 0
-300 -1152 0
-301 -355 0
-302 -356 0
-303 -357 0
-301 -439 0
-302 -440 0
-303 -441 0
-301 -496 0
-302 -497 0
-303 -498 0
-301 -640 0
-302 -641 0
-303 -642 0
-301 -688 0
-302 -689 0
-303 -690 0
-301 -841 0
-302 -842 0
-303 -843 0
-301 -931 0
-302 -932 0
-303 -933 0
-304 -895 0
-305 -896 0
-306 -897 0
-304 -1096 0
-305 -1097 0
-306 -1098 0
-307 -634 0
-308 -635 0
-309 -636 0
-307 -871 0
-308 -872 0
-309 -873 0
-310 -376 0
-311 -377 0
-312 -378 0
-310 -541 0
-311 -542 0
-312 -543 0
-310 -796 0
-311 -797 0
-312 -798 0
-310 -856 0
-311 -857 0
-312 -858 0
-310 -997 0
-311 -998 0
-312 -999 0
-310 -1051 0
-311 -1052 0
-312 -1053 0
-310 -1156 0
-311 -1157 0
-312 -1158 0
-310 -1189 0
-311 -1190 0
-312 -1191 0
-313 -1168 0
-314 -1169 0
-315 -1170 0
-316 -451 0
-317 -452 0
-318 -453 0
-316 -610 0
-317 -611 0
-318 -612 0
-316 -955 0
-317 -956 0
-318 -957 0
-319 -643 0
-320 -644 0
-321 -645 0
-319 -1024 0
-320 -1025 0
-321 -1026 0
-322 -382 0
-323 -383 0
-324 -384 0
-322 -619 0
-323 -620 0
-324 -621 0
-322 -1099 0
-323 -1100 0
-324 -1101 0
-325 -577 0
-326 -578 0
-327 -579 0
-325 -580 0
-326 -581 0
-327 -582 0
-325 -844 0
-326 -845 0
-327 -846 0
-328 -421 0
-329 -422 0
-330 -423 0
-328 -514 0
-329 -515 0
-330 -516 0
-328 -517 0
-329 -518 0
-330 -519 0
-328 -916 0
-329 -917 0
-330 -918 0
-328 -1027 0
-329 -1028 0
-330 -1029 0
-328 -1144 0
-329 -1145 0
-330 -1146 0
-328 -1180 0
-329 -1181 0
-330 -1182 0
-331 -343 0
-332 -344 0
-333 -345 0
-331 -574 0
-332 -575 0
-333 -576 0
-331 -655 0
-332 -656 0
-333 -657 0
-331 -1009 0
-332 -1010 0
-333 -1011 0
-334 -838 0
-335 -839 0
-336 -840 0
-334 -1072 0
-335 -1073 0
-336 -1074 0
-334 -1183 0
-335 -1184 0
-336 -1185 0
-337 -766 0
-338 -767 0
-339 -768 0
-337 -772 0
-338 -773 0
-339 -774 0
-337 -1000 0
-338 -1001 0
-339 -1002 0
-337 -1156 0
-338 -1157 0
-339 -1158 0
-340 -676 0
-341 -677 0
-342 -678 0
-340 -907 0
-341 -908 0
-342 -909 0
-343 -565 0
-344 -566 0
-345 -567 0
-343 -604 0
-344 -605 0
-345 -606 0
-343 -622 0
-344 -623 0
-345 -624 0
-343 -916 0
-344 -917 0
-345 -918 0
-346 -865 0
-347 -866 0
-348 -867 0
-346 -898 0
-347 -899 0
-348 -900 0
-349 -511 0
-350 -512 0
-351 -513 0
-349 -835 0
-350 -836 0
-351 -837 0
-352 -859 0
-353 -860 0
-354 -861 0
-352 -1087 0
-353 -1088 0
-354 -1089 0
-355 -370 0
-356 -371 0
-357 -372 0
-355 -607 0
-356 -608 0
-357 -609 0
-358 -553 0
-359 -554 0
-360 -555 0
-358 -601 0
-359 -602 0
-360 -603 0
-358 -931 0
-359 -932 0
-360 -933 0
-358 -994 0
-359 -995 0
-360 -996 0
-361 -403 0
-362 -404 0
-363 -405 0
-361 -619 0
-362 -620 0
-363 -621 0
-361 -772 0
-362 -773 0
-363 -774 0
-361 -805 0
-362 -806 0
-363 -807 0
-361 -1021 0
-362 -1022 0
-363 -1023 0
-364 -730 0
-365 -731 0
-366 -732 0
-364 -946 0
-365 -947 0
-366 -948 0
-364 -988 0
-365 -989 0
-366 -990 0
-367 -466 0
-368 -467 0
-369 -468 0
-367 -508 0
-368 -509 0
-369 -510 0
-367 -574 0
-368 -575 0
-369 -576 0
-367 -685 0
-368 -686 0
-369 -687 0
-367 -1039 0
-368 -1040 0
-369 -1041 0
-367 -1168 0
-368 -1169 0
-369 -1170 0
-370 -553 0
-371 -554 0
-372 -555 0
-370 -1087 0
-371 -1088 0
-372 -1089 0
-373 -463 0
-374 -464 0
-375 -465 0
-373 -631 0
-374 -632 0
-375 -633 0
-373 -904 0
-374 -905 0
-375 -906 0
-373 -979 0
-374 -980 0
-375 -981 0
-373 -1021 0
-374 -1022 0
-375 -1023 0
-376 -400 0
-377 -401 0
-378 -402 0
-376 -598 0
-377 -599 0
-378 -600 0
-376 -802 0
-377 -803 0
-378 -804 0
-376 -895 0
-377 -896 0
-378 -897 0
-376 -1132 0
-377 -1133 0
-378 -1134 0
-379 -448 0
-380 -449 0
-381 -450 0
-379 -538 0
-380 -539 0
-381 -540 0
-379 -1009 0
-380 -1010 0
-381 -1011 0
-379 -1078 0
-380 -1079 0
-381 -1080 0
-382 -463 0
-383 -464 0
-384 -465 0
-382 -805 0
-383 -806 0
-384 -807 0
-382 -1039 0
-383 -1040 0
-384 -1041 0
-385 -430 0
-386 -431 0
-387 -432 0
-388 -1009 0
-389 -1010 0
-390 -1011 0
-391 -802 0
-392 -803 0
-393 -804 0
-391 -889 0
-392 -890 0
-393 -891 0
-391 -1156 0
-392 -1157 0
-393 -1158 0
-391 -1168 0
-392 -1169 0
-393 -1170 0
-394 -517 0
-395 -518 0
-396 -519 0
-394 -871 0
-395 -872 0
-396 -873 0
-394 -1030 0
-395 -1031 0
-396 -1032 0
-397 -736 0
-398 -737 0
-399 -738 0
-397 -1045 0
-398 -1046 0
-399 -1047 0
-400 -628 0
-401 -629 0
-402 -630 0
-400 -892 0
-401 -893 0
-402 -894 0
-400 -1003 0
-401 -1004 0
-402 -1005 0
-400 -1093 0
-401 -1094 0
-402 -1095 0
-403 -544 0
-404 -545 0
-405 -546 0
-403 -1021 0
-404 -1022 0
-405 -1023 0
-403 -1135 0
-404 -1136 0
-405 -1137 0
-406 -1099 0
-407 -1100 0
-408 -1101 0
-406 -1159 0
-407 -1160 0
-408 -1161 0
-409 -1006 0
-410 -1007 0
-411 -1008 0
-409 -1087 0
-410 -1088 0
-411 -1089 0
-412 -469 0
-413 -470 0
-414 -471 0
-412 -541 0
-413 -542 0
-414 -543 0
-412 -997 0
-413 -998 0
-414 -999 0
-415 -517 0
-416 -518 0
-417 -519 0
-415 -718 0
-416 -719 0
-417 -720 0
-415 -733 0
-416 -734 0
-417 -735 0
-418 -427 0
-419 -428 0
-420 -429 0
-418 -655 0
-419 -656 0
-420 -657 0
-418 -697 0
-419 -698 0
-420 -699 0
-418 -748 0
-419 -749 0
-420 -750 0
-418 -952 0
-419 -953 0
-420 -954 0
-418 -1114 0
-419 -1115 0
-420 -1116 0
-421 -466 0
-422 -467 0
-423 -468 0
-424 -766 0
-425 -767 0
-426 -768 0
-424 -979 0
-425 -980 0
-426 -981 0
-424 -1018 0
-425 -1019 0
-426 -1020 0
-424 -1054 0
-425 -1055 0
-426 -1056 0
-427 -679 0
-428 -680 0
-429 -681 0
-427 -742 0
-428 -743 0
-429 -744 0
-427 -868 0
-428 -869 0
-429 -870 0
-427 -1000 0
-428 -1001 0
-429 -1002 0
-427 -1036 0
-428 -1037 0
-429 -1038 0
-427 -1048 0
-428 -1049 0
-429 -1050 0
-430 -439 0
-431 -440 0
-432 -441 0
-430 -445 0
-431 -446 0
-432 -447 0
-430 -517 0
-431 -518 0
-432 -519 0
-430 -1162 0
-431 -1163 0
-432 -1164 0
-433 -589 0
-434 -590 0
-435 -591 0
-433 -604 0
-434 -605 0
-435 -606 0
-433 -775 0
-434 -776 0
-435 -777 0
-436 -541 0
-437 -542 0
-438 -543 0
-436 -829 0
-437 -830 0
-438 -831 0
-436 -1039 0
-437 -1040 0
-438 -1041 0
-436 -1156 0
-437 -1157 0
-438 -1158 0
-439 -805 0
-440 -806 0
-441 -807 0
-439 -832 0
-440 -833 0
-441 -834 0
-439 -1165 0
-440 -1166 0
-441 -1167 0
-442 -571 0
-443 -572 0
-444 -573 0
-442 -634 0
-443 -635 0
-444 -636 0
-442 -760 0
-443 -761 0
-444 -762 0
-445 -724 0
-446 -725 0
-447 -726 0
-445 -925 0
-446 -926 0
-447 -927 0
-448 -496 0
-449 -497 0
-450 -498 0
-448 -592 0
-449 -593 0
-450 -594 0
-448 -895 0
-449 -896 0
-450 -897 0
-451 -736 0
-452 -737 0
-453 -738 0
-451 -1009 0
-452 -1010 0
-453 -1011 0
-454 -1159 0
-455 -1160 0
-456 -1161 0
-457 -556 0
-458 -557 0
-459 -558 0
-457 -634 0
-458 -635 0
-459 -636 0
-457 -679 0
-458 -680 0
-459 -681 0
-457 -976 0
-458 -977 0
-459 -978 0
-457 -1153 0
-458 -1154 0
-459 -1155 0
-460 -562 0
-461 -563 0
-462 -564 0
-460 -685 0
-461 -686 0
-462 -687 0
-460 -895 0
-461 -896 0
-462 -897 0
-460 -1198 0
-461 -1199 0
-462 -1200 0
-463 -691 0
-464 -692 0
-465 -693 0
-463 -928 0
-464 -929 0
-465 -930 0
-466 -529 0
-467 -530 0
-468 -531 0
-466 -682 0
-467 -683 0
-468 -684 0
-466 -796 0
-467 -797 0
-468 -798 0
-466 -850 0
-467 -851 0
-468 -852 0
-469 -799 0
-470 -800 0
-471 -801 0
-469 -877 0
-470 -878 0
-471 -879 0
-469 -1120 0
-470 -1121 0
-471 -1122 0
-469 -1192 0
-470 -1193 0
-471 -1194 0
-472 -829 0
-473 -830 0
-474 -831 0
-472 -1057 0
-473 -1058 0
-474 -1059 0
-475 -1174 0
-476 -1175 0
-477 -1176 0
-478 -1189 0
-479 -1190 0
-480 -1191 0
-481 -601 0
-482 -602 0
-483 -603 0
-481 -676 0
-482 -677 0
-483 -678 0
-481 -682 0
-482 -683 0
-483 -684 0
-481 -1069 0
-482 -1070 0
-483 -1071 0
-481 -1099 0
-482 -1100 0
-483 -1101 0
-484 -589 0
-485 -590 0
-486 -591 0
-484 -868 0
-485 -869 0
-486 -870 0
-484 -898 0
-485 -899 0
-486 -900 0
-490 -544 0
-491 -545 0
-492 -546 0
-490 -628 0
-491 -629 0
-492 -630 0
-490 -685 0
-491 -686 0
-492 -687 0
-493 -553 0
-494 -554 0
-495 -555 0
-496 -577 0
-497 -578 0
-498 -579 0
-496 -748 0
-497 -749 0
-498 -750 0
-499 -736 0
-500 -737 0
-501 -738 0
-499 -817 0
-500 -818 0
-501 -819 0
-499 -898 0
-500 -899 0
-501 -900 0
-502 -562 0
-503 -563 0
-504 -564 0
-502 -661 0
-503 -662 0
-504 -663 0
-505 -1054 0
-506 -1055 0
-507 -1056 0
-511 -958 0
-512 -959 0
-513 -960 0
-511 -1132 0
-512 -1133 0
-513 -1134 0
-514 -628 0
-515 -629 0
-516 -630 0
-514 -676 0
-515 -677 0
-516 -678 0
-514 -754 0
-515 -755 0
-516 -756 0
-514 -877 0
-515 -878 0
-516 -879 0
-514 -1099 0
-515 -1100 0
-516 -1101 0
-517 -919 0
-518 -920 0
-519 -921 0
-517 -1039 0
-518 -1040 0
-519 -1041 0
-520 -562 0
-521 -563 0
-522 -564 0
-520 -877 0
-521 -878 0
-522 -879 0
-520 -907 0
-521 -908 0
-522 -909 0
-520 -1039 0
-521 -1040 0
-522 -1041 0
-523 -676 0
-524 -677 0
-525 -678 0
-523 -703 0
-524 -704 0
-525 -705 0
-526 -556 0
-527 -557 0
-528 -558 0
-526 -622 0
-527 -623 0
-528 -624 0
-526 -1168 0
-527 -1169 0
-528 -1170 0
-529 -601 0
-530 -602 0
-531 -603 0
-529 -619 0
-530 -620 0
-531 -621 0
-529 -1177 0
-530 -1178 0
-531 -1179 0
-532 -946 0
-533 -947 0
-534 -948 0
-532 -955 0
-533 -956 0
-534 -957 0
-532 -1072 0
-533 -1073 0
-534 -1074 0
-535 -637 0
-536 -638 0
-537 -639 0
-535 -640 0
-536 -641 0
-537 -642 0
-535 -772 0
-536 -773 0
-537 -774 0
-535 -1036 0
-536 -1037 0
-537 -1038 0
-535 -1147 0
-536 -1148 0
-537 -1149 0
-538 -712 0
-539 -713 0
-540 -714 0
-541 -805 0
-542 -806 0
-543 -807 0
-541 -1123 0
-542 -1124 0
-543 -1125 0
-544 -769 0
-545 -770 0
-546 -771 0
-544 -1132 0
-545 -1133 0
-546 -1134 0
-547 -691 0
-548 -692 0
-549 -693 0
-547 -904 0
-548 -905 0
-549 -906 0
-547 -907 0
-548 -908 0
-549 -909 0
-550 -892 0
-551 -893 0
-552 -894 0
-550 -1189 0
-551 -1190 0
-552 -1191 0
-553 -889 0
-554 -890 0
-555 -891 0
-553 -967 0
-554 -968 0
-555 -969 0
-556 -1015 0
-557 -1016 0
-558 -1017 0
-559 -727 0
-560 -728 0
-561 -729 0
-559 -970 0
-560 -971 0
-561 -972 0
-559 -1006 0
-560 -1007 0
-561 -1008 0
-562 -775 0
-563 -776 0
-564 -777 0
-562 -1030 0
-563 -1031 0
-564 -1032 0
-562 -1060 0
-563 -1061 0
-564 -1062 0
-562 -1072 0
-563 -1073 0
-564 -1074 0
-565 -1132 0
-566 -1133 0
-567 -1134 0
-565 -1195 0
-566 -1196 0
-567 -1197 0
-568 -583 0
-569 -584 0
-570 -585 0
-568 -643 0
-569 -644 0
-570 -645 0
-568 -709 0
-569 -710 0
-570 -711 0
-568 -904 0
-569 -905 0
-570 -906 0
-568 -1012 0
-569 -1013 0
-570 -1014 0
-571 -601 0
-572 -602 0
-573 -603 0
-571 -721 0
-572 -722 0
-573 -723 0
-574 -703 0
-575 -704 0
-576 -705 0
-574 -796 0
-575 -797 0
-576 -798 0
-574 -829 0
-575 -830 0
-576 -831 0
-574 -898 0
-575 -899 0
-576 -900 0
-577 -745 0
-578 -746 0
-579 -747 0
-577 -871 0
-578 -872 0
-579 -873 0
-577 -898 0
-578 -899 0
-579 -900 0
-577 -1051 0
-578 -1052 0
-579 -1053 0
-580 -829 0
-581 -830 0
-582 -831 0
-580 -841 0
-581 -842 0
-582 -843 0
-580 -844 0
-581 -845 0
-582 -846 0
-580 -988 0
-581 -989 0
-582 -990 0
-583 -829 0
-584 -830 0
-585 -831 0
-583 -859 0
-584 -860 0
-585 -861 0
-583 -976 0
-584 -977 0
-585 -978 0
-583 -1066 0
-584 -1067 0
-585 -1068 0
-583 -1189 0
-584 -1190 0
-585 -1191 0
-586 -646 0
-587 -647 0
-588 -648 0
-586 -703 0
-587 -704 0
-588 -705 0
-586 -931 0
-587 -932 0
-588 -933 0
-586 -1096 0
-587 -1097 0
-588 -1098 0
-586 -1186 0
-587 -1187 0
-588 -1188 0
-589 -865 0
-590 -866 0
-591 -867 0
-589 -1015 0
-590 -1016 0
-591 -1017 0
-592 -886 0
-593 -887 0
-594 -888 0
-592 -934 0
-593 -935 0
-594 -936 0
-592 -1033 0
-593 -1034 0
-594 -1035 0
-595 -1135 0
-596 -1136 0
-597 -1137 0
-598 -793 0
-599 -794 0
-600 -795 0
-598 -832 0
-599 -833 0
-600 -834 0
-598 -868 0
-599 -869 0
-600 -870 0
-601 -631 0
-602 -632 0
-603 -633 0
-601 -742 0
-602 -743 0
-603 -744 0
-601 -940 0
-602 -941 0
-603 -942 0
-601 -958 0
-602 -959 0
-603 -960 0
-601 -1192 0
-602 -1193 0
-603 -1194 0
-604 -652 0
-605 -653 0
-606 -654 0
-604 -1171 0
-605 -1172 0
-606 -1173 0
-604 -1195 0
-605 -1196 0
-606 -1197 0
-607 -730 0
-608 -731 0
-609 -732 0
-607 -805 0
-608 -806 0
-609 -807 0
-607 -844 0
-608 -845 0
-609 -846 0
-610 -1075 0
-611 -1076 0
-612 -1077 0
-613 -1012 0
-614 -1013 0
-615 -1014 0
-613 -1168 0
-614 -1169 0
-615 -1170 0
-616 -949 0
-617 -950 0
-618 -951 0
-616 -1009 0
-617 -1010 0
-618 -1011 0
-616 -1069 0
-617 -1070 0
-618 -1071 0
-622 -643 0
-623 -644 0
-624 -645 0
-622 -859 0
-623 -860 0
-624 -861 0
-622 -1126 0
-623 -1127 0
-624 -1128 0
-622 -1156 0
-623 -1157 0
-624 -1158 0
-625 -829 0
-626 -830 0
-627 -831 0
-625 -1162 0
-626 -1163 0
-627 -1164 0
-628 -1081 0
-629 -1082 0
-630 -1083 0
-634 -1024 0
-635 -1025 0
-636 -1026 0
-634 -1087 0
-635 -1088 0
-636 -1089 0
-637 -994 0
-638 -995 0
-639 -996 0
-643 -676 0
-644 -677 0
-645 -678 0
-643 -1072 0
-644 -1073 0
-645 -1074 0
-646 -1114 0
-647 -1115 0
-648 -1116 0
-646 -1150 0
-647 -1151 0
-648 -1152 0
-652 -874 0
-653 -875 0
-654 -876 0
-652 -922 0
-653 -923 0
-654 -924 0
-655 -841 0
-656 -842 0
-657 -843 0
-655 -1012 0
-656 -1013 0
-657 -1014 0
-655 -1189 0
-656 -1190 0
-657 -1191 0
-658 -1054 0
-659 -1055 0
-660 -1056 0
-658 -1141 0
-659 -1142 0
-660 -1143 0
-661 -1045 0
-662 -1046 0
-663 -1047 0
-664 -700 0
-665 -701 0
-666 -702 0
-664 -1069 0
-665 -1070 0
-666 -1071 0
-667 -853 0
-668 -854 0
-669 -855 0
-667 -1000 0
-668 -1001 0
-669 -1002 0
-667 -1144 0
-668 -1145 0
-669 -1146 0
-670 -1174 0
-671 -1175 0
-672 -1176 0
-676 -871 0
-677 -872 0
-678 -873 0
-676 -967 0
-677 -968 0
-678 -969 0
-676 -985 0
-677 -986 0
-678 -987 0
-676 -1060 0
-677 -1061 0
-678 -1062 0
-682 -808 0
-683 -809 0
-684 -810 0
-682 -1150 0
-683 -1151 0
-684 -1152 0
-685 -1108 0
-686 -1109 0
-687 -1110 0
-688 -967 0
-689 -968 0
-690 -969 0
-688 -1195 0
-689 -1196 0
-690 -1197 0
-694 -778 0
-695 -779 0
-696 -780 0
-694 -829 0
-695 -830 0
-696 -831 0
-697 -1042 0
-698 -1043 0
-699 -1044 0
-697 -1045 0
-698 -1046 0
-699 -1047 0
-700 -766 0
-701 -767 0
-702 -768 0
-700 -961 0
-701 -962 0
-702 -963 0
-703 -817 0
-704 -818 0
-705 -819 0
-703 -871 0
-704 -872 0
-705 -873 0
-703 -883 0
-704 -884 0
-705 -885 0
-703 -991 0
-704 -992 0
-705 -993 0
-706 -721 0
-707 -722 0
-708 -723 0
-706 -1135 0
-707 -1136 0
-708 -1137 0
-709 -748 0
-710 -749 0
-711 -750 0
-709 -1114 0
-710 -1115 0
-711 -1116 0
-712 -946 0
-713 -947 0
-714 -948 0
-715 -1099 0
-716 -1100 0
-717 -1101 0
-718 -883 0
-719 -884 0
-720 -885 0
-718 -1087 0
-719 -1088 0
-720 -1089 0
-718 -1183 0
-719 -1184 0
-720 -1185 0
-724 -757 0
-725 -758 0
-726 -759 0
-727 -763 0
-728 -764 0
-729 -765 0
-727 -922 0
-728 -923 0
-729 -924 0
-730 -757 0
-731 -758 0
-732 -759 0
-733 -913 0
-734 -914 0
-735 -915 0
-736 -934 0
-737 -935 0
-738 -936 0
-739 -790 0
-740 -791 0
-741 -792 0
-739 -889 0
-740 -890 0
-741 -891 0
-739 -976 0
-740 -977 0
-741 -978 0
-742 -913 0
-743 -914 0
-744 -915 0
-742 -931 0
-743 -932 0
-744 -933 0
-742 -1192 0
-743 -1193 0
-744 -1194 0
-745 -1192 0
-746 -1193 0
-747 -1194 0
-748 -907 0
-749 -908 0
-750 -909 0
-748 -1123 0
-749 -1124 0
-750 -1125 0
-751 -1063 0
-752 -1064 0
-753 -1065 0
-751 -1174 0
-752 -1175 0
-753 -1176 0
-754 -1027 0
-755 -1028 0
-756 -1029 0
-754 -1042 0
-755 -1043 0
-756 -1044 0
-757 -793 0
-758 -794 0
-759 -795 0
-757 -1024 0
-758 -1025 0
-759 -1026 0
-760 -979 0
-761 -980 0
-762 -981 0
-760 -1006 0
-761 -1007 0
-762 -1008 0
-760 -1138 0
-761 -1139 0
-762 -1140 0
-763 -775 0
-764 -776 0
-765 -777 0
-766 -856 0
-767 -857 0
-768 -858 0
-766 -874 0
-767 -875 0
-768 -876 0
-766 -940 0
-767 -941 0
-768 -942 0
-766 -1195 0
-767 -1196 0
-768 -1197 0
-772 -937 0
-773 -938 0
-774 -939 0
-772 -1117 0
-773 -1118 0
-774 -1119 0
-775 -859 0
-776 -860 0
-777 -861 0
-775 -988 0
-776 -989 0
-777 -990 0
-775 -1156 0
-776 -1157 0
-777 -1158 0
-778 -910 0
-779 -911 0
-780 -912 0
-778 -1033 0
-779 -1034 0
-780 -1035 0
-778 -1060 0
-779 -1061 0
-780 -1062 0
-781 -1117 0
-782 -1118 0
-783 -1119 0
-787 -934 0
-788 -935 0
-789 -936 0
-790 -1018 0
-791 -1019 0
-792 -1020 0
-790 -1159 0
-791 -1160 0
-792 -1161 0
-793 -862 0
-794 -863 0
-795 -864 0
-793 -865 0
-794 -866 0
-795 -867 0
-793 -922 0
-794 -923 0
-795 -924 0
-793 -1117 0
-794 -1118 0
-795 -1119 0
-796 -943 0
-797 -944 0
-798 -945 0
-796 -1135 0
-797 -1136 0
-798 -1137 0
-799 -1198 0
-800 -1199 0
-801 -1200 0
-802 -898 0
-803 -899 0
-804 -900 0
-805 -895 0
-806 -896 0
-807 -897 0
-805 -937 0
-806 -938 0
-807 -939 0
-805 -1186 0
-806 -1187 0
-807 -1188 0
-808 -853 0
-809 -854 0
-810 -855 0
-808 -1048 0
-809 -1049 0
-810 -1050 0
-814 -907 0
-815 -908 0
-816 -909 0
-814 -1096 0
-815 -1097 0
-816 -1098 0
-820 -874 0
-821 -875 0
-822 -876 0
-820 -985 0
-821 -986 0
-822 -987 0
-823 -1084 0
-824 -1085 0
-825 -1086 0
-826 -967 0
-827 -968 0
-828 -969 0
-826 -1072 0
-827 -1073 0
-828 -1074 0
-826 -1096 0
-827 -1097 0
-828 -1098 0
-832 -838 0
-833 -839 0
-834 -840 0
-832 -1186 0
-833 -1187 0
-834 -1188 0
-835 -979 0
-836 -980 0
-837 -981 0
-835 -1117 0
-836 -1118 0
-837 -1119 0
-835 -1123 0
-836 -1124 0
-837 -1125 0
-841 -1102 0
-842 -1103 0
-843 -1104 0
-844 -1147 0
-845 -1148 0
-846 -1149 0
-844 -1192 0
-845 -1193 0
-846 -1194 0
-844 -1195 0
-845 -1196 0
-846 -1197 0
-847 -871 0
-848 -872 0
-849 -873 0
-847 -1153 0
-848 -1154 0
-849 -1155 0
-850 -895 0
-851 -896 0
-852 -897 0
-853 -1030 0
-854 -1031 0
-855 -1032 0
-853 -1090 0
-854 -1091 0
-855 -1092 0
-856 -877 0
-857 -878 0
-858 -879 0
-856 -919 0
-857 -920 0
-858 -921 0
-856 -1072 0
-857 -1073 0
-858 -1074 0
-859 -874 0
-860 -875 0
-861 -876 0
-859 -1012 0
-860 -1013 0
-861 -1014 0
-859 -1186 0
-860 -1187 0
-861 -1188 0
-862 -1021 0
-863 -1022 0
-864 -1023 0
-862 -1048 0
-863 -1049 0
-864 -1050 0
-865 -895 0
-866 -896 0
-867 -897 0
-865 -904 0
-866 -905 0
-867 -906 0
-868 -934 0
-869 -935 0
-870 -936 0
-868 -1048 0
-869 -1049 0
-870 -1050 0
-868 -1105 0
-869 -1106 0
-870 -1107 0
-871 -967 0
-872 -968 0
-873 -969 0
-874 -892 0
-875 -893 0
-876 -894 0
-874 -1012 0
-875 -1013 0
-876 -1014 0
-877 -910 0
-878 -911 0
-879 -912 0
-877 -970 0
-878 -971 0
-879 -972 0
-883 -901 0
-884 -902 0
-885 -903 0
-883 -1021 0
-884 -1022 0
-885 -1023 0
-883 -1024 0
-884 -1025 0
-885 -1026 0
-886 -898 0
-887 -899 0
-888 -900 0
-886 -961 0
-887 -962 0
-888 -963 0
-886 -1126 0
-887 -1127 0
-888 -1128 0
-889 -994 0
-890 -995 0
-891 -996 0
-889 -1138 0
-890 -1139 0
-891 -1140 0
-892 -1105 0
-893 -1106 0
-894 -1107 0
-892 -1156 0
-893 -1157 0
-894 -1158 0
-898 -901 0
-899 -902 0
-900 -903 0
-898 -925 0
-899 -926 0
-900 -927 0
-898 -1138 0
-899 -1139 0
-900 -1140 0
-901 -1159 0
-902 -1160 0
-903 -1161 0
-904 -1018 0
-905 -1019 0
-906 -1020 0
-907 -925 0
-908 -926 0
-909 -927 0
-910 -943 0
-911 -944 0
-912 -945 0
-913 -1117 0
-914 -1118 0
-915 -1119 0
-913 -1147 0
-914 -1148 0
-915 -1149 0
-919 -1141 0
-920 -1142 0
-921 -1143 0
-922 -931 0
-923 -932 0
-924 -933 0
-931 -1123 0
-932 -1124 0
-933 -1125 0
-940 -994 0
-941 -995 0
-942 -996 0
-940 -1033 0
-941 -1034 0
-942 -1035 0
-940 -1165 0
-941 -1166 0
-942 -1167 0
-946 -991 0
-947 -992 0
-948 -993 0
-958 -1186 0
-959 -1187 0
-960 -1188 0
-964 -1009 0
-965 -1010 0
-966 -1011 0
-970 -1003 0
-971 -1004 0
-972 -1005 0
-976 -1117 0
-977 -1118 0
-978 -1119 0
-976 -1171 0
-977 -1172 0
-978 -1173 0
-979 -1066 0
-980 -1067 0
-981 -1068 0
-982 -1093 0
-983 -1094 0
-984 -1095 0
-985 -1054 0
-986 -1055 0
-987 -1056 0
-985 -1120 0
-986 -1121 0
-987 -1122 0
-985 -1135 0
-986 -1136 0
-987 -1137 0
-988 -997 0
-989 -998 0
-990 -999 0
-988 -1006 0
-989 -1007 0
-990 -1008 0
-991 -1024 0
-992 -1025 0
-993 -1026 0
-997 -1162 0
-998 -1163 0
-999 -1164 0
-997 -1177 0
-998 -1178 0
-999 -1179 0
-997 -1180 0
-998 -1181 0
-999 -1182 0
-1003 -1009 0
-1004 -1010 0
-1005 -1011 0
-1006 -1033 0
-1007 -1034 0
-1008 -1035 0
-1018 -1147 0
-1019 -1148 0
-1020 -1149 0
-1021 -1078 0
-1022 -1079 0
-1023 -1080 0
-1024 -1057 0
-1025 -1058 0
-1026 -1059 0
-1039 -1138 0
-1040 -1139 0
-1041 -1140 0
-1045 -1102 0
-1046 -1103 0
-1047 -1104 0
-1048 -1114 0
-1049 -1115 0
-1050 -1116 0
-1054 -1075 0
-1055 -1076 0
-1056 -1077 0
-1054 -1150 0
-1055 -1151 0
-1056 -1152 0
-1072 -1165 0
-1073 -1166 0
-1074 -1167 0
-1081 -1096 0
-1082 -1097 0
-1083 -1098 0
-1096 -1138 0
-1097 -1139 0
-1098 -1140 0
-1108 -1141 0
-1109 -1142 0
-1110 -1143 0
-1114 -1150 0
-1115 -1151 0
-1116 -1152 0
-1123 -1144 0
-1124 -1145 0
-1125 -1146 0
-1138 -1141 0
-1139 -1142 0
-1140 -1143 0
-1156 -1195 0
-1157 -1196 0
-1158 -1197 0
