p cnf 1200 4450
1 2 3 0
4 5 6 0
7 8 9 0
10 11 12 0
13 14 15 0
16 17 18 0
19 20 21 0
22 23 24 0
25 26 27 0
28 29 30 0
31 32 33 0
34 35 36 0
37 38 39 0
40 41 42 0
43 44 45 0
46 47 48 0
49 50 51 0
52 53 54 0
55 56 57 0
58 59 60 0
61 62 63 0
64 65 66 0
67 68 69 0
70 71 72 0
73 74 75 0
76 77 78 0
79 80 81 0
82 83 84 0
85 86 87 0
88 89 90 0
91 92 93 0
94 95 96 0
97 98 99 0
100 101 102 0
103 104 105 0
106 107 108 0
109 110 111 0
112 113 114 0
115 116 117 0
118 119 120 0
121 122 123 0
124 125 126 0
127 128 129 0
130 131 132 0
133 134 135 0
136 137 138 0
139 140 141 0
142 143 144 0
145 146 147 0
148 149 150 0
151 152 153 0
154 155 156 0
157 158 159 0
160 161 162 0
163 164 165 0
166 167 168 0
169 170 171 0
172 173 174 0
175 176 177 0
178 179 180 0
181 182 183 0
184 185 186 0
187 188 189 0
190 191 192 0
193 194 195 0
196 197 198 0
199 200 201 0
202 203 204 0
205 206 207 0
208 209 210 0
211 212 213 0
214 215 216 0
217 218 219 0
220 221 222 0
223 224 225 0
226 227 228 0
229 230 231 0
232 233 234 0
235 236 237 0
238 239 240 0
241 242 243 0
244 245 246 0
247 248 249 0
250 251 252 0
253 254 255 0
256 257 258 0
259 260 261 0
262 263 264 0
265 266 267 0
268 269 270 0
271 272 273 0
274 275 276 0
277 278 279 0
280 281 282 0
283 284 285 0
286 287 288 0
289 290 291 0
292 293 294 0
295 296 297 0
298 299 300 0
301 302 303 0
304 305 306 0
307 308 309 0
310 311 312 0
313 314 315 0
316 317 318 0
319 320 321 0
322 323 324 0
325 326 327 0
328 329 330 0
331 332 333 0
334 335 336 0
337 338 339 0
340 341 342 0
343 344 345 0
346 347 348 0
349 350 351 0
352 353 354 0
355 356 357 0
358 359 360 0
361 362 363 0
364 365 366 0
367 368 369 0
370 371 372 0
373 374 375 0
376 377 378 0
379 380 381 0
382 383 384 0
385 386 387 0
388 389 390 0
391 392 393 0
394 395 396 0
397 398 399 0
400 401 402 0
403 404 405 0
406 407 408 0
409 410 411 0
412 413 414 0
415 416 417 0
418 419 420 0
421 422 423 0
424 425 426 0
427 428 429 0
430 431 432 0
433 434 435 0
436 437 438 0
439 440 441 0
442 443 444 0
445 446 447 0
448 449 450 0
451 452 453 0
454 455 456 0
457 458 459 0
460 461 462 0
463 464 465 0
466 467 468 0
469 470 471 0
472 473 474 0
475 476 477 0
478 479 480 0
481 482 483 0
484 485 486 0
487 488 489 0
490 491 492 0
493 494 495 0
496 497 498 0
499 500 501 0
502 503 504 0
505 506 507 0
508 509 510 0
511 512 513 0
514 515 516 0
517 518 519 0
520 521 522 0
523 524 525 0
526 527 528 0
529 530 531 0
532 533 534 0
535 536 537 0
538 539 540 0
541 542 543 0
544 545 546 0
547 548 549 0
550 551 552 0
553 554 555 0
556 557 558 0
559 560 561 0
562 563 564 0
565 566 567 0
568 569 570 0
571 572 573 0
574 575 576 0
577 578 579 0
580 581 582 0
583 584 585 0
586 587 588 0
589 590 591 0
592 593 594 0
595 596 597 0
598 599 600 0
601 602 603 0
604 605 606 0
607 608 609 0
610 611 612 0
613 614 615 0
616 617 618 0
619 620 621 0
622 623 624 0
625 626 627 0
628 629 630 0
631 632 633 0
634 635 636 0
637 638 639 0
640 641 642 0
643 644 645 0
646 647 648 0
649 650 651 0
652 653 654 0
655 656 657 0
658 659 660 0
661 662 663 0
664 665 666 0
667 668 669 0
670 671 672 0
673 674 675 0
676 677 678 0
679 680 681 0
682 683 684 0
685 686 687 0
688 689 690 0
691 692 693 0
694 695 696 0
697 698 699 0
700 701 702 0
703 704 705 0
706 707 708 0
709 710 711 0
712 713 714 0
715 716 717 0
718 719 720 0
721 722 723 0
724 725 726 0
727 728 729 0
730 731 732 0
733 734 735 0
736 737 738 0
739 740 741 0
742 743 744 0
745 746 747 0
748 749 750 0
751 752 753 0
754 755 756 0
757 758 759 0
760 761 762 0
763 764 765 0
766 767 768 0
769 770 771 0
772 773 774 0
775 776 777 0
778 779 780 0
781 782 783 0
784 785 786 0
787 788 789 0
790 791 792 0
793 794 795 0
796 797 798 0
799 800 801 0
802 803 804 0
805 806 807 0
808 809 810 0
811 812 813 0
814 815 816 0
817 818 819 0
820 821 822 0
823 824 825 0
826 827 828 0
829 830 831 0
832 833 834 0
835 836 837 0
838 839 840 0
841 842 843 0
844 845 846 0
847 848 849 0
850 851 852 0
853 854 855 0
856 857 858 0
859 860 861 0
862 863 864 0
865 866 867 0
868 869 870 0
871 872 873 0
874 875 876 0
877 878 879 0
880 881 882 0
883 884 885 0
886 887 888 0
889 890 891 0
892 893 894 0
895 896 897 0
898 899 900 0
901 902 903 0
904 905 906 0
907 908 909 0
910 911 912 0
913 914 915 0
916 917 918 0
919 920 921 0
922 923 924 0
925 926 927 0
928 929 930 0
931 932 933 0
934 935 936 0
937 938 939 0
940 941 942 0
943 944 945 0
946 947 948 0
949 950 951 0
952 953 954 0
955 956 957 0
958 959 960 0
961 962 963 0
964 965 966 0
967 968 969 0
970 971 972 0
973 974 975 0
976 977 978 0
979 980 981 0
982 983 984 0
985 986 987 0
988 989 990 0
991 992 993 0
994 995 996 0
997 998 999 0
1000 1001 1002 0
1003 1004 1005 0
1006 1007 1008 0
1009 1010 1011 0
1012 1013 1014 0
1015 1016 1017 0
1018 1019 1020 0
1021 1022 1023 0
1024 1025 1026 0
1027 1028 1029 0
1030 1031 1032 0
1033 1034 1035 0
1036 1037 1038 0
1039 1040 1041 0
1042 1043 1044 0
1045 1046 1047 0
1048 1049 1050 0
1051 1052 1053 0
1054 1055 1056 0
1057 1058 1059 0
1060 1061 1062 0
1063 1064 1065 0
1066 1067 1068 0
1069 1070 1071 0
1072 1073 1074 0
1075 1076 1077 0
1078 1079 1080 0
1081 1082 1083 0
1084 1085 1086 0
1087 1088 1089 0
1090 1091 1092 0
1093 1094 1095 0
1096 1097 1098 0
1099 1100 1101 0
1102 1103 1104 0
1105 1106 1107 0
1108 1109 1110 0
1111 1112 1113 0
1114 1115 1116 0
1117 1118 1119 0
1120 1121 1122 0
1123 1124 1125 0
1126 1127 1128 0
1129 1130 1131 0
1132 1133 1134 0
1135 1136 1137 0
1138 1139 1140 0
1141 1142 1143 0
1144 1145 1146 0
1147 1148 1149 0
1150 1151 1152 0
1153 1154 1155 0
1156 1157 1158 0
1159 1160 1161 0
1162 1163 1164 0
1165 1166 1167 0
1168 1169 1170 0
1171 1172 1173 0
1174 1175 1176 0
1177 1178 1179 0
1180 1181 1182 0
1183 1184 1185 0
1186 1187 1188 0
1189 1190 1191 0
1192 1193 1194 0
1195 1196 1197 0
1198 1199 1200 0
-1 -2 0
-1 -3 0
-2 -3 0
-4 -5 0
-4 -6 0
-5 -6 0
-7 -8 0
-7 -9 0
-8 -9 0
-10 -11 0
-10 -12 0
-11 -12 0
-13 -14 0
-13 -15 0
-14 -15 0
-16 -17 0
-16 -18 0
-17 -18 0
-19 -20 0
-19 -21 0
-20 -21 0
-22 -23 0
-22 -24 0
-23 -24 0
-25 -26 0
-25 -27 0
-26 -27 0
-28 -29 0
-28 -30 0
-29 -30 0
-31 -32 0
-31 -33 0
-32 -33 0
-34 -35 0
-34 -36 0
-35 -36 0
-37 -38 0
-37 -39 0
-38 -39 0
-40 -41 0
-40 -42 0
-41 -42 0
-43 -44 0
-43 -45 0
-44 -45 0
-46 -47 0
-46 -48 0
-47 -48 0
-49 -50 0
-49 -51 0
-50 -51 0
-52 -53 0
-52 -54 0
-53 -54 0
-55 -56 0
-55 -57 0
-56 -57 0
-58 -59 0
-58 -60 0
-59 -60 0
-61 -62 0
-61 -63 0
-62 -63 0
-64 -65 0
-64 -66 0
-65 -66 0
-67 -68 0
-67 -69 0
-68 -69 0
-70 -71 0
-70 -72 0
-71 -72 0
-73 -74 0
-73 -75 0
-74 -75 0
-76 -77 0
-76 -78 0
-77 -78 0
-79 -80 0
-79 -81 0
-80 -81 0
-82 -83 0
-82 -84 0
-83 -84 0
-85 -86 0
-85 -87 0
-86 -87 0
-88 -89 0
-88 -90 0
-89 -90 0
-91 -92 0
-91 -93 0
-92 -93 0
-94 -95 0
-94 -96 0
-95 -96 0
-97 -98 0
-97 -99 0
-98 -99 0
-100 -101 0
-100 -102 0
-101 -102 0
-103 -104 0
-103 -105 0
-104 -105 0
-106 -107 0
-106 -108 0
-107 -108 0
-109 -110 0
-109 -111 0
-110 -111 0
-112 -113 0
-112 -114 0
-113 -114 0
-115 -116 0
-115 -117 0
-116 -117 0
-118 -119 0
-118 -120 0
-119 -120 0
-121 -122 0
-121 -123 0
-122 -123 0
-124 -125 0
-124 -126 0
-125 -126 0
-127 -128 0
-127 -129 0
-128 -129 0
-130 -131 0
-130 -132 0
-131 -132 0
-133 -134 0
-133 -135 0
-134 -135 0
-136 -137 0
-136 -138 0
-137 -138 0
-139 -140 0
-139 -141 0
-140 -141 0
-142 -143 0
-142 -144 0
-143 -144 0
-145 -146 0
-145 -147 0
-146 -147 0
-148 -149 0
-148 -150 0
-149 -150 0
-151 -152 0
-151 -153 0
-152 -153 0
-154 -155 0
-154 -156 0
-155 -156 0
-157 -158 0
-157 -159 0
-158 -159 0
-160 -161 0
-160 -162 0
-161 -162 0
-163 -164 0
-163 -165 0
-164 -165 0
-166 -167 0
-166 -168 0
-167 -168 0
-169 -170 0
-169 -171 0
-170 -171 0
-172 -173 0
-172 -174 0
-173 -174 0
-175 -176 0
-175 -177 0
-176 -177 0
-178 -179 0
-178 -180 0
-179 -180 0
-181 -182 0
-181 -183 0
-182 -183 0
-184 -185 0
-184 -186 0
-185 -186 0
-187 -188 0
-187 -189 0
-188 -189 0
-190 -191 0
-190 -192 0
-191 -192 0
-193 -194 0
-193 -195 0
-194 -195 0
-196 -197 0
-196 -198 0
-197 -198 0
-199 -200 0
-199 -201 0
-200 -201 0
-202 -203 0
-202 -204 0
-203 -204 0
-205 -206 0
-205 -207 0
-206 -207 0
-208 -209 0
-208 -210 0
-209 -210 0
-211 -212 0
-211 -213 0
-212 -213 0
-214 -215 0
-214 -216 0
-215 -216 0
-217 -218 0
-217 -219 0
-218 -219 0
-220 -221 0
-220 -222 0
-221 -222 0
-223 -224 0
-223 -225 0
-224 -225 0
-226 -227 0
-226 -228 0
-227 -228 0
-229 -230 0
-229 -231 0
-230 -231 0
-232 -233 0
-232 -234 0
-233 -234 0
-235 -236 0
-235 -237 0
-236 -237 0
-238 -239 0
-238 -240 0
-239 -240 0
-241 -242 0
-241 -243 0
-242 -243 0
-244 -245 0
-244 -246 0
-245 -246 0
-247 -248 0
-247 -249 0
-248 -249 0
-250 -251 0
-250 -252 0
-251 -252 0
-253 -254 0
-253 -255 0
-254 -255 0
-256 -257 0
-256 -258 0
-257 -258 0
-259 -260 0
-259 -261 0
-260 -261 0
-262 -263 0
-262 -264 0
-263 -264 0
-265 -266 0
-265 -267 0
-266 -267 0
-268 -269 0
-268 -270 0
-269 -270 0
-271 -272 0
-271 -273 0
-272 -273 0
-274 -275 0
-274 -276 0
-275 -276 0
-277 -278 0
-277 -279 0
-278 -279 0
-280 -281 0
-280 -282 0
-281 -282 0
-283 -284 0
-283 -285 0
-284 -285 0
-286 -287 0
-286 -288 0
-287 -288 0
-289 -290 0
-289 -291 0
-290 -291 0
-292 -293 0
-292 -294 0
-293 -294 0
-295 -296 0
-295 -297 0
-296 -297 0
-298 -299 0
-298 -300 0
-299 -300 0
-301 -302 0
-301 -303 0
-302 -303 0
-304 -305 0
-304 -306 0
-305 -306 0
-307 -308 0
-307 -309 0
-308 -309 0
-310 -311 0
-310 -312 0
-311 -312 0
-313 -314 0
-313 -315 0
-314 -315 0
-316 -317 0
-316 -318 0
-317 -318 0
-319 -320 0
-319 -321 0
-320 -321 0
-322 -323 0
-322 -324 0
-323 -324 0
-325 -326 0
-325 -327 0
-326 -327 0
-328 -329 0
-328 -330 0
-329 -330 0
-331 -332 0
-331 -333 0
-332 -333 0
-334 -335 0
-334 -336 0
-335 -336 0
-337 -338 0
-337 -339 0
-338 -339 0
-340 -341 0
-340 -342 0
-341 -342 0
-343 -344 0
-343 -345 0
-344 -345 0
-346 -347 0
-346 -348 0
-347 -348 0
-349 -350 0
-349 -351 0
-350 -351 0
-352 -353 0
-352 -354 0
-353 -354 0
-355 -356 0
-355 -357 0
-356 -357 0
-358 -359 0
-358 -360 0
-359 -360 0
-361 -362 0
-361 -363 0
-362 -363 0
-364 -365 0
-364 -366 0
-365 -366 0
-367 -368 0
-367 -369 0
-368 -369 0
-370 -371 0
-370 -372 0
-371 -372 0
-373 -374 0
-373 -375 0
-374 -375 0
-376 -377 0
-376 -378 0
-377 -378 0
-379 -380 0
-379 -381 0
-380 -381 0
-382 -383 0
-382 -384 0
-383 -384 0
-385 -386 0
-385 -387 0
-386 -387 0
-388 -389 0
-388 -390 0
-389 -390 0
-391 -392 0
-391 -393 0
-392 -393 0
-394 -395 0
-394 -396 0
-395 -396 0
-397 -398 0
-397 -399 0
-398 -399 0
-400 -401 0
-400 -402 0
-401 -402 0
-403 -404 0
-403 -405 0
-404 -405 0
-406 -407 0
-406 -408 0
-407 -408 0
-409 -410 0
-409 -411 0
-410 -411 0
-412 -413 0
-412 -414 0
-413 -414 0
-415 -416 0
-415 -417 0
-416 -417 0
-418 -419 0
-418 -420 0
-419 -420 0
-421 -422 0
-421 -423 0
-422 -423 0
-424 -425 0
-424 -426 0
-425 -426 0
-427 -428 0
-427 -429 0
-428 -429 0
-430 -431 0
-430 -432 0
-431 -432 0
-433 -434 0
-433 -435 0
-434 -435 0
-436 -437 0
-436 -438 0
-437 -438 0
-439 -440 0
-439 -441 0
-440 -441 0
-442 -443 0
-442 -444 0
-443 -444 0
-445 -446 0
-445 -447 0
-446 -447 0
-448 -449 0
-448 -450 0
-449 -450 0
-451 -452 0
-451 -453 0
-452 -453 0
-454 -455 0
-454 -456 0
-455 -456 0
-457 -458 0
-457 -459 0
-458 -459 0
-460 -461 0
-460 -462 0
-461 -462 0
-463 -464 0
-463 -465 0
-464 -465 0
-466 -467 0
-466 -468 0
-467 -468 0
-469 -470 0
-469 -471 0
-470 -471 0
-472 -473 0
-472 -474 0
-473 -474 0
-475 -476 0
-475 -477 0
-476 -477 0
-478 -479 0
-478 -480 0
-479 -480 0
-481 -482 0
-481 -483 0
-482 -483 0
-484 -485 0
-484 -486 0
-485 -486 0
-487 -488 0
-487 -489 0
-488 -489 0
-490 -491 0
-490 -492 0
-491 -492 0
-493 -494 0
-493 -495 0
-494 -495 0
-496 -497 0
-496 -498 0
-497 -498 0
-499 -500 0
-499 -501 0
-500 -501 0
-502 -503 0
-502 -504 0
-503 -504 0
-505 -506 0
-505 -507 0
-506 -507 0
-508 -509 0
-508 -510 0
-509 -510 0
-511 -512 0
-511 -513 0
-512 -513 0
-514 -515 0
-514 -516 0
-515 -516 0
-517 -518 0
-517 -519 0
-518 -519 0
-520 -521 0
-520 -522 0
-521 -522 0
-523 -524 0
-523 -525 0
-524 -525 0
-526 -527 0
-526 -528 0
-527 -528 0
-529 -530 0
-529 -531 0
-530 -531 0
-532 -533 0
-532 -534 0
-533 -534 0
-535 -536 0
-535 -537 0
-536 -537 0
-538 -539 0
-538 -540 0
-539 -540 0
-541 -542 0
-541 -543 0
-542 -543 0
-544 -545 0
-544 -546 0
-545 -546 0
-547 -548 0
-547 -549 0
-548 -549 0
-550 -551 0
-550 -552 0
-551 -552 0
-553 -554 0
-553 -555 0
-554 -555 0
-556 -557 0
-556 -558 0
-557 -558 0
-559 -560 0
-559 -561 0
-560 -561 0
-562 -563 0
-562 -564 0
-563 -564 0
-565 -566 0
-565 -567 0
-566 -567 0
-568 -569 0
-568 -570 0
-569 -570 0
-571 -572 0
-571 -573 0
-572 -573 0
-574 -575 0
-574 -576 0
-575 -576 0
-577 -578 0
-577 -579 0
-578 -579 0
-580 -581 0
-580 -582 0
-581 -582 0
-583 -584 0
-583 -585 0
-584 -585 0
-586 -587 0
-586 -588 0
-587 -588 0
-589 -590 0
-589 -591 0
-590 -591 0
-592 -593 0
-592 -594 0
-593 -594 0
-595 -596 0
-595 -597 0
-596 -597 0
-598 -599 0
-598 -600 0
-599 -600 0
-601 -602 0
-601 -603 0
-602 -603 0
-604 -605 0
-604 -606 0
-605 -606 0
-607 -608 0
-607 -609 0
-608 -609 0
-610 -611 0
-610 -612 0
-611 -612 0
-613 -614 0
-613 -615 0
-614 -615 0
-616 -617 0
-616 -618 0
-617 -618 0
-619 -620 0
-619 -621 0
-620 -621 0
-622 -623 0
-622 -624 0
-623 -624 0
-625 -626 0
-625 -627 0
-626 -627 0
-628 -629 0
-628 -630 0
-629 -630 0
-631 -632 0
-631 -633 0
-632 -633 0
-634 -635 0
-634 -636 0
-635 -636 0
-637 -638 0
-637 -639 0
-638 -639 0
-640 -641 0
-640 -642 0
-641 -642 0
-643 -644 0
-643 -645 0
-644 -645 0
-646 -647 0
-646 -648 0
-647 -648 0
-649 -650 0
-649 -651 0
-650 -651 0
-652 -653 0
-652 -654 0
-653 -654 0
-655 -656 0
-655 -657 0
-656 -657 0
-658 -659 0
-658 -660 0
-659 -660 0
-661 -662 0
-661 -663 0
-662 -663 0
-664 -665 0
-664 -666 0
-665 -666 0
-667 -668 0
-667 -669 0
-668 -669 0
-670 -671 0
-670 -672 0
-671 -672 0
-673 -674 0
-673 -675 0
-674 -675 0
-676 -677 0
-676 -678 0
-677 -678 0
-679 -680 0
-679 -681 0
-680 -681 0
-682 -683 0
-682 -684 0
-683 -684 0
-685 -686 0
-685 -687 0
-686 -687 0
-688 -689 0
-688 -690 0
-689 -690 0
-691 -692 0
-691 -693 0
-692 -693 0
-694 -695 0
-694 -696 0
-695 -696 0
-697 -698 0
-697 -699 0
-698 -699 0
-700 -701 0
-700 -702 0
-701 -702 0
-703 -704 0
-703 -705 0
-704 -705 0
-706 -707 0
-706 -708 0
-707 -708 0
-709 -710 0
-709 -711 0
-710 -711 0
-712 -713 0
-712 -714 0
-713 -714 0
-715 -716 0
-715 -717 0
-716 -717 0
-718 -719 0
-718 -720 0
-719 -720 0
-721 -722 0
-721 -723 0
-722 -723 0
-724 -725 0
-724 -726 0
-725 -726 0
-727 -728 0
-727 -729 0
-728 -729 0
-730 -731 0
-730 -732 0
-731 -732 0
-733 -734 0
-733 -735 0
-734 -735 0
-736 -737 0
-736 -738 0
-737 -738 0
-739 -740 0
-739 -741 0
-740 -741 0
-742 -743 0
-742 -744 0
-743 -744 0
-745 -746 0
-745 -747 0
-746 -747 0
-748 -749 0
-748 -750 0
-749 -750 0
-751 -752 0
-751 -753 0
-752 -753 0
-754 -755 0
-754 -756 0
-755 -756 0
-757 -758 0
-757 -759 0
-758 -759 0
-760 -761 0
-760 -762 0
-761 -762 0
-763 -764 0
-763 -765 0
-764 -765 0
-766 -767 0
-766 -768 0
-767 -768 0
-769 -770 0
-769 -771 0
-770 -771 0
-772 -773 0
-772 -774 0
-773 -774 0
-775 -776 0
-775 -777 0
-776 -777 0
-778 -779 0
-778 -780 0
-779 -780 0
-781 -782 0
-781 -783 0
-782 -783 0
-784 -785 0
-784 -786 0
-785 -786 0
-787 -788 0
-787 -789 0
-788 -789 0
-790 -791 0
-790 -792 0
-791 -792 0
-793 -794 0
-793 -795 0
-794 -795 0
-796 -797 0
-796 -798 0
-797 -798 0
-799 -800 0
-799 -801 0
-800 -801 0
-802 -803 0
-802 -804 0
-803 -804 0
-805 -806 0
-805 -807 0
-806 -807 0
-808 -809 0
-808 -810 0
-809 -810 0
-811 -812 0
-811 -813 0
-812 -813 0
-814 -815 0
-814 -816 0
-815 -816 0
-817 -818 0
-817 -819 0
-818 -819 0
-820 -821 0
-820 -822 0
-821 -822 0
-823 -824 0
-823 -825 0
-824 -825 0
-826 -827 0
-826 -828 0
-827 -828 0
-829 -830 0
-829 -831 0
-830 -831 0
-832 -833 0
-832 -834 0
-833 -834 0
-835 -836 0
-835 -837 0
-836 -837 0
-838 -839 0
-838 -840 0
-839 -840 0
-841 -842 0
-841 -843 0
-842 -843 0
-844 -845 0
-844 -846 0
-845 -846 0
-847 -848 0
-847 -849 0
-848 -849 0
-850 -851 0
-850 -852 0
-851 -852 0
-853 -854 0
-853 -855 0
-854 -855 0
-856 -857 0
-856 -858 0
-857 -858 0
-859 -860 0
-859 -861 0
-860 -861 0
-862 -863 0
-862 -864 0
-863 -864 0
-865 -866 0
-865 -867 0
-866 -867 0
-868 -869 0
-868 -870 0
-869 -870 0
-871 -872 0
-871 -873 0
-872 -873 0
-874 -875 0
-874 -876 0
-875 -876 0
-877 -878 0
-877 -879 0
-878 -879 0
-880 -881 0
-880 -882 0
-881 -882 0
-883 -884 0
-883 -885 0
-884 -885 0
-886 -887 0
-886 -888 0
-887 -888 0
-889 -890 0
-889 -891 0
-890 -891 0
-892 -893 0
-892 -894 0
-893 -894 0
-895 -896 0
-895 -897 0
-896 -897 0
-898 -899 0
-898 -900 0
-899 -900 0
-901 -902 0
-901 -903 0
-902 -903 0
-904 -905 0
-904 -906 0
-905 -906 0
-907 -908 0
-907 -909 0
-908 -909 0
-910 -911 0
-910 -912 0
-911 -912 0
-913 -914 0
-913 -915 0
-914 -915 0
-916 -917 0
-916 -918 0
-917 -918 0
-919 -920 0
-919 -921 0
-920 -921 0
-922 -923 0
-922 -924 0
-923 -924 0
-925 -926 0
-925 -927 0
-926 -927 0
-928 -929 0
-928 -930 0
-929 -930 0
-931 -932 0
-931 -933 0
-932 -933 0
-934 -935 0
-934 -936 0
-935 -936 0
-937 -938 0
-937 -939 0
-938 -939 0
-940 -941 0
-940 -942 0
-941 -942 0
-943 -944 0
-943 -945 0
-944 -945 0
-946 -947 0
-946 -948 0
-947 -948 0
-949 -950 0
-949 -951 0
-950 -951 0
-952 -953 0
-952 -954 0
-953 -954 0
-955 -956 0
-955 -957 0
-956 -957 0
-958 -959 0
-958 -960 0
-959 -960 0
-961 -962 0
-961 -963 0
-962 -963 0
-964 -965 0
-964 -966 0
-965 -966 0
-967 -968 0
-967 -969 0
-968 -969 0
-970 -971 0
-970 -972 0
-971 -972 0
-973 -974 0
-973 -975 0
-974 -975 0
-976 -977 0
-976 -978 0
-977 -978 0
-979 -980 0
-979 -981 0
-980 -981 0
-982 -983 0
-982 -984 0
-983 -984 0
-985 -986 0
-985 -987 0
-986 -987 0
-988 -989 0
-988 -990 0
-989 -990 0
-991 -992 0
-991 -993 0
-992 -993 0
-994 -995 0
-994 -996 0
-995 -996 0
-997 -998 0
-997 -999 0
-998 -999 0
-1000 -1001 0
-1000 -1002 0
-1001 -1002 0
-1003 -1004 0
-1003 -1005 0
-1004 -1005 0
-1006 -1007 0
-1006 -1008 0
-1007 -1008 0
-1009 -1010 0
-1009 -1011 0
-1010 -1011 0
-1012 -1013 0
-1012 -1014 0
-1013 -1014 0
-1015 -1016 0
-1015 -1017 0
-1016 -1017 0
-1018 -1019 0
-1018 -1020 0
-1019 -1020 0
-1021 -1022 0
-1021 -1023 0
-1022 -1023 0
-1024 -1025 0
-1024 -1026 0
-1025 -1026 0
-1027 -1028 0
-1027 -1029 0
-1028 -1029 0
-1030 -1031 0
-1030 -1032 0
-1031 -1032 0
-1033 -1034 0
-1033 -1035 0
-1034 -1035 0
-1036 -1037 0
-1036 -1038 0
-1037 -1038 0
-1039 -1040 0
-1039 -1041 0
-1040 -1041 0
-1042 -1043 0
-1042 -1044 0
-1043 -1044 0
-1045 -1046 0
-1045 -1047 0
-1046 -1047 0
-1048 -1049 0
-1048 -1050 0
-1049 -1050 0
-1051 -1052 0
-1051 -1053 0
-1052 -1053 0
-1054 -1055 0
-1054 -1056 0
-1055 -1056 0
-1057 -1058 0
-1057 -1059 0
-1058 -1059 0
-1060 -1061 0
-1060 -1062 0
-1061 -1062 0
-1063 -1064 0
-1063 -1065 0
-1064 -1065 0
-1066 -1067 0
-1066 -1068 0
-1067 -1068 0
-1069 -1070 0
-1069 -1071 0
-1070 -1071 0
-1072 -1073 0
-1072 -1074 0
-1073 -1074 0
-1075 -1076 0
-1075 -1077 0
-1076 -1077 0
-1078 -1079 0
-1078 -1080 0
-1079 -1080 0
-1081 -1082 0
-1081 -1083 0
-1082 -1083 0
-1084 -1085 0
-1084 -1086 0
-1085 -1086 0
-1087 -1088 0
-1087 -1089 0
-1088 -1089 0
-1090 -1091 0
-1090 -1092 0
-1091 -1092 0
-1093 -1094 0
-1093 -1095 0
-1094 -1095 0
-1096 -1097 0
-1096 -1098 0
-1097 -1098 0
-1099 -1100 0
-1099 -1101 0
-1100 -1101 0
-1102 -1103 0
-1102 -1104 0
-1103 -1104 0
-1105 -1106 0
-1105 -1107 0
-1106 -1107 0
-1108 -1109 0
-1108 -1110 0
-1109 -1110 0
-1111 -1112 0
-1111 -1113 0
-1112 -1113 0
-1114 -1115 0
-1114 -1116 0
-1115 -1116 0
-1117 -1118 0
-1117 -1119 0
-1118 -1119 0
-1120 -1121 0
-1120 -1122 0
-1121 -1122 0
-1123 -1124 0
-1123 -1125 0
-1124 -1125 0
-1126 -1127 0
-1126 -1128 0
-1127 -1128 0
-1129 -1130 0
-1129 -1131 0
-1130 -1131 0
-1132 -1133 0
-1132 -1134 0
-1133 -1134 0
-1135 -1136 0
-1135 -1137 0
-1136 -1137 0
-1138 -1139 0
-1138 -1140 0
-1139 -1140 0
-1141 -1142 0
-1141 -1143 0
-1142 -1143 0
-1144 -1145 0
-1144 -1146 0
-1145 -1146 0
-1147 -1148 0
-1147 -1149 0
-1148 -1149 0
-1150 -1151 0
-1150 -1152 0
-1151 -1152 0
-1153 -1154 0
-1153 -1155 0
-1154 -1155 0
-1156 -1157 0
-1156 -1158 0
-1157 -1158 0
-1159 -1160 0
-1159 -1161 0
-1160 -1161 0
-1162 -1163 0
-1162 -1164 0
-1163 -1164 0
-1165 -1166 0
-1165 -1167 0
-1166 -1167 0
-1168 -1169 0
-1168 -1170 0
-1169 -1170 0
-1171 -1172 0
-1171 -1173 0
-1172 -1173 0
-1174 -1175 0
-1174 -1176 0
-1175 -1176 0
-1177 -1178 0
-1177 -1179 0
-1178 -1179 0
-1180 -1181 0
-1180 -1182 0
-1181 -1182 0
-1183 -1184 0
-1183 -1185 0
-1184 -1185 0
-1186 -1187 0
-1186 -1188 0
-1187 -1188 0
-1189 -1190 0
-1189 -1191 0
-1190 -1191 0
-1192 -1193 0
-1192 -1194 0
-1193 -1194 0
-1195 -1196 0
-1195 -1197 0
-1196 -1197 0
-1198 -1199 0
-1198 -1200 0
-1199 -1200 0
-1 -220 0
-2 -221 0
-3 -222 0
-1 -541 0
-2 -542 0
-3 -543 0
-1 -673 0
-2 -674 0
-3 -675 0
-1 -742 0
-2 -743 0
-3 -744 0
-4 -49 0
-5 -50 0
-6 -51 0
-4 -55 0
-5 -56 0
-6 -57 0
-4 -367 0
-5 -368 0
-6 -369 0
-4 -406 0
-5 -407 0
-6 -408 0
-4 -568 0
-5 -569 0
-6 -570 0
-4 -934 0
-5 -935 0
-6 -936 0
-4 -1135 0
-5 -1136 0
-6 -1137 0
-7 -817 0
-8 -818 0
-9 -819 0
-7 -871 0
-8 -872 0
-9 -873 0
-10 -127 0
-11 -128 0
-12 -129 0
-10 -364 0
-11 -365 0
-12 -366 0
-10 -595 0
-11 -596 0
-12 -597 0
-10 -694 0
-11 -695 0
-12 -696 0
-10 -931 0
-11 -932 0
-12 -933 0
-10 -1036 0
-11 -1037 0
-12 -1038 0
-13 -526 0
-14 -527 0
-15 -528 0
-13 -619 0
-14 -620 0
-15 -621 0
-13 -934 0
-14 -935 0
-15 -936 0
-13 -1081 0
-14 -1082 0
-15 -1083 0
-16 -985 0
-17 -986 0
-18 -987 0
-16 -1048 0
-17 -1049 0
-18 -1050 0
-16 -1063 0
-17 -1064 0
-18 -1065 0
-19 -109 0
-20 -110 0
-21 -111 0
-19 -1156 0
-20 -1157 0
-21 -1158 0
-22 -49 0
-23 -50 0
-24 -51 0
-22 -355 0
-23 -356 0
-24 -357 0
-22 -394 0
-23 -395 0
-24 -396 0
-22 -652 0
-23 -653 0
-24 -654 0
-22 -874 0
-23 -875 0
-24 -876 0
-22 -901 0
-23 -902 0
-24 -903 0
-22 -997 0
-23 -998 0
-24 -999 0
-22 -1099 0
-23 -1100 0
-24 -1101 0
-22 -1171 0
-23 -1172 0
-24 -1173 0
-25 -31 0
-26 -32 0
-27 -33 0
-25 -172 0
-26 -173 0
-27 -174 0
-25 -241 0
-26 -242 0
-27 -243 0
-25 -349 0
-26 -350 0
-27 -351 0
-28 -211 0
-29 -212 0
-30 -213 0
-28 -490 0
-29 -491 0
-30 -492 0
-28 -1096 0
-29 -1097 0
-30 -1098 0
-28 -1108 0
-29 -1109 0
-30 -1110 0
-31 -265 0
-32 -266 0
-33 -267 0
-31 -313 0
-32 -314 0
-33 -315 0
-31 -427 0
-32 -428 0
-33 -429 0
-31 -451 0
-32 -452 0
-33 -453 0
-31 -496 0
-32 -497 0
-33 -498 0
-34 -364 0
-35 -365 0
-36 -366 0
-34 -919 0
-35 -920 0
-36 -921 0
-34 -1003 0
-35 -1004 0
-36 -1005 0
-34 -1096 0
-35 -1097 0
-36 -1098 0
-37 -109 0
-38 -110 0
-39 -111 0
-37 -166 0
-38 -167 0
-39 -168 0
-37 -199 0
-38 -200 0
-39 -201 0
-37 -433 0
-38 -434 0
-39 -435 0
-37 -487 0
-38 -488 0
-39 -489 0
-37 -661 0
-38 -662 0
-39 -663 0
-37 -1129 0
-38 -1130 0
-39 -1131 0
-37 -1150 0
-38 -1151 0
-39 -1152 0
-40 -148 0
-41 -149 0
-42 -150 0
-40 -619 0
-41 -620 0
-42 -621 0
-40 -691 0
-41 -692 0
-42 -693 0
-43 -322 0
-44 -323 0
-45 -324 0
-43 -607 0
-44 -608 0
-45 -609 0
-43 -727 0
-44 -728 0
-45 -729 0
-43 -769 0
-44 -770 0
-45 -771 0
-43 -1117 0
-44 -1118 0
-45 -1119 0
-46 -118 0
-47 -119 0
-48 -120 0
-46 -259 0
-47 -260 0
-48 -261 0
-46 -517 0
-47 -518 0
-48 -519 0
-46 -595 0
-47 -596 0
-48 -597 0
-46 -610 0
-47 -611 0
-48 -612 0
-46 -949 0
-47 -950 0
-48 -951 0
-49 -553 0
-50 -554 0
-51 -555 0
-49 -1093 0
-50 -1094 0
-51 -1095 0
-49 -1147 0
-50 -1148 0
-51 -1149 0
-52 -58 0
-53 -59 0
-54 -60 0
-52 -274 0
-53 -275 0
-54 -276 0
-52 -589 0
-53 -590 0
-54 -591 0
-52 -745 0
-53 -746 0
-54 -747 0
-52 -772 0
-53 -773 0
-54 -774 0
-52 -1135 0
-53 -1136 0
-54 -1137 0
-55 -109 0
-56 -110 0
-57 -111 0
-55 -139 0
-56 -140 0
-57 -141 0
-55 -667 0
-56 -668 0
-57 -669 0
-58 -130 0
-59 -131 0
-60 -132 0
-58 -292 0
-59 -293 0
-60 -294 0
-58 -664 0
-59 -665 0
-60 -666 0
-58 -721 0
-59 -722 0
-60 -723 0
-58 -790 0
-59 -791 0
-60 -792 0
-61 -79 0
-62 -80 0
-63 -81 0
-61 -319 0
-62 -320 0
-63 -321 0
-61 -403 0
-62 -404 0
-63 -405 0
-61 -712 0
-62 -713 0
-63 -714 0
-61 -853 0
-62 -854 0
-63 -855 0
-61 -916 0
-62 -917 0
-63 -918 0
-61 -1015 0
-62 -1016 0
-63 -1017 0
-64 -226 0
-65 -227 0
-66 -228 0
-64 -487 0
-65 -488 0
-66 -489 0
-64 -646 0
-65 -647 0
-66 -648 0
-64 -673 0
-65 -674 0
-66 -675 0
-64 -796 0
-65 -797 0
-66 -798 0
-64 -919 0
-65 -920 0
-66 -921 0
-64 -1084 0
-65 -1085 0
-66 -1086 0
-64 -1090 0
-65 -1091 0
-66 -1092 0
-64 -1177 0
-65 -1178 0
-66 -1179 0
-67 -538 0
-68 -539 0
-69 -540 0
-67 -829 0
-68 -830 0
-69 -831 0
-67 -850 0
-68 -851 0
-69 -852 0
-70 -124 0
-71 -125 0
-72 -126 0
-70 -145 0
-71 -146 0
-72 -147 0
-70 -463 0
-71 -464 0
-72 -465 0
-73 -514 0
-74 -515 0
-75 -516 0
-73 -679 0
-74 -680 0
-75 -681 0
-76 -88 0
-77 -89 0
-78 -90 0
-76 -178 0
-77 -179 0
-78 -180 0
-76 -373 0
-77 -374 0
-78 -375 0
-76 -445 0
-77 -446 0
-78 -447 0
-76 -856 0
-77 -857 0
-78 -858 0
-76 -907 0
-77 -908 0
-78 -909 0
-76 -919 0
-77 -920 0
-78 -921 0
-79 -181 0
-80 -182 0
-81 -183 0
-79 -277 0
-80 -278 0
-81 -279 0
-79 -622 0
-80 -623 0
-81 -624 0
-79 -1153 0
-80 -1154 0
-81 -1155 0
-82 -367 0
-83 -368 0
-84 -369 0
-82 -382 0
-83 -383 0
-84 -384 0
-82 -430 0
-83 -431 0
-84 -432 0
-82 -697 0
-83 -698 0
-84 -699 0
-82 -781 0
-83 -782 0
-84 -783 0
-82 -997 0
-83 -998 0
-84 -999 0
-82 -1075 0
-83 -1076 0
-84 -1077 0
-85 -583 0
-86 -584 0
-87 -585 0
-85 -841 0
-86 -842 0
-87 -843 0
-88 -289 0
-89 -290 0
-90 -291 0
-91 -253 0
-92 -254 0
-93 -255 0
-91 -346 0
-92 -347 0
-93 -348 0
-91 -601 0
-92 -602 0
-93 -603 0
-94 -460 0
-95 -461 0
-96 -462 0
-94 -904 0
-95 -905 0
-96 -906 0
-94 -1096 0
-95 -1097 0
-96 -1098 0
-97 -130 0
-98 -131 0
-99 -132 0
-97 -343 0
-98 -344 0
-99 -345 0
-97 -448 0
-98 -449 0
-99 -450 0
-97 -640 0
-98 -641 0
-99 -642 0
-97 -856 0
-98 -857 0
-99 -858 0
-100 -1021 0
-101 -1022 0
-102 -1023 0
-100 -1069 0
-101 -1070 0
-102 -1071 0
-100 -1162 0
-101 -1163 0
-102 -1164 0
-103 -460 0
-104 -461 0
-105 -462 0
-103 -574 0
-104 -575 0
-105 -576 0
-103 -898 0
-104 -899 0
-105 -900 0
-106 -820 0
-107 -821 0
-108 -822 0
-109 -703 0
-110 -704 0
-111 -705 0
-109 -712 0
-110 -713 0
-111 -714 0
-109 -928 0
-110 -929 0
-111 -930 0
-109 -1036 0
-110 -1037 0
-111 -1038 0
-112 -208 0
-113 -209 0
-114 -210 0
-112 -457 0
-113 -458 0
-114 -459 0
-112 -664 0
-113 -665 0
-114 -666 0
-112 -748 0
-113 -749 0
-114 -750 0
-115 -172 0
-116 -173 0
-117 -174 0
-115 -346 0
-116 -347 0
-117 -348 0
-115 -742 0
-116 -743 0
-117 -744 0
-115 -1150 0
-116 -1151 0
-117 -1152 0
-118 -220 0
-119 -221 0
-120 -222 0
-121 -166 0
-122 -167 0
-123 -168 0
-121 -538 0
-122 -539 0
-123 -540 0
-121 -781 0
-122 -782 0
-123 -783 0
-121 -850 0
-122 -851 0
-123 -852 0
-121 -868 0
-122 -869 0
-123 -870 0
-124 -250 0
-125 -251 0
-126 -252 0
-124 -946 0
-125 -947 0
-126 -948 0
-124 -1132 0
-125 -1133 0
-126 -1134 0
-127 -136 0
-128 -137 0
-129 -138 0
-127 -217 0
-128 -218 0
-129 -219 0
-127 -262 0
-128 -263 0
-129 -264 0
-127 -301 0
-128 -302 0
-129 -303 0
-127 -340 0
-128 -341 0
-129 -342 0
-127 -649 0
-128 -650 0
-129 -651 0
-127 -691 0
-128 -692 0
-129 -693 0
-127 -697 0
-128 -698 0
-129 -699 0
-127 -1135 0
-128 -1136 0
-129 -1137 0
-127 -1144 0
-128 -1145 0
-129 -1146 0
-130 -379 0
-131 -380 0
-132 -381 0
-130 -502 0
-131 -503 0
-132 -504 0
-130 -757 0
-131 -758 0
-132 -759 0
-130 -841 0
-131 -842 0
-132 -843 0
-130 -889 0
-131 -890 0
-132 -891 0
-130 -982 0
-131 -983 0
-132 -984 0
-130 -1078 0
-131 -1079 0
-132 -1080 0
-133 -148 0
-134 -149 0
-135 -150 0
-133 -697 0
-134 -698 0
-135 -699 0
-133 -1033 0
-134 -1034 0
-135 -1035 0
-133 -1048 0
-134 -1049 0
-135 -1050 0
-136 -190 0
-137 -191 0
-138 -192 0
-136 -547 0
-137 -548 0
-138 -549 0
-136 -664 0
-137 -665 0
-138 -666 0
-136 -805 0
-137 -806 0
-138 -807 0
-136 -949 0
-137 -950 0
-138 -951 0
-139 -352 0
-140 -353 0
-141 -354 0
-139 -424 0
-140 -425 0
-141 -426 0
-139 -853 0
-140 -854 0
-141 -855 0
-142 -877 0
-143 -878 0
-144 -879 0
-142 -1114 0
-143 -1115 0
-144 -1116 0
-145 -529 0
-146 -530 0
-147 -531 0
-145 -538 0
-146 -539 0
-147 -540 0
-145 -544 0
-146 -545 0
-147 -546 0
-145 -685 0
-146 -686 0
-147 -687 0
-145 -1057 0
-146 -1058 0
-147 -1059 0
-145 -1090 0
-146 -1091 0
-147 -1092 0
-148 -154 0
-149 -155 0
-150 -156 0
-148 -187 0
-149 -188 0
-150 -189 0
-148 -364 0
-149 -365 0
-150 -366 0
-148 -400 0
-149 -401 0
-150 -402 0
-148 -772 0
-149 -773 0
-150 -774 0
-148 -820 0
-149 -821 0
-150 -822 0
-148 -976 0
-149 -977 0
-150 -978 0
-148 -1144 0
-149 -1145 0
-150 -1146 0
-151 -439 0
-152 -440 0
-153 -441 0
-154 -298 0
-155 -299 0
-156 -300 0
-154 -301 0
-155 -302 0
-156 -303 0
-154 -349 0
-155 -350 0
-156 -351 0
-154 -448 0
-155 -449 0
-156 -450 0
-154 -778 0
-155 -779 0
-156 -780 0
-154 -802 0
-155 -803 0
-156 -804 0
-154 -1018 0
-155 -1019 0
-156 -1020 0
-154 -1111 0
-155 -1112 0
-156 -1113 0
-157 -253 0
-158 -254 0
-159 -255 0
-157 -328 0
-158 -329 0
-159 -330 0
-157 -901 0
-158 -902 0
-159 -903 0
-157 -1078 0
-158 -1079 0
-159 -1080 0
-160 -778 0
-161 -779 0
-162 -780 0
-163 -253 0
-164 -254 0
-165 -255 0
-163 -379 0
-164 -380 0
-165 -381 0
-163 -517 0
-164 -518 0
-165 -519 0
-166 -220 0
-167 -221 0
-168 -222 0
-166 -343 0
-167 -344 0
-168 -345 0
-166 -847 0
-167 -848 0
-168 -849 0
-166 -964 0
-167 -965 0
-168 -966 0
-169 -382 0
-170 -383 0
-171 -384 0
-169 -406 0
-170 -407 0
-171 -408 0
-169 -760 0
-170 -761 0
-171 -762 0
-169 -796 0
-170 -797 0
-171 -798 0
-169 -898 0
-170 -899 0
-171 -900 0
-172 -643 0
-173 -644 0
-174 -645 0
-172 -679 0
-173 -680 0
-174 -681 0
-172 -1117 0
-173 -1118 0
-174 -1119 0
-175 -331 0
-176 -332 0
-177 -333 0
-175 -334 0
-176 -335 0
-177 -336 0
-175 -559 0
-176 -560 0
-177 -561 0
-175 -1171 0
-176 -1172 0
-177 -1173 0
-178 -331 0
-179 -332 0
-180 -333 0
-178 -877 0
-179 -878 0
-180 -879 0
-178 -1066 0
-179 -1067 0
-180 -1068 0
-178 -1162 0
-179 -1163 0
-180 -1164 0
-181 -277 0
-182 -278 0
-183 -279 0
-181 -568 0
-182 -569 0
-183 -570 0
-181 -853 0
-182 -854 0
-183 -855 0
-181 -949 0
-182 -950 0
-183 -951 0
-181 -1183 0
-182 -1184 0
-183 -1185 0
-184 -337 0
-185 -338 0
-186 -339 0
-184 -370 0
-185 -371 0
-186 -372 0
-184 -610 0
-185 -611 0
-186 -612 0
-184 -871 0
-185 -872 0
-186 -873 0
-187 -565 0
-188 -566 0
-189 -567 0
-187 -688 0
-188 -689 0
-189 -690 0
-187 -1057 0
-188 -1058 0
-189 -1059 0
-187 -1171 0
-188 -1172 0
-189 -1173 0
-190 -448 0
-191 -449 0
-192 -450 0
-190 -523 0
-191 -524 0
-192 -525 0
-190 -757 0
-191 -758 0
-192 -759 0
-190 -1162 0
-191 -1163 0
-192 -1164 0
-193 -532 0
-194 -533 0
-195 -534 0
-193 -604 0
-194 -605 0
-195 -606 0
-193 -832 0
-194 -833 0
-195 -834 0
-193 -955 0
-194 -956 0
-195 -957 0
-196 -283 0
-197 -284 0
-198 -285 0
-196 -310 0
-197 -311 0
-198 -312 0
-196 -478 0
-197 -479 0
-198 -480 0
-196 -493 0
-197 -494 0
-198 -495 0
-196 -871 0
-197 -872 0
-198 -873 0
-196 -970 0
-197 -971 0
-198 -972 0
-196 -1036 0
-197 -1037 0
-198 -1038 0
-199 -1090 0
-200 -1091 0
-201 -1092 0
-202 -466 0
-203 -467 0
-204 -468 0
-202 -580 0
-203 -581 0
-204 -582 0
-202 -658 0
-203 -659 0
-204 -660 0
-202 -886 0
-203 -887 0
-204 -888 0
-202 -976 0
-203 -977 0
-204 -978 0
-202 -1075 0
-203 -1076 0
-204 -1077 0
-205 -289 0
-206 -290 0
-207 -291 0
-205 -883 0
-206 -884 0
-207 -885 0
-208 -727 0
-209 -728 0
-210 -729 0
-208 -1003 0
-209 -1004 0
-210 -1005 0
-208 -1063 0
-209 -1064 0
-210 -1065 0
-211 -433 0
-212 -434 0
-213 -435 0
-211 -652 0
-212 -653 0
-213 -654 0
-211 -709 0
-212 -710 0
-213 -711 0
-211 -1135 0
-212 -1136 0
-213 -1137 0
-214 -781 0
-215 -782 0
-216 -783 0
-214 -1195 0
-215 -1196 0
-216 -1197 0
-217 -289 0
-218 -290 0
-219 -291 0
-217 -343 0
-218 -344 0
-219 -345 0
-217 -478 0
-218 -479 0
-219 -480 0
-217 -520 0
-218 -521 0
-219 -522 0
-217 -538 0
-218 -539 0
-219 -540 0
-217 -685 0
-218 -686 0
-219 -687 0
-217 -772 0
-218 -773 0
-219 -774 0
-217 -958 0
-218 -959 0
-219 -960 0
-217 -976 0
-218 -977 0
-219 -978 0
-220 -745 0
-221 -746 0
-222 -747 0
-220 -1024 0
-221 -1025 0
-222 -1026 0
-220 -1147 0
-221 -1148 0
-222 -1149 0
-223 -301 0
-224 -302 0
-225 -303 0
-223 -385 0
-224 -386 0
-225 -387 0
-223 -619 0
-224 -620 0
-225 -621 0
-223 -706 0
-224 -707 0
-225 -708 0
-223 -1018 0
-224 -1019 0
-225 -1020 0
-226 -415 0
-227 -416 0
-228 -417 0
-229 -286 0
-230 -287 0
-231 -288 0
-229 -1000 0
-230 -1001 0
-231 -1002 0
-232 -424 0
-233 -425 0
-234 -426 0
-232 -520 0
-233 -521 0
-234 -522 0
-232 -610 0
-233 -611 0
-234 -612 0
-232 -844 0
-233 -845 0
-234 -846 0
-232 -1006 0
-233 -1007 0
-234 -1008 0
-232 -1081 0
-233 -1082 0
-234 -1083 0
-235 -541 0
-236 -542 0
-237 -543 0
-235 -943 0
-236 -944 0
-237 -945 0
-238 -622 0
-239 -623 0
-240 -624 0
-238 -1027 0
-239 -1028 0
-240 -1029 0
-238 -1066 0
-239 -1067 0
-240 -1068 0
-238 -1087 0
-239 -1088 0
-240 -1089 0
-241 -262 0
-242 -263 0
-243 -264 0
-241 -574 0
-242 -575 0
-243 -576 0
-241 -787 0
-242 -788 0
-243 -789 0
-241 -919 0
-242 -920 0
-243 -921 0
-241 -943 0
-242 -944 0
-243 -945 0
-244 -1057 0
-245 -1058 0
-246 -1059 0
-247 -274 0
-248 -275 0
-249 -276 0
-247 -436 0
-248 -437 0
-249 -438 0
-247 -511 0
-248 -512 0
-249 -513 0
-247 -919 0
-248 -920 0
-249 -921 0
-247 -1027 0
-248 -1028 0
-249 -1029 0
-250 -355 0
-251 -356 0
-252 -357 0
-250 -487 0
-251 -488 0
-252 -489 0
-250 -646 0
-251 -647 0
-252 -648 0
-250 -1153 0
-251 -1154 0
-252 -1155 0
-253 -283 0
-254 -284 0
-255 -285 0
-253 -1063 0
-254 -1064 0
-255 -1065 0
-253 -1192 0
-254 -1193 0
-255 -1194 0
-256 -346 0
-257 -347 0
-258 -348 0
-256 -361 0
-257 -362 0
-258 -363 0
-256 -601 0
-257 -602 0
-258 -603 0
-256 -655 0
-257 -656 0
-258 -657 0
-256 -832 0
-257 -833 0
-258 -834 0
-256 -901 0
-257 -902 0
-258 -903 0
-259 -346 0
-260 -347 0
-261 -348 0
-259 -979 0
-260 -980 0
-261 -981 0
-262 -532 0
-263 -533 0
-264 -534 0
-262 -862 0
-263 -863 0
-264 -864 0
-265 -355 0
-266 -356 0
-267 -357 0
-265 -652 0
-266 -653 0
-267 -654 0
-265 -838 0
-266 -839 0
-267 -840 0
-268 -370 0
-269 -371 0
-270 -372 0
-268 -382 0
-269 -383 0
-270 -384 0
-268 -874 0
-269 -875 0
-270 -876 0
-268 -946 0
-269 -947 0
-270 -948 0
-268 -982 0
-269 -983 0
-270 -984 0
-268 -1114 0
-269 -1115 0
-270 -1116 0
-271 -388 0
-272 -389 0
-273 -390 0
-271 -457 0
-272 -458 0
-273 -459 0
-271 -568 0
-272 -569 0
-273 -570 0
-271 -574 0
-272 -575 0
-273 -576 0
-271 -658 0
-272 -659 0
-273 -660 0
-274 -619 0
-275 -620 0
-276 -621 0
-274 -1126 0
-275 -1127 0
-276 -1128 0
-277 -283 0
-278 -284 0
-279 -285 0
-277 -529 0
-278 -530 0
-279 -531 0
-277 -1063 0
-278 -1064 0
-279 -1065 0
-280 -337 0
-281 -338 0
-282 -339 0
-280 -436 0
-281 -437 0
-282 -438 0
-280 -577 0
-281 -578 0
-282 -579 0
-280 -649 0
-281 -650 0
-282 -651 0
-283 -325 0
-284 -326 0
-285 -327 0
-283 -682 0
-284 -683 0
-285 -684 0
-283 -766 0
-284 -767 0
-285 -768 0
-283 -1141 0
-284 -1142 0
-285 -1143 0
-286 -760 0
-287 -761 0
-288 -762 0
-286 -943 0
-287 -944 0
-288 -945 0
-286 -946 0
-287 -947 0
-288 -948 0
-286 -1078 0
-287 -1079 0
-288 -1080 0
-289 -499 0
-290 -500 0
-291 -501 0
-289 -640 0
-290 -641 0
-291 -642 0
-292 -379 0
-293 -380 0
-294 -381 0
-292 -526 0
-293 -527 0
-294 -528 0
-292 -937 0
-293 -938 0
-294 -939 0
-292 -943 0
-293 -944 0
-294 -945 0
-295 -844 0
-296 -845 0
-297 -846 0
-295 -919 0
-296 -920 0
-297 -921 0
-295 -1087 0
-296 -1088 0
-297 -1089 0
-298 -379 0
-299 -380 0
-300 -381 0
-298 -517 0
-299 -518 0
-300 -519 0
-298 -907 0
-299 -908 0
-300 -909 0
-298 -1162 0
-299 -1163 0
-300 -1164 0
-301 -481 0
-302 -482 0
-303 -483 0
-301 -1126 0
-302 -1127 0
-303 -1128 0
-301 -1192 0
-302 -1193 0
-303 -1194 0
-304 -532 0
-305 -533 0
-306 -534 0
-304 -652 0
-305 -653 0
-306 -654 0
-304 -703 0
-305 -704 0
-306 -705 0
-307 -631 0
-308 -632 0
-309 -633 0
-307 -826 0
-308 -827 0
-309 -828 0
-310 -361 0
-311 -362 0
-312 -363 0
-310 -1102 0
-311 -1103 0
-312 -1104 0
-313 -508 0
-314 -509 0
-315 -510 0
-313 -715 0
-314 -716 0
-315 -717 0
-313 -817 0
-314 -818 0
-315 -819 0
-313 -895 0
-314 -896 0
-315 -897 0
-313 -937 0
-314 -938 0
-315 -939 0
-316 -814 0
-317 -815 0
-318 -816 0
-316 -829 0
-317 -830 0
-318 -831 0
-316 -883 0
-317 -884 0
-318 -885 0
-316 -898 0
-317 -899 0
-318 -900 0
-316 -973 0
-317 -974 0
-318 -975 0
-316 -1036 0
-317 -1037 0
-318 -1038 0
-316 -1090 0
-317 -1091 0
-318 -1092 0
-319 -334 0
-320 -335 0
-321 -336 0
-319 -403 0
-320 -404 0
-321 -405 0
-319 -445 0
-320 -446 0
-321 -447 0
-319 -460 0
-320 -461 0
-321 -462 0
-322 -433 0
-323 -434 0
-324 -435 0
-322 -787 0
-323 -788 0
-324 -789 0
-322 -946 0
-323 -947 0
-324 -948 0
-322 -1078 0
-323 -1079 0
-324 -1080 0
-325 -532 0
-326 -533 0
-327 -534 0
-325 -643 0
-326 -644 0
-327 -645 0
-325 -697 0
-326 -698 0
-327 -699 0
-325 -1102 0
-326 -1103 0
-327 -1104 0
-325 -1165 0
-326 -1166 0
-327 -1167 0
-328 -397 0
-329 -398 0
-330 -399 0
-328 -508 0
-329 -509 0
-330 -510 0
-328 -667 0
-329 -668 0
-330 -669 0
-328 -742 0
-329 -743 0
-330 -744 0
-328 -805 0
-329 -806 0
-330 -807 0
-328 -901 0
-329 -902 0
-330 -903 0
-331 -943 0
-332 -944 0
-333 -945 0
-331 -1159 0
-332 -1160 0
-333 -1161 0
-331 -1192 0
-332 -1193 0
-333 -1194 0
-334 -499 0
-335 -500 0
-336 -501 0
-337 -526 0
-338 -527 0
-339 -528 0
-337 -718 0
-338 -719 0
-339 -720 0
-340 -439 0
-341 -440 0
-342 -441 0
-340 -463 0
-341 -464 0
-342 -465 0
-340 -571 0
-341 -572 0
-342 -573 0
-340 -673 0
-341 -674 0
-342 -675 0
-340 -778 0
-341 -779 0
-342 -780 0
-343 -361 0
-344 -362 0
-345 -363 0
-343 -466 0
-344 -467 0
-345 -468 0
-343 -856 0
-344 -857 0
-345 -858 0
-343 -1006 0
-344 -1007 0
-345 -1008 0
-349 -580 0
-350 -581 0
-351 -582 0
-349 -880 0
-350 -881 0
-351 -882 0
-349 -1012 0
-350 -1013 0
-351 -1014 0
-349 -1090 0
-350 -1091 0
-351 -1092 0
-352 -466 0
-353 -467 0
-354 -468 0
-352 -640 0
-353 -641 0
-354 -642 0
-352 -919 0
-353 -920 0
-354 -921 0
-355 -778 0
-356 -779 0
-357 -780 0
-355 -787 0
-356 -788 0
-357 -789 0
-355 -790 0
-356 -791 0
-357 -792 0
-355 -799 0
-356 -800 0
-357 -801 0
-355 -850 0
-356 -851 0
-357 -852 0
-355 -982 0
-356 -983 0
-357 -984 0
-358 -382 0
-359 -383 0
-360 -384 0
-358 -580 0
-359 -581 0
-360 -582 0
-358 -691 0
-359 -692 0
-360 -693 0
-358 -907 0
-359 -908 0
-360 -909 0
-358 -931 0
-359 -932 0
-360 -933 0
-358 -958 0
-359 -959 0
-360 -960 0
-361 -937 0
-362 -938 0
-363 -939 0
-361 -1174 0
-362 -1175 0
-363 -1176 0
-364 -937 0
-365 -938 0
-366 -939 0
-364 -952 0
-365 -953 0
-366 -954 0
-364 -976 0
-365 -977 0
-366 -978 0
-367 -517 0
-368 -518 0
-369 -519 0
-367 -1081 0
-368 -1082 0
-369 -1083 0
-370 -532 0
-371 -533 0
-372 -534 0
-370 -892 0
-371 -893 0
-372 -894 0
-373 -520 0
-374 -521 0
-375 -522 0
-373 -949 0
-374 -950 0
-375 -951 0
-373 -1060 0
-374 -1061 0
-375 -1062 0
-373 -1102 0
-374 -1103 0
-375 -1104 0
-376 -616 0
-377 -617 0
-378 -618 0
-376 -826 0
-377 -827 0
-378 -828 0
-379 -616 0
-380 -617 0
-381 -618 0
-379 -877 0
-380 -878 0
-381 -879 0
-379 -1027 0
-380 -1028 0
-381 -1029 0
-379 -1147 0
-380 -1148 0
-381 -1149 0
-382 -397 0
-383 -398 0
-384 -399 0
-385 -439 0
-386 -440 0
-387 -441 0
-385 -481 0
-386 -482 0
-387 -483 0
-385 -487 0
-386 -488 0
-387 -489 0
-385 -511 0
-386 -512 0
-387 -513 0
-385 -1156 0
-386 -1157 0
-387 -1158 0
-385 -1177 0
-386 -1178 0
-387 -1179 0
-388 -724 0
-389 -725 0
-390 -726 0
-388 -1018 0
-389 -1019 0
-390 -1020 0
-388 -1036 0
-389 -1037 0
-390 -1038 0
-391 -631 0
-392 -632 0
-393 -633 0
-391 -1186 0
-392 -1187 0
-393 -1188 0
-394 -571 0
-395 -572 0
-396 -573 0
-394 -595 0
-395 -596 0
-396 -597 0
-394 -598 0
-395 -599 0
-396 -600 0
-394 -745 0
-395 -746 0
-396 -747 0
-394 -751 0
-395 -752 0
-396 -753 0
-394 -1069 0
-395 -1070 0
-396 -1071 0
-394 -1156 0
-395 -1157 0
-396 -1158 0
-397 -403 0
-398 -404 0
-399 -405 0
-397 -448 0
-398 -449 0
-399 -450 0
-397 -718 0
-398 -719 0
-399 -720 0
-397 -733 0
-398 -734 0
-399 -735 0
-397 -1165 0
-398 -1166 0
-399 -1167 0
-400 -640 0
-401 -641 0
-402 -642 0
-400 -853 0
-401 -854 0
-402 -855 0
-400 -1051 0
-401 -1052 0
-402 -1053 0
-400 -1105 0
-401 -1106 0
-402 -1107 0
-400 -1186 0
-401 -1187 0
-402 -1188 0
-403 -844 0
-404 -845 0
-405 -846 0
-406 -712 0
-407 -713 0
-408 -714 0
-406 -844 0
-407 -845 0
-408 -846 0
-409 -550 0
-410 -551 0
-411 -552 0
-409 -835 0
-410 -836 0
-411 -837 0
-409 -1039 0
-410 -1040 0
-411 -1041 0
-409 -1105 0
-410 -1106 0
-411 -1107 0
-409 -1141 0
-410 -1142 0
-411 -1143 0
-412 -511 0
-413 -512 0
-414 -513 0
-412 -886 0
-413 -887 0
-414 -888 0
-412 -1027 0
-413 -1028 0
-414 -1029 0
-415 -934 0
-416 -935 0
-417 -936 0
-418 -703 0
-419 -704 0
-420 -705 0
-418 -721 0
-419 -722 0
-420 -723 0
-418 -889 0
-419 -890 0
-420 -891 0
-418 -1153 0
-419 -1154 0
-420 -1155 0
-421 -604 0
-422 -605 0
-423 -606 0
-421 -802 0
-422 -803 0
-423 -804 0
-421 -1144 0
-422 -1145 0
-423 -1146 0
-424 -568 0
-425 -569 0
-426 -570 0
-424 -583 0
-425 -584 0
-426 -585 0
-424 -1102 0
-425 -1103 0
-426 -1104 0
-427 -544 0
-428 -545 0
-429 -546 0
-427 -706 0
-428 -707 0
-429 -708 0
-430 -517 0
-431 -518 0
-432 -519 0
-430 -613 0
-431 -614 0
-432 -615 0
-430 -901 0
-431 -902 0
-432 -903 0
-430 -1033 0
-431 -1034 0
-432 -1035 0
-433 -475 0
-434 -476 0
-435 -477 0
-433 -1048 0
-434 -1049 0
-435 -1050 0
-436 -772 0
-437 -773 0
-438 -774 0
-436 -1117 0
-437 -1118 0
-438 -1119 0
-439 -460 0
-440 -461 0
-441 -462 0
-439 -490 0
-440 -491 0
-441 -492 0
-439 -502 0
-440 -503 0
-441 -504 0
-439 -547 0
-440 -548 0
-441 -549 0
-439 -604 0
-440 -605 0
-441 -606 0
-439 -910 0
-440 -911 0
-441 -912 0
-439 -1042 0
-440 -1043 0
-441 -1044 0
-442 -493 0
-443 -494 0
-444 -495 0
-442 -553 0
-443 -554 0
-444 -555 0
-442 -661 0
-443 -662 0
-444 -663 0
-442 -961 0
-443 -962 0
-444 -963 0
-445 -499 0
-446 -500 0
-447 -501 0
-445 -706 0
-446 -707 0
-447 -708 0
-445 -916 0
-446 -917 0
-447 -918 0
-445 -925 0
-446 -926 0
-447 -927 0
-448 -472 0
-449 -473 0
-450 -474 0
-448 -505 0
-449 -506 0
-450 -507 0
-448 -1084 0
-449 -1085 0
-450 -1086 0
-451 -1195 0
-452 -1196 0
-453 -1197 0
-454 -787 0
-455 -788 0
-456 -789 0
-454 -1030 0
-455 -1031 0
-456 -1032 0
-457 -481 0
-458 -482 0
-459 -483 0
-457 -532 0
-458 -533 0
-459 -534 0
-457 -646 0
-458 -647 0
-459 -648 0
-457 -709 0
-458 -710 0
-459 -711 0
-457 -814 0
-458 -815 0
-459 -816 0
-457 -1015 0
-458 -1016 0
-459 -1017 0
-457 -1024 0
-458 -1025 0
-459 -1026 0
-460 -496 0
-461 -497 0
-462 -498 0
-460 -568 0
-461 -569 0
-462 -570 0
-463 -631 0
-464 -632 0
-465 -633 0
-466 -523 0
-467 -524 0
-468 -525 0
-466 -622 0
-467 -623 0
-468 -624 0
-466 -976 0
-467 -977 0
-468 -978 0
-466 -997 0
-467 -998 0
-468 -999 0
-469 -700 0
-470 -701 0
-471 -702 0
-469 -736 0
-470 -737 0
-471 -738 0
-469 -757 0
-470 -758 0
-471 -759 0
-469 -877 0
-470 -878 0
-471 -879 0
-472 -745 0
-473 -746 0
-474 -747 0
-472 -871 0
-473 -872 0
-474 -873 0
-472 -1000 0
-473 -1001 0
-474 -1002 0
-472 -1171 0
-473 -1172 0
-474 -1173 0
-475 -754 0
-476 -755 0
-477 -756 0
-475 -961 0
-476 -962 0
-477 -963 0
-475 -1189 0
-476 -1190 0
-477 -1191 0
-478 -520 0
-479 -521 0
-480 -522 0
-478 -826 0
-479 -827 0
-480 -828 0
-478 -1132 0
-479 -1133 0
-480 -1134 0
-481 -706 0
-482 -707 0
-483 -708 0
-481 -718 0
-482 -719 0
-483 -720 0
-481 -889 0
-482 -890 0
-483 -891 0
-481 -1021 0
-482 -1022 0
-483 -1023 0
-481 -1099 0
-482 -1100 0
-483 -1101 0
-487 -556 0
-488 -557 0
-489 -558 0
-487 -886 0
-488 -887 0
-489 -888 0
-487 -1063 0
-488 -1064 0
-489 -1065 0
-490 -544 0
-491 -545 0
-492 -546 0
-490 -853 0
-491 -854 0
-492 -855 0
-493 -664 0
-494 -665 0
-495 -666 0
-493 -1102 0
-494 -1103 0
-495 -1104 0
-493 -1183 0
-494 -1184 0
-495 -1185 0
-496 -811 0
-497 -812 0
-498 -813 0
-496 -1135 0
-497 -1136 0
-498 -1137 0
-499 -586 0
-500 -587 0
-501 -588 0
-499 -622 0
-500 -623 0
-501 -624 0
-502 -601 0
-503 -602 0
-504 -603 0
-502 -805 0
-503 -806 0
-504 -807 0
-502 -862 0
-503 -863 0
-504 -864 0
-502 -880 0
-503 -881 0
-504 -882 0
-502 -922 0
-503 -923 0
-504 -924 0
-505 -910 0
-506 -911 0
-507 -912 0
-505 -937 0
-506 -938 0
-507 -939 0
-505 -1165 0
-506 -1166 0
-507 -1167 0
-508 -523 0
-509 -524 0
-510 -525 0
-508 -955 0
-509 -956 0
-510 -957 0
-508 -1135 0
-509 -1136 0
-510 -1137 0
-511 -517 0
-512 -518 0
-513 -519 0
-511 -541 0
-512 -542 0
-513 -543 0
-511 -658 0
-512 -659 0
-513 -660 0
-511 -694 0
-512 -695 0
-513 -696 0
-514 -742 0
-515 -743 0
-516 -744 0
-514 -754 0
-515 -755 0
-516 -756 0
-514 -1174 0
-515 -1175 0
-516 -1176 0
-517 -832 0
-518 -833 0
-519 -834 0
-517 -937 0
-518 -938 0
-519 -939 0
-520 -889 0
-521 -890 0
-522 -891 0
-520 -1072 0
-521 -1073 0
-522 -1074 0
-520 -1144 0
-521 -1145 0
-522 -1146 0
-523 -607 0
-524 -608 0
-525 -609 0
-523 -688 0
-524 -689 0
-525 -690 0
-523 -853 0
-524 -854 0
-525 -855 0
-523 -874 0
-524 -875 0
-525 -876 0
-523 -1045 0
-524 -1046 0
-525 -1047 0
-526 -697 0
-527 -698 0
-528 -699 0
-529 -766 0
-530 -767 0
-531 -768 0
-529 -790 0
-530 -791 0
-531 -792 0
-529 -1009 0
-530 -1010 0
-531 -1011 0
-529 -1159 0
-530 -1160 0
-531 -1161 0
-532 -712 0
-533 -713 0
-534 -714 0
-532 -817 0
-533 -818 0
-534 -819 0
-532 -964 0
-533 -965 0
-534 -966 0
-535 -613 0
-536 -614 0
-537 -615 0
-538 -589 0
-539 -590 0
-540 -591 0
-538 -787 0
-539 -788 0
-540 -789 0
-538 -1063 0
-539 -1064 0
-540 -1065 0
-538 -1093 0
-539 -1094 0
-540 -1095 0
-541 -763 0
-542 -764 0
-543 -765 0
-544 -571 0
-545 -572 0
-546 -573 0
-544 -625 0
-545 -626 0
-546 -627 0
-547 -694 0
-548 -695 0
-549 -696 0
-547 -1066 0
-548 -1067 0
-549 -1068 0
-547 -1159 0
-548 -1160 0
-549 -1161 0
-550 -781 0
-551 -782 0
-552 -783 0
-550 -1030 0
-551 -1031 0
-552 -1032 0
-550 -1099 0
-551 -1100 0
-552 -1101 0
-553 -868 0
-554 -869 0
-555 -870 0
-556 -742 0
-557 -743 0
-558 -744 0
-556 -853 0
-557 -854 0
-558 -855 0
-556 -1066 0
-557 -1067 0
-558 -1068 0
-556 -1081 0
-557 -1082 0
-558 -1083 0
-559 -826 0
-560 -827 0
-561 -828 0
-559 -829 0
-560 -830 0
-561 -831 0
-559 -1162 0
-560 -1163 0
-561 -1164 0
-562 -823 0
-563 -824 0
-564 -825 0
-568 -655 0
-569 -656 0
-570 -657 0
-571 -769 0
-572 -770 0
-573 -771 0
-571 -964 0
-572 -965 0
-573 -966 0
-574 -1000 0
-575 -1001 0
-576 -1002 0
-574 -1042 0
-575 -1043 0
-576 -1044 0
-577 -589 0
-578 -590 0
-579 -591 0
-580 -868 0
-581 -869 0
-582 -870 0
-580 -961 0
-581 -962 0
-582 -963 0
-580 -976 0
-581 -977 0
-582 -978 0
-586 -679 0
-587 -680 0
-588 -681 0
-586 -1084 0
-587 -1085 0
-588 -1086 0
-586 -1174 0
-587 -1175 0
-588 -1176 0
-589 -982 0
-590 -983 0
-591 -984 0
-589 -1105 0
-590 -1106 0
-591 -1107 0
-589 -1186 0
-590 -1187 0
-591 -1188 0
-592 -1078 0
-593 -1079 0
-594 -1080 0
-595 -961 0
-596 -962 0
-597 -963 0
-595 -1105 0
-596 -1106 0
-597 -1107 0
-598 -661 0
-599 -662 0
-600 -663 0
-601 -1165 0
-602 -1166 0
-603 -1167 0
-604 -634 0
-605 -635 0
-606 -636 0
-604 -967 0
-605 -968 0
-606 -969 0
-604 -1027 0
-605 -1028 0
-606 -1029 0
-607 -643 0
-608 -644 0
-609 -645 0
-607 -1000 0
-608 -1001 0
-609 -1002 0
-610 -826 0
-611 -827 0
-612 -828 0
-610 -1084 0
-611 -1085 0
-612 -1086 0
-613 -679 0
-614 -680 0
-615 -681 0
-619 -904 0
-620 -905 0
-621 -906 0
-619 -1093 0
-620 -1094 0
-621 -1095 0
-619 -1138 0
-620 -1139 0
-621 -1140 0
-622 -745 0
-623 -746 0
-624 -747 0
-622 -907 0
-623 -908 0
-624 -909 0
-625 -736 0
-626 -737 0
-627 -738 0
-628 -685 0
-629 -686 0
-630 -687 0
-628 -739 0
-629 -740 0
-630 -741 0
-628 -928 0
-629 -929 0
-630 -930 0
-628 -1111 0
-629 -1112 0
-630 -1113 0
-631 -721 0
-632 -722 0
-633 -723 0
-631 -724 0
-632 -725 0
-633 -726 0
-631 -1051 0
-632 -1052 0
-633 -1053 0
-631 -1159 0
-632 -1160 0
-633 -1161 0
-634 -649 0
-635 -650 0
-636 -651 0
-634 -1147 0
-635 -1148 0
-636 -1149 0
-634 -1174 0
-635 -1175 0
-636 -1176 0
-637 -1054 0
-638 -1055 0
-639 -1056 0
-637 -1093 0
-638 -1094 0
-639 -1095 0
-640 -769 0
-641 -770 0
-642 -771 0
-643 -1087 0
-644 -1088 0
-645 -1089 0
-646 -754 0
-647 -755 0
-648 -756 0
-646 -802 0
-647 -803 0
-648 -804 0
-646 -1153 0
-647 -1154 0
-648 -1155 0
-652 -697 0
-653 -698 0
-654 -699 0
-652 -871 0
-653 -872 0
-654 -873 0
-655 -673 0
-656 -674 0
-657 -675 0
-655 -826 0
-656 -827 0
-657 -828 0
-655 -1042 0
-656 -1043 0
-657 -1044 0
-658 -742 0
-659 -743 0
-660 -744 0
-661 -1003 0
-662 -1004 0
-663 -1005 0
-661 -1198 0
-662 -1199 0
-663 -1200 0
-664 -1048 0
-665 -1049 0
-666 -1050 0
-664 -1054 0
-665 -1055 0
-666 -1056 0
-667 -718 0
-668 -719 0
-669 -720 0
-667 -817 0
-668 -818 0
-669 -819 0
-667 -1036 0
-668 -1037 0
-669 -1038 0
-667 -1162 0
-668 -1163 0
-669 -1164 0
-670 -1165 0
-671 -1166 0
-672 -1167 0
-673 -862 0
-674 -863 0
-675 -864 0
-673 -874 0
-674 -875 0
-675 -876 0
-673 -1096 0
-674 -1097 0
-675 -1098 0
-673 -1123 0
-674 -1124 0
-675 -1125 0
-676 -985 0
-677 -986 0
-678 -987 0
-676 -1063 0
-677 -1064 0
-678 -1065 0
-676 -1075 0
-677 -1076 0
-678 -1077 0
-679 -718 0
-680 -719 0
-681 -720 0
-679 -775 0
-680 -776 0
-681 -777 0
-679 -1123 0
-680 -1124 0
-681 -1125 0
-682 -733 0
-683 -734 0
-684 -735 0
-682 -1054 0
-683 -1055 0
-684 -1056 0
-682 -1108 0
-683 -1109 0
-684 -1110 0
-685 -760 0
-686 -761 0
-687 -762 0
-685 -826 0
-686 -827 0
-687 -828 0
-685 -877 0
-686 -878 0
-687 -879 0
-685 -940 0
-686 -941 0
-687 -942 0
-685 -1087 0
-686 -1088 0
-687 -1089 0
-688 -775 0
-689 -776 0
-690 -777 0
-691 -757 0
-692 -758 0
-693 -759 0
-691 -772 0
-692 -773 0
-693 -774 0
-691 -1015 0
-692 -1016 0
-693 -1017 0
-694 -721 0
-695 -722 0
-696 -723 0
-694 -835 0
-695 -836 0
-696 -837 0
-694 -904 0
-695 -905 0
-696 -906 0
-694 -1012 0
-695 -1013 0
-696 -1014 0
-694 -1165 0
-695 -1166 0
-696 -1167 0
-697 -754 0
-698 -755 0
-699 -756 0
-697 -1099 0
-698 -1100 0
-699 -1101 0
-697 -1141 0
-698 -1142 0
-699 -1143 0
-706 -1177 0
-707 -1178 0
-708 -1179 0
-709 -742 0
-710 -743 0
-711 -744 0
-709 -1015 0
-710 -1016 0
-711 -1017 0
-712 -784 0
-713 -785 0
-714 -786 0
-712 -1177 0
-713 -1178 0
-714 -1179 0
-718 -817 0
-719 -818 0
-720 -819 0
-718 -871 0
-719 -872 0
-720 -873 0
-718 -973 0
-719 -974 0
-720 -975 0
-721 -874 0
-722 -875 0
-723 -876 0
-721 -958 0
-722 -959 0
-723 -960 0
-721 -1060 0
-722 -1061 0
-723 -1062 0
-724 -781 0
-725 -782 0
-726 -783 0
-724 -1021 0
-725 -1022 0
-726 -1023 0
-724 -1024 0
-725 -1025 0
-726 -1026 0
-727 -904 0
-728 -905 0
-729 -906 0
-733 -751 0
-734 -752 0
-735 -753 0
-736 -1015 0
-737 -1016 0
-738 -1017 0
-739 -967 0
-740 -968 0
-741 -969 0
-742 -1120 0
-743 -1121 0
-744 -1122 0
-745 -748 0
-746 -749 0
-747 -750 0
-745 -778 0
-746 -779 0
-747 -780 0
-745 -958 0
-746 -959 0
-747 -960 0
-748 -904 0
-749 -905 0
-750 -906 0
-748 -997 0
-749 -998 0
-750 -999 0
-751 -808 0
-752 -809 0
-753 -810 0
-754 -817 0
-755 -818 0
-756 -819 0
-754 -934 0
-755 -935 0
-756 -936 0
-754 -958 0
-755 -959 0
-756 -960 0
-754 -1024 0
-755 -1025 0
-756 -1026 0
-754 -1132 0
-755 -1133 0
-756 -1134 0
-757 -934 0
-758 -935 0
-759 -936 0
-757 -946 0
-758 -947 0
-759 -948 0
-760 -1153 0
-761 -1154 0
-762 -1155 0
-763 -892 0
-764 -893 0
-765 -894 0
-763 -961 0
-764 -962 0
-765 -963 0
-763 -988 0
-764 -989 0
-765 -990 0
-766 -808 0
-767 -809 0
-768 -810 0
-766 -934 0
-767 -935 0
-768 -936 0
-766 -985 0
-767 -986 0
-768 -987 0
-766 -1096 0
-767 -1097 0
-768 -1098 0
-769 -772 0
-770 -773 0
-771 -774 0
-769 -850 0
-770 -851 0
-771 -852 0
-772 -943 0
-773 -944 0
-774 -945 0
-775 -784 0
-776 -785 0
-777 -786 0
-778 -892 0
-779 -893 0
-780 -894 0
-778 -970 0
-779 -971 0
-780 -972 0
-778 -1090 0
-779 -1091 0
-780 -1092 0
-778 -1096 0
-779 -1097 0
-780 -1098 0
-778 -1177 0
-779 -1178 0
-780 -1179 0
-781 -817 0
-782 -818 0
-783 -819 0
-781 -1051 0
-782 -1052 0
-783 -1053 0
-781 -1114 0
-782 -1115 0
-783 -1116 0
-784 -820 0
-785 -821 0
-786 -822 0
-784 -1024 0
-785 -1025 0
-786 -1026 0
-784 -1198 0
-785 -1199 0
-786 -1200 0
-787 -1123 0
-788 -1124 0
-789 -1125 0
-790 -844 0
-791 -845 0
-792 -846 0
-793 -895 0
-794 -896 0
-795 -897 0
-796 -862 0
-797 -863 0
-798 -864 0
-796 -1156 0
-797 -1157 0
-798 -1158 0
-799 -826 0
-800 -827 0
-801 -828 0
-799 -937 0
-800 -938 0
-801 -939 0
-799 -946 0
-800 -947 0
-801 -948 0
-799 -1030 0
-800 -1031 0
-801 -1032 0
-799 -1039 0
-800 -1040 0
-801 -1041 0
-802 -838 0
-803 -839 0
-804 -840 0
-802 -1114 0
-803 -1115 0
-804 -1116 0
-811 -1060 0
-812 -1061 0
-813 -1062 0
-814 -928 0
-815 -929 0
-816 -930 0
-814 -1066 0
-815 -1067 0
-816 -1068 0
-817 -862 0
-818 -863 0
-819 -864 0
-820 -937 0
-821 -938 0
-822 -939 0
-820 -1144 0
-821 -1145 0
-822 -1146 0
-829 -988 0
-830 -989 0
-831 -990 0
-829 -1078 0
-830 -1079 0
-831 -1080 0
-832 -970 0
-833 -971 0
-834 -972 0
-832 -1054 0
-833 -1055 0
-834 -1056 0
-835 -1114 0
-836 -1115 0
-837 -1116 0
-838 -943 0
-839 -944 0
-840 -945 0
-838 -1177 0
-839 -1178 0
-840 -1179 0
-841 -1000 0
-842 -1001 0
-843 -1002 0
-841 -1084 0
-842 -1085 0
-843 -1086 0
-844 -1114 0
-845 -1115 0
-846 -1116 0
-847 -982 0
-848 -983 0
-849 -984 0
-847 -1096 0
-848 -1097 0
-849 -1098 0
-853 -1183 0
-854 -1184 0
-855 -1185 0
-856 -1135 0
-857 -1136 0
-858 -1137 0
-856 -1192 0
-857 -1193 0
-858 -1194 0
-865 -874 0
-866 -875 0
-867 -876 0
-865 -958 0
-866 -959 0
-867 -960 0
-865 -1057 0
-866 -1058 0
-867 -1059 0
-865 -1180 0
-866 -1181 0
-867 -1182 0
-868 -1108 0
-869 -1109 0
-870 -1110 0
-871 -1063 0
-872 -1064 0
-873 -1065 0
-871 -1108 0
-872 -1109 0
-873 -1110 0
-874 -1069 0
-875 -1070 0
-876 -1071 0
-874 -1096 0
-875 -1097 0
-876 -1098 0
-874 -1120 0
-875 -1121 0
-876 -1122 0
-877 -1054 0
-878 -1055 0
-879 -1056 0
-886 -892 0
-887 -893 0
-888 -894 0
-889 -1075 0
-890 -1076 0
-891 -1077 0
-889 -1186 0
-890 -1187 0
-891 -1188 0
-895 -958 0
-896 -959 0
-897 -960 0
-895 -1063 0
-896 -1064 0
-897 -1065 0
-898 -901 0
-899 -902 0
-900 -903 0
-898 -931 0
-899 -932 0
-900 -933 0
-910 -922 0
-911 -923 0
-912 -924 0
-913 -1192 0
-914 -1193 0
-915 -1194 0
-916 -1144 0
-917 -1145 0
-918 -1146 0
-919 -931 0
-920 -932 0
-921 -933 0
-919 -958 0
-920 -959 0
-921 -960 0
-922 -1093 0
-923 -1094 0
-924 -1095 0
-925 -1195 0
-926 -1196 0
-927 -1197 0
-928 -1087 0
-929 -1088 0
-930 -1089 0
-934 -1135 0
-935 -1136 0
-936 -1137 0
-937 -1045 0
-938 -1046 0
-939 -1047 0
-940 -1081 0
-941 -1082 0
-942 -1083 0
-943 -1063 0
-944 -1064 0
-945 -1065 0
-946 -1135 0
-947 -1136 0
-948 -1137 0
-946 -1138 0
-947 -1139 0
-948 -1140 0
-952 -1009 0
-953 -1010 0
-954 -1011 0
-955 -1015 0
-956 -1016 0
-957 -1017 0
-955 -1180 0
-956 -1181 0
-957 -1182 0
-958 -1108 0
-959 -1109 0
-960 -1110 0
-958 -1189 0
-959 -1190 0
-960 -1191 0
-961 -1192 0
-962 -1193 0
-963 -1194 0
-967 -1078 0
-968 -1079 0
-969 -1080 0
-967 -1198 0
-968 -1199 0
-969 -1200 0
-994 -1120 0
-995 -1121 0
-996 -1122 0
-1000 -1030 0
-1001 -1031 0
-1002 -1032 0
-1000 -1063 0
-1001 -1064 0
-1002 -1065 0
-1000 -1090 0
-1001 -1091 0
-1002 -1092 0
-1000 -1138 0
-1001 -1139 0
-1002 -1140 0
-1003 -1012 0
-1004 -1013 0
-1005 -1014 0
-1006 -1063 0
-1007 -1064 0
-1008 -1065 0
-1012 -1048 0
-1013 -1049 0
-1014 -1050 0
-1015 -1018 0
-1016 -1019 0
-1017 -1020 0
-1018 -1138 0
-1019 -1139 0
-1020 -1140 0
-1024 -1195 0
-1025 -1196 0
-1026 -1197 0
-1030 -1129 0
-1031 -1130 0
-1032 -1131 0
-1030 -1147 0
-1031 -1148 0
-1032 -1149 0
-1039 -1060 0
-1040 -1061 0
-1041 -1062 0
-1039 -1123 0
-1040 -1124 0
-1041 -1125 0
-1042 -1195 0
-1043 -1196 0
-1044 -1197 0
-1045 -1144 0
-1046 -1145 0
-1047 -1146 0
-1048 -1069 0
-1049 -1070 0
-1050 -1071 0
-1048 -1087 0
-1049 -1088 0
-1050 -1089 0
-1048 -1189 0
-1049 -1190 0
-1050 -1191 0
-1060 -1171 0
-1061 -1172 0
-1062 -1173 0
-1063 -1120 0
-1064 -1121 0
-1065 -1122 0
-1072 -1096 0
-1073 -1097 0
-1074 -1098 0
-1078 -1150 0
-1079 -1151 0
-1080 -1152 0
-1087 -1102 0
-1088 -1103 0
-1089 -1104 0
-1093 -1153 0
-1094 -1154 0
-1095 -1155 0
-1096 -1153 0
-1097 -1154 0
-1098 -1155 0
-1099 -1192 0
-1100 -1193 0
-1101 -1194 0
-1102 -1162 0
-1103 -1163 0
-1104 -1164 0
-1114 -1129 0
-1115 -1130 0
-1116 -1131 0
-1117 -1177 0
-1118 -1178 0
-1119 -1179 0
-1123 -1156 0
-1124 -1157 0
-1125 -1158 0
-1129 -1177 0
-1130 -1178 0
-1131 -1179 0
-1141 -1159 0
-1142 -1160 0
-1143 -1161 0
-1144 -1171 0
-1145 -1172 0
-1146 -1173 0
-1168 -1198 0
-1169 -1199 0
-1170 -1200 0
