p cnf 1200 4243
1 2 3 0
4 5 6 0
7 8 9 0
10 11 12 0
13 14 15 0
16 17 18 0
19 20 21 0
22 23 24 0
25 26 27 0
28 29 30 0
31 32 33 0
34 35 36 0
37 38 39 0
40 41 42 0
43 44 45 0
46 47 48 0
49 50 51 0
52 53 54 0
55 56 57 0
58 59 60 0
61 62 63 0
64 65 66 0
67 68 69 0
70 71 72 0
73 74 75 0
76 77 78 0
79 80 81 0
82 83 84 0
85 86 87 0
88 89 90 0
91 92 93 0
94 95 96 0
97 98 99 0
100 101 102 0
103 104 105 0
106 107 108 0
109 110 111 0
112 113 114 0
115 116 117 0
118 119 120 0
121 122 123 0
124 125 126 0
127 128 129 0
130 131 132 0
133 134 135 0
136 137 138 0
139 140 141 0
142 143 144 0
145 146 147 0
148 149 150 0
151 152 153 0
154 155 156 0
157 158 159 0
160 161 162 0
163 164 165 0
166 167 168 0
169 170 171 0
172 173 174 0
175 176 177 0
178 179 180 0
181 182 183 0
184 185 186 0
187 188 189 0
190 191 192 0
193 194 195 0
196 197 198 0
199 200 201 0
202 203 204 0
205 206 207 0
208 209 210 0
211 212 213 0
214 215 216 0
217 218 219 0
220 221 222 0
223 224 225 0
226 227 228 0
229 230 231 0
232 233 234 0
235 236 237 0
238 239 240 0
241 242 243 0
244 245 246 0
247 248 249 0
250 251 252 0
253 254 255 0
256 257 258 0
259 260 261 0
262 263 264 0
265 266 267 0
268 269 270 0
271 272 273 0
274 275 276 0
277 278 279 0
280 281 282 0
283 284 285 0
286 287 288 0
289 290 291 0
292 293 294 0
295 296 297 0
298 299 300 0
301 302 303 0
304 305 306 0
307 308 309 0
310 311 312 0
313 314 315 0
316 317 318 0
319 320 321 0
322 323 324 0
325 326 327 0
328 329 330 0
331 332 333 0
334 335 336 0
337 338 339 0
340 341 342 0
343 344 345 0
346 347 348 0
349 350 351 0
352 353 354 0
355 356 357 0
358 359 360 0
361 362 363 0
364 365 366 0
367 368 369 0
370 371 372 0
373 374 375 0
376 377 378 0
379 380 381 0
382 383 384 0
385 386 387 0
388 389 390 0
391 392 393 0
394 395 396 0
397 398 399 0
400 401 402 0
403 404 405 0
406 407 408 0
409 410 411 0
412 413 414 0
415 416 417 0
418 419 420 0
421 422 423 0
424 425 426 0
427 428 429 0
430 431 432 0
433 434 435 0
436 437 438 0
439 440 441 0
442 443 444 0
445 446 447 0
448 449 450 0
451 452 453 0
454 455 456 0
457 458 459 0
460 461 462 0
463 464 465 0
466 467 468 0
469 470 471 0
472 473 474 0
475 476 477 0
478 479 480 0
481 482 483 0
484 485 486 0
487 488 489 0
490 491 492 0
493 494 495 0
496 497 498 0
499 500 501 0
502 503 504 0
505 506 507 0
508 509 510 0
511 512 513 0
514 515 516 0
517 518 519 0
520 521 522 0
523 524 525 0
526 527 528 0
529 530 531 0
532 533 534 0
535 536 537 0
538 539 540 0
541 542 543 0
544 545 546 0
547 548 549 0
550 551 552 0
553 554 555 0
556 557 558 0
559 560 561 0
562 563 564 0
565 566 567 0
568 569 570 0
571 572 573 0
574 575 576 0
577 578 579 0
580 581 582 0
583 584 585 0
586 587 588 0
589 590 591 0
592 593 594 0
595 596 597 0
598 599 600 0
601 602 603 0
604 605 606 0
607 608 609 0
610 611 612 0
613 614 615 0
616 617 618 0
619 620 621 0
622 623 624 0
625 626 627 0
628 629 630 0
631 632 633 0
634 635 636 0
637 638 639 0
640 641 642 0
643 644 645 0
646 647 648 0
649 650 651 0
652 653 654 0
655 656 657 0
658 659 660 0
661 662 663 0
664 665 666 0
667 668 669 0
670 671 672 0
673 674 675 0
676 677 678 0
679 680 681 0
682 683 684 0
685 686 687 0
688 689 690 0
691 692 693 0
694 695 696 0
697 698 699 0
700 701 702 0
703 704 705 0
706 707 708 0
709 710 711 0
712 713 714 0
715 716 717 0
718 719 720 0
721 722 723 0
724 725 726 0
727 728 729 0
730 731 732 0
733 734 735 0
736 737 738 0
739 740 741 0
742 743 744 0
745 746 747 0
748 749 750 0
751 752 753 0
754 755 756 0
757 758 759 0
760 761 762 0
763 764 765 0
766 767 768 0
769 770 771 0
772 773 774 0
775 776 777 0
778 779 780 0
781 782 783 0
784 785 786 0
787 788 789 0
790 791 792 0
793 794 795 0
796 797 798 0
799 800 801 0
802 803 804 0
805 806 807 0
808 809 810 0
811 812 813 0
814 815 816 0
817 818 819 0
820 821 822 0
823 824 825 0
826 827 828 0
829 830 831 0
832 833 834 0
835 836 837 0
838 839 840 0
841 842 843 0
844 845 846 0
847 848 849 0
850 851 852 0
853 854 855 0
856 857 858 0
859 860 861 0
862 863 864 0
865 866 867 0
868 869 870 0
871 872 873 0
874 875 876 0
877 878 879 0
880 881 882 0
883 884 885 0
886 887 888 0
889 890 891 0
892 893 894 0
895 896 897 0
898 899 900 0
901 902 903 0
904 905 906 0
907 908 909 0
910 911 912 0
913 914 915 0
916 917 918 0
919 920 921 0
922 923 924 0
925 926 927 0
928 929 930 0
931 932 933 0
934 935 936 0
937 938 939 0
940 941 942 0
943 944 945 0
946 947 948 0
949 950 951 0
952 953 954 0
955 956 957 0
958 959 960 0
961 962 963 0
964 965 966 0
967 968 969 0
970 971 972 0
973 974 975 0
976 977 978 0
979 980 981 0
982 983 984 0
985 986 987 0
988 989 990 0
991 992 993 0
994 995 996 0
997 998 999 0
1000 1001 1002 0
1003 1004 1005 0
1006 1007 1008 0
1009 1010 1011 0
1012 1013 1014 0
1015 1016 1017 0
1018 1019 1020 0
1021 1022 1023 0
1024 1025 1026 0
1027 1028 1029 0
1030 1031 1032 0
1033 1034 1035 0
1036 1037 1038 0
1039 1040 1041 0
1042 1043 1044 0
1045 1046 1047 0
1048 1049 1050 0
1051 1052 1053 0
1054 1055 1056 0
1057 1058 1059 0
1060 1061 1062 0
1063 1064 1065 0
1066 1067 1068 0
1069 1070 1071 0
1072 1073 1074 0
1075 1076 1077 0
1078 1079 1080 0
1081 1082 1083 0
1084 1085 1086 0
1087 1088 1089 0
1090 1091 1092 0
1093 1094 1095 0
1096 1097 1098 0
1099 1100 1101 0
1102 1103 1104 0
1105 1106 1107 0
1108 1109 1110 0
1111 1112 1113 0
1114 1115 1116 0
1117 1118 1119 0
1120 1121 1122 0
1123 1124 1125 0
1126 1127 1128 0
1129 1130 1131 0
1132 1133 1134 0
1135 1136 1137 0
1138 1139 1140 0
1141 1142 1143 0
1144 1145 1146 0
1147 1148 1149 0
1150 1151 1152 0
1153 1154 1155 0
1156 1157 1158 0
1159 1160 1161 0
1162 1163 1164 0
1165 1166 1167 0
1168 1169 1170 0
1171 1172 1173 0
1174 1175 1176 0
1177 1178 1179 0
1180 1181 1182 0
1183 1184 1185 0
1186 1187 1188 0
1189 1190 1191 0
1192 1193 1194 0
1195 1196 1197 0
1198 1199 1200 0
-1 -2 0
-1 -3 0
-2 -3 0
-4 -5 0
-4 -6 0
-5 -6 0
-7 -8 0
-7 -9 0
-8 -9 0
-10 -11 0
-10 -12 0
-11 -12 0
-13 -14 0
-13 -15 0
-14 -15 0
-16 -17 0
-16 -18 0
-17 -18 0
-19 -20 0
-19 -21 0
-20 -21 0
-22 -23 0
-22 -24 0
-23 -24 0
-25 -26 0
-25 -27 0
-26 -27 0
-28 -29 0
-28 -30 0
-29 -30 0
-31 -32 0
-31 -33 0
-32 -33 0
-34 -35 0
-34 -36 0
-35 -36 0
-37 -38 0
-37 -39 0
-38 -39 0
-40 -41 0
-40 -42 0
-41 -42 0
-43 -44 0
-43 -45 0
-44 -45 0
-46 -47 0
-46 -48 0
-47 -48 0
-49 -50 0
-49 -51 0
-50 -51 0
-52 -53 0
-52 -54 0
-53 -54 0
-55 -56 0
-55 -57 0
-56 -57 0
-58 -59 0
-58 -60 0
-59 -60 0
-61 -62 0
-61 -63 0
-62 -63 0
-64 -65 0
-64 -66 0
-65 -66 0
-67 -68 0
-67 -69 0
-68 -69 0
-70 -71 0
-70 -72 0
-71 -72 0
-73 -74 0
-73 -75 0
-74 -75 0
-76 -77 0
-76 -78 0
-77 -78 0
-79 -80 0
-79 -81 0
-80 -81 0
-82 -83 0
-82 -84 0
-83 -84 0
-85 -86 0
-85 -87 0
-86 -87 0
-88 -89 0
-88 -90 0
-89 -90 0
-91 -92 0
-91 -93 0
-92 -93 0
-94 -95 0
-94 -96 0
-95 -96 0
-97 -98 0
-97 -99 0
-98 -99 0
-100 -101 0
-100 -102 0
-101 -102 0
-103 -104 0
-103 -105 0
-104 -105 0
-106 -107 0
-106 -108 0
-107 -108 0
-109 -110 0
-109 -111 0
-110 -111 0
-112 -113 0
-112 -114 0
-113 -114 0
-115 -116 0
-115 -117 0
-116 -117 0
-118 -119 0
-118 -120 0
-119 -120 0
-121 -122 0
-121 -123 0
-122 -123 0
-124 -125 0
-124 -126 0
-125 -126 0
-127 -128 0
-127 -129 0
-128 -129 0
-130 -131 0
-130 -132 0
-131 -132 0
-133 -134 0
-133 -135 0
-134 -135 0
-136 -137 0
-136 -138 0
-137 -138 0
-139 -140 0
-139 -141 0
-140 -141 0
-142 -143 0
-142 -144 0
-143 -144 0
-145 -146 0
-145 -147 0
-146 -147 0
-148 -149 0
-148 -150 0
-149 -150 0
-151 -152 0
-151 -153 0
-152 -153 0
-154 -155 0
-154 -156 0
-155 -156 0
-157 -158 0
-157 -159 0
-158 -159 0
-160 -161 0
-160 -162 0
-161 -162 0
-163 -164 0
-163 -165 0
-164 -165 0
-166 -167 0
-166 -168 0
-167 -168 0
-169 -170 0
-169 -171 0
-170 -171 0
-172 -173 0
-172 -174 0
-173 -174 0
-175 -176 0
-175 -177 0
-176 -177 0
-178 -179 0
-178 -180 0
-179 -180 0
-181 -182 0
-181 -183 0
-182 -183 0
-184 -185 0
-184 -186 0
-185 -186 0
-187 -188 0
-187 -189 0
-188 -189 0
-190 -191 0
-190 -192 0
-191 -192 0
-193 -194 0
-193 -195 0
-194 -195 0
-196 -197 0
-196 -198 0
-197 -198 0
-199 -200 0
-199 -201 0
-200 -201 0
-202 -203 0
-202 -204 0
-203 -204 0
-205 -206 0
-205 -207 0
-206 -207 0
-208 -209 0
-208 -210 0
-209 -210 0
-211 -212 0
-211 -213 0
-212 -213 0
-214 -215 0
-214 -216 0
-215 -216 0
-217 -218 0
-217 -219 0
-218 -219 0
-220 -221 0
-220 -222 0
-221 -222 0
-223 -224 0
-223 -225 0
-224 -225 0
-226 -227 0
-226 -228 0
-227 -228 0
-229 -230 0
-229 -231 0
-230 -231 0
-232 -233 0
-232 -234 0
-233 -234 0
-235 -236 0
-235 -237 0
-236 -237 0
-238 -239 0
-238 -240 0
-239 -240 0
-241 -242 0
-241 -243 0
-242 -243 0
-244 -245 0
-244 -246 0
-245 -246 0
-247 -248 0
-247 -249 0
-248 -249 0
-250 -251 0
-250 -252 0
-251 -252 0
-253 -254 0
-253 -255 0
-254 -255 0
-256 -257 0
-256 -258 0
-257 -258 0
-259 -260 0
-259 -261 0
-260 -261 0
-262 -263 0
-262 -264 0
-263 -264 0
-265 -266 0
-265 -267 0
-266 -267 0
-268 -269 0
-268 -270 0
-269 -270 0
-271 -272 0
-271 -273 0
-272 -273 0
-274 -275 0
-274 -276 0
-275 -276 0
-277 -278 0
-277 -279 0
-278 -279 0
-280 -281 0
-280 -282 0
-281 -282 0
-283 -284 0
-283 -285 0
-284 -285 0
-286 -287 0
-286 -288 0
-287 -288 0
-289 -290 0
-289 -291 0
-290 -291 0
-292 -293 0
-292 -294 0
-293 -294 0
-295 -296 0
-295 -297 0
-296 -297 0
-298 -299 0
-298 -300 0
-299 -300 0
-301 -302 0
-301 -303 0
-302 -303 0
-304 -305 0
-304 -306 0
-305 -306 0
-307 -308 0
-307 -309 0
-308 -309 0
-310 -311 0
-310 -312 0
-311 -312 0
-313 -314 0
-313 -315 0
-314 -315 0
-316 -317 0
-316 -318 0
-317 -318 0
-319 -320 0
-319 -321 0
-320 -321 0
-322 -323 0
-322 -324 0
-323 -324 0
-325 -326 0
-325 -327 0
-326 -327 0
-328 -329 0
-328 -330 0
-329 -330 0
-331 -332 0
-331 -333 0
-332 -333 0
-334 -335 0
-334 -336 0
-335 -336 0
-337 -338 0
-337 -339 0
-338 -339 0
-340 -341 0
-340 -342 0
-341 -342 0
-343 -344 0
-343 -345 0
-344 -345 0
-346 -347 0
-346 -348 0
-347 -348 0
-349 -350 0
-349 -351 0
-350 -351 0
-352 -353 0
-352 -354 0
-353 -354 0
-355 -356 0
-355 -357 0
-356 -357 0
-358 -359 0
-358 -360 0
-359 -360 0
-361 -362 0
-361 -363 0
-362 -363 0
-364 -365 0
-364 -366 0
-365 -366 0
-367 -368 0
-367 -369 0
-368 -369 0
-370 -371 0
-370 -372 0
-371 -372 0
-373 -374 0
-373 -375 0
-374 -375 0
-376 -377 0
-376 -378 0
-377 -378 0
-379 -380 0
-379 -381 0
-380 -381 0
-382 -383 0
-382 -384 0
-383 -384 0
-385 -386 0
-385 -387 0
-386 -387 0
-388 -389 0
-388 -390 0
-389 -390 0
-391 -392 0
-391 -393 0
-392 -393 0
-394 -395 0
-394 -396 0
-395 -396 0
-397 -398 0
-397 -399 0
-398 -399 0
-400 -401 0
-400 -402 0
-401 -402 0
-403 -404 0
-403 -405 0
-404 -405 0
-406 -407 0
-406 -408 0
-407 -408 0
-409 -410 0
-409 -411 0
-410 -411 0
-412 -413 0
-412 -414 0
-413 -414 0
-415 -416 0
-415 -417 0
-416 -417 0
-418 -419 0
-418 -420 0
-419 -420 0
-421 -422 0
-421 -423 0
-422 -423 0
-424 -425 0
-424 -426 0
-425 -426 0
-427 -428 0
-427 -429 0
-428 -429 0
-430 -431 0
-430 -432 0
-431 -432 0
-433 -434 0
-433 -435 0
-434 -435 0
-436 -437 0
-436 -438 0
-437 -438 0
-439 -440 0
-439 -441 0
-440 -441 0
-442 -443 0
-442 -444 0
-443 -444 0
-445 -446 0
-445 -447 0
-446 -447 0
-448 -449 0
-448 -450 0
-449 -450 0
-451 -452 0
-451 -453 0
-452 -453 0
-454 -455 0
-454 -456 0
-455 -456 0
-457 -458 0
-457 -459 0
-458 -459 0
-460 -461 0
-460 -462 0
-461 -462 0
-463 -464 0
-463 -465 0
-464 -465 0
-466 -467 0
-466 -468 0
-467 -468 0
-469 -470 0
-469 -471 0
-470 -471 0
-472 -473 0
-472 -474 0
-473 -474 0
-475 -476 0
-475 -477 0
-476 -477 0
-478 -479 0
-478 -480 0
-479 -480 0
-481 -482 0
-481 -483 0
-482 -483 0
-484 -485 0
-484 -486 0
-485 -486 0
-487 -488 0
-487 -489 0
-488 -489 0
-490 -491 0
-490 -492 0
-491 -492 0
-493 -494 0
-493 -495 0
-494 -495 0
-496 -497 0
-496 -498 0
-497 -498 0
-499 -500 0
-499 -501 0
-500 -501 0
-502 -503 0
-502 -504 0
-503 -504 0
-505 -506 0
-505 -507 0
-506 -507 0
-508 -509 0
-508 -510 0
-509 -510 0
-511 -512 0
-511 -513 0
-512 -513 0
-514 -515 0
-514 -516 0
-515 -516 0
-517 -518 0
-517 -519 0
-518 -519 0
-520 -521 0
-520 -522 0
-521 -522 0
-523 -524 0
-523 -525 0
-524 -525 0
-526 -527 0
-526 -528 0
-527 -528 0
-529 -530 0
-529 -531 0
-530 -531 0
-532 -533 0
-532 -534 0
-533 -534 0
-535 -536 0
-535 -537 0
-536 -537 0
-538 -539 0
-538 -540 0
-539 -540 0
-541 -542 0
-541 -543 0
-542 -543 0
-544 -545 0
-544 -546 0
-545 -546 0
-547 -548 0
-547 -549 0
-548 -549 0
-550 -551 0
-550 -552 0
-551 -552 0
-553 -554 0
-553 -555 0
-554 -555 0
-556 -557 0
-556 -558 0
-557 -558 0
-559 -560 0
-559 -561 0
-560 -561 0
-562 -563 0
-562 -564 0
-563 -564 0
-565 -566 0
-565 -567 0
-566 -567 0
-568 -569 0
-568 -570 0
-569 -570 0
-571 -572 0
-571 -573 0
-572 -573 0
-574 -575 0
-574 -576 0
-575 -576 0
-577 -578 0
-577 -579 0
-578 -579 0
-580 -581 0
-580 -582 0
-581 -582 0
-583 -584 0
-583 -585 0
-584 -585 0
-586 -587 0
-586 -588 0
-587 -588 0
-589 -590 0
-589 -591 0
-590 -591 0
-592 -593 0
-592 -594 0
-593 -594 0
-595 -596 0
-595 -597 0
-596 -597 0
-598 -599 0
-598 -600 0
-599 -600 0
-601 -602 0
-601 -603 0
-602 -603 0
-604 -605 0
-604 -606 0
-605 -606 0
-607 -608 0
-607 -609 0
-608 -609 0
-610 -611 0
-610 -612 0
-611 -612 0
-613 -614 0
-613 -615 0
-614 -615 0
-616 -617 0
-616 -618 0
-617 -618 0
-619 -620 0
-619 -621 0
-620 -621 0
-622 -623 0
-622 -624 0
-623 -624 0
-625 -626 0
-625 -627 0
-626 -627 0
-628 -629 0
-628 -630 0
-629 -630 0
-631 -632 0
-631 -633 0
-632 -633 0
-634 -635 0
-634 -636 0
-635 -636 0
-637 -638 0
-637 -639 0
-638 -639 0
-640 -641 0
-640 -642 0
-641 -642 0
-643 -644 0
-643 -645 0
-644 -645 0
-646 -647 0
-646 -648 0
-647 -648 0
-649 -650 0
-649 -651 0
-650 -651 0
-652 -653 0
-652 -654 0
-653 -654 0
-655 -656 0
-655 -657 0
-656 -657 0
-658 -659 0
-658 -660 0
-659 -660 0
-661 -662 0
-661 -663 0
-662 -663 0
-664 -665 0
-664 -666 0
-665 -666 0
-667 -668 0
-667 -669 0
-668 -669 0
-670 -671 0
-670 -672 0
-671 -672 0
-673 -674 0
-673 -675 0
-674 -675 0
-676 -677 0
-676 -678 0
-677 -678 0
-679 -680 0
-679 -681 0
-680 -681 0
-682 -683 0
-682 -684 0
-683 -684 0
-685 -686 0
-685 -687 0
-686 -687 0
-688 -689 0
-688 -690 0
-689 -690 0
-691 -692 0
-691 -693 0
-692 -693 0
-694 -695 0
-694 -696 0
-695 -696 0
-697 -698 0
-697 -699 0
-698 -699 0
-700 -701 0
-700 -702 0
-701 -702 0
-703 -704 0
-703 -705 0
-704 -705 0
-706 -707 0
-706 -708 0
-707 -708 0
-709 -710 0
-709 -711 0
-710 -711 0
-712 -713 0
-712 -714 0
-713 -714 0
-715 -716 0
-715 -717 0
-716 -717 0
-718 -719 0
-718 -720 0
-719 -720 0
-721 -722 0
-721 -723 0
-722 -723 0
-724 -725 0
-724 -726 0
-725 -726 0
-727 -728 0
-727 -729 0
-728 -729 0
-730 -731 0
-730 -732 0
-731 -732 0
-733 -734 0
-733 -735 0
-734 -735 0
-736 -737 0
-736 -738 0
-737 -738 0
-739 -740 0
-739 -741 0
-740 -741 0
-742 -743 0
-742 -744 0
-743 -744 0
-745 -746 0
-745 -747 0
-746 -747 0
-748 -749 0
-748 -750 0
-749 -750 0
-751 -752 0
-751 -753 0
-752 -753 0
-754 -755 0
-754 -756 0
-755 -756 0
-757 -758 0
-757 -759 0
-758 -759 0
-760 -761 0
-760 -762 0
-761 -762 0
-763 -764 0
-763 -765 0
-764 -765 0
-766 -767 0
-766 -768 0
-767 -768 0
-769 -770 0
-769 -771 0
-770 -771 0
-772 -773 0
-772 -774 0
-773 -774 0
-775 -776 0
-775 -777 0
-776 -777 0
-778 -779 0
-778 -780 0
-779 -780 0
-781 -782 0
-781 -783 0
-782 -783 0
-784 -785 0
-784 -786 0
-785 -786 0
-787 -788 0
-787 -789 0
-788 -789 0
-790 -791 0
-790 -792 0
-791 -792 0
-793 -794 0
-793 -795 0
-794 -795 0
-796 -797 0
-796 -798 0
-797 -798 0
-799 -800 0
-799 -801 0
-800 -801 0
-802 -803 0
-802 -804 0
-803 -804 0
-805 -806 0
-805 -807 0
-806 -807 0
-808 -809 0
-808 -810 0
-809 -810 0
-811 -812 0
-811 -813 0
-812 -813 0
-814 -815 0
-814 -816 0
-815 -816 0
-817 -818 0
-817 -819 0
-818 -819 0
-820 -821 0
-820 -822 0
-821 -822 0
-823 -824 0
-823 -825 0
-824 -825 0
-826 -827 0
-826 -828 0
-827 -828 0
-829 -830 0
-829 -831 0
-830 -831 0
-832 -833 0
-832 -834 0
-833 -834 0
-835 -836 0
-835 -837 0
-836 -837 0
-838 -839 0
-838 -840 0
-839 -840 0
-841 -842 0
-841 -843 0
-842 -843 0
-844 -845 0
-844 -846 0
-845 -846 0
-847 -848 0
-847 -849 0
-848 -849 0
-850 -851 0
-850 -852 0
-851 -852 0
-853 -854 0
-853 -855 0
-854 -855 0
-856 -857 0
-856 -858 0
-857 -858 0
-859 -860 0
-859 -861 0
-860 -861 0
-862 -863 0
-862 -864 0
-863 -864 0
-865 -866 0
-865 -867 0
-866 -867 0
-868 -869 0
-868 -870 0
-869 -870 0
-871 -872 0
-871 -873 0
-872 -873 0
-874 -875 0
-874 -876 0
-875 -876 0
-877 -878 0
-877 -879 0
-878 -879 0
-880 -881 0
-880 -882 0
-881 -882 0
-883 -884 0
-883 -885 0
-884 -885 0
-886 -887 0
-886 -888 0
-887 -888 0
-889 -890 0
-889 -891 0
-890 -891 0
-892 -893 0
-892 -894 0
-893 -894 0
-895 -896 0
-895 -897 0
-896 -897 0
-898 -899 0
-898 -900 0
-899 -900 0
-901 -902 0
-901 -903 0
-902 -903 0
-904 -905 0
-904 -906 0
-905 -906 0
-907 -908 0
-907 -909 0
-908 -909 0
-910 -911 0
-910 -912 0
-911 -912 0
-913 -914 0
-913 -915 0
-914 -915 0
-916 -917 0
-916 -918 0
-917 -918 0
-919 -920 0
-919 -921 0
-920 -921 0
-922 -923 0
-922 -924 0
-923 -924 0
-925 -926 0
-925 -927 0
-926 -927 0
-928 -929 0
-928 -930 0
-929 -930 0
-931 -932 0
-931 -933 0
-932 -933 0
-934 -935 0
-934 -936 0
-935 -936 0
-937 -938 0
-937 -939 0
-938 -939 0
-940 -941 0
-940 -942 0
-941 -942 0
-943 -944 0
-943 -945 0
-944 -945 0
-946 -947 0
-946 -948 0
-947 -948 0
-949 -950 0
-949 -951 0
-950 -951 0
-952 -953 0
-952 -954 0
-953 -954 0
-955 -956 0
-955 -957 0
-956 -957 0
-958 -959 0
-958 -960 0
-959 -960 0
-961 -962 0
-961 -963 0
-962 -963 0
-964 -965 0
-964 -966 0
-965 -966 0
-967 -968 0
-967 -969 0
-968 -969 0
-970 -971 0
-970 -972 0
-971 -972 0
-973 -974 0
-973 -975 0
-974 -975 0
-976 -977 0
-976 -978 0
-977 -978 0
-979 -980 0
-979 -981 0
-980 -981 0
-982 -983 0
-982 -984 0
-983 -984 0
-985 -986 0
-985 -987 0
-986 -987 0
-988 -989 0
-988 -990 0
-989 -990 0
-991 -992 0
-991 -993 0
-992 -993 0
-994 -995 0
-994 -996 0
-995 -996 0
-997 -998 0
-997 -999 0
-998 -999 0
-1000 -1001 0
-1000 -1002 0
-1001 -1002 0
-1003 -1004 0
-1003 -1005 0
-1004 -1005 0
-1006 -1007 0
-1006 -1008 0
-1007 -1008 0
-1009 -1010 0
-1009 -1011 0
-1010 -1011 0
-1012 -1013 0
-1012 -1014 0
-1013 -1014 0
-1015 -1016 0
-1015 -1017 0
-1016 -1017 0
-1018 -1019 0
-1018 -1020 0
-1019 -1020 0
-1021 -1022 0
-1021 -1023 0
-1022 -1023 0
-1024 -1025 0
-1024 -1026 0
-1025 -1026 0
-1027 -1028 0
-1027 -1029 0
-1028 -1029 0
-1030 -1031 0
-1030 -1032 0
-1031 -1032 0
-1033 -1034 0
-1033 -1035 0
-1034 -1035 0
-1036 -1037 0
-1036 -1038 0
-1037 -1038 0
-1039 -1040 0
-1039 -1041 0
-1040 -1041 0
-1042 -1043 0
-1042 -1044 0
-1043 -1044 0
-1045 -1046 0
-1045 -1047 0
-1046 -1047 0
-1048 -1049 0
-1048 -1050 0
-1049 -1050 0
-1051 -1052 0
-1051 -1053 0
-1052 -1053 0
-1054 -1055 0
-1054 -1056 0
-1055 -1056 0
-1057 -1058 0
-1057 -1059 0
-1058 -1059 0
-1060 -1061 0
-1060 -1062 0
-1061 -1062 0
-1063 -1064 0
-1063 -1065 0
-1064 -1065 0
-1066 -1067 0
-1066 -1068 0
-1067 -1068 0
-1069 -1070 0
-1069 -1071 0
-1070 -1071 0
-1072 -1073 0
-1072 -1074 0
-1073 -1074 0
-1075 -1076 0
-1075 -1077 0
-1076 -1077 0
-1078 -1079 0
-1078 -1080 0
-1079 -1080 0
-1081 -1082 0
-1081 -1083 0
-1082 -1083 0
-1084 -1085 0
-1084 -1086 0
-1085 -1086 0
-1087 -1088 0
-1087 -1089 0
-1088 -1089 0
-1090 -1091 0
-1090 -1092 0
-1091 -1092 0
-1093 -1094 0
-1093 -1095 0
-1094 -1095 0
-1096 -1097 0
-1096 -1098 0
-1097 -1098 0
-1099 -1100 0
-1099 -1101 0
-1100 -1101 0
-1102 -1103 0
-1102 -1104 0
-1103 -1104 0
-1105 -1106 0
-1105 -1107 0
-1106 -1107 0
-1108 -1109 0
-1108 -1110 0
-1109 -1110 0
-1111 -1112 0
-1111 -1113 0
-1112 -1113 0
-1114 -1115 0
-1114 -1116 0
-1115 -1116 0
-1117 -1118 0
-1117 -1119 0
-1118 -1119 0
-1120 -1121 0
-1120 -1122 0
-1121 -1122 0
-1123 -1124 0
-1123 -1125 0
-1124 -1125 0
-1126 -1127 0
-1126 -1128 0
-1127 -1128 0
-1129 -1130 0
-1129 -1131 0
-1130 -1131 0
-1132 -1133 0
-1132 -1134 0
-1133 -1134 0
-1135 -1136 0
-1135 -1137 0
-1136 -1137 0
-1138 -1139 0
-1138 -1140 0
-1139 -1140 0
-1141 -1142 0
-1141 -1143 0
-1142 -1143 0
-1144 -1145 0
-1144 -1146 0
-1145 -1146 0
-1147 -1148 0
-1147 -1149 0
-1148 -1149 0
-1150 -1151 0
-1150 -1152 0
-1151 -1152 0
-1153 -1154 0
-1153 -1155 0
-1154 -1155 0
-1156 -1157 0
-1156 -1158 0
-1157 -1158 0
-1159 -1160 0
-1159 -1161 0
-1160 -1161 0
-1162 -1163 0
-1162 -1164 0
-1163 -1164 0
-1165 -1166 0
-1165 -1167 0
-1166 -1167 0
-1168 -1169 0
-1168 -1170 0
-1169 -1170 0
-1171 -1172 0
-1171 -1173 0
-1172 -1173 0
-1174 -1175 0
-1174 -1176 0
-1175 -1176 0
-1177 -1178 0
-1177 -1179 0
-1178 -1179 0
-1180 -1181 0
-1180 -1182 0
-1181 -1182 0
-1183 -1184 0
-1183 -1185 0
-1184 -1185 0
-1186 -1187 0
-1186 -1188 0
-1187 -1188 0
-1189 -1190 0
-1189 -1191 0
-1190 -1191 0
-1192 -1193 0
-1192 -1194 0
-1193 -1194 0
-1195 -1196 0
-1195 -1197 0
-1196 -1197 0
-1198 -1199 0
-1198 -1200 0
-1199 -1200 0
-1 -466 0
-2 -467 0
-3 -468 0
-1 -931 0
-2 -932 0
-3 -933 0
-1 -934 0
-2 -935 0
-3 -936 0
-4 -268 0
-5 -269 0
-6 -270 0
-4 -1066 0
-5 -1067 0
-6 -1068 0
-4 -1141 0
-5 -1142 0
-6 -1143 0
-7 -166 0
-8 -167 0
-9 -168 0
-7 -865 0
-8 -866 0
-9 -867 0
-7 -1033 0
-8 -1034 0
-9 -1035 0
-7 -1054 0
-8 -1055 0
-9 -1056 0
-7 -1105 0
-8 -1106 0
-9 -1107 0
-10 -22 0
-11 -23 0
-12 -24 0
-10 -79 0
-11 -80 0
-12 -81 0
-10 -160 0
-11 -161 0
-12 -162 0
-10 -472 0
-11 -473 0
-12 -474 0
-10 -808 0
-11 -809 0
-12 -810 0
-10 -1159 0
-11 -1160 0
-12 -1161 0
-13 -25 0
-14 -26 0
-15 -27 0
-13 -118 0
-14 -119 0
-15 -120 0
-13 -166 0
-14 -167 0
-15 -168 0
-13 -451 0
-14 -452 0
-15 -453 0
-13 -481 0
-14 -482 0
-15 -483 0
-13 -556 0
-14 -557 0
-15 -558 0
-13 -634 0
-14 -635 0
-15 -636 0
-13 -721 0
-14 -722 0
-15 -723 0
-16 -784 0
-17 -785 0
-18 -786 0
-19 -343 0
-20 -344 0
-21 -345 0
-19 -973 0
-20 -974 0
-21 -975 0
-19 -1171 0
-20 -1172 0
-21 -1173 0
-22 -25 0
-23 -26 0
-24 -27 0
-22 -76 0
-23 -77 0
-24 -78 0
-22 -526 0
-23 -527 0
-24 -528 0
-22 -628 0
-23 -629 0
-24 -630 0
-22 -691 0
-23 -692 0
-24 -693 0
-25 -385 0
-26 -386 0
-27 -387 0
-25 -625 0
-26 -626 0
-27 -627 0
-25 -682 0
-26 -683 0
-27 -684 0
-25 -802 0
-26 -803 0
-27 -804 0
-28 -118 0
-29 -119 0
-30 -120 0
-28 -358 0
-29 -359 0
-30 -360 0
-28 -361 0
-29 -362 0
-30 -363 0
-28 -574 0
-29 -575 0
-30 -576 0
-28 -787 0
-29 -788 0
-30 -789 0
-28 -940 0
-29 -941 0
-30 -942 0
-28 -943 0
-29 -944 0
-30 -945 0
-28 -946 0
-29 -947 0
-30 -948 0
-28 -1159 0
-29 -1160 0
-30 -1161 0
-31 -568 0
-32 -569 0
-33 -570 0
-31 -934 0
-32 -935 0
-33 -936 0
-31 -1174 0
-32 -1175 0
-33 -1176 0
-34 -658 0
-35 -659 0
-36 -660 0
-34 -757 0
-35 -758 0
-36 -759 0
-34 -814 0
-35 -815 0
-36 -816 0
-34 -916 0
-35 -917 0
-36 -918 0
-34 -1117 0
-35 -1118 0
-36 -1119 0
-37 -127 0
-38 -128 0
-39 -129 0
-37 -484 0
-38 -485 0
-39 -486 0
-37 -523 0
-38 -524 0
-39 -525 0
-37 -1039 0
-38 -1040 0
-39 -1041 0
-40 -304 0
-41 -305 0
-42 -306 0
-40 -397 0
-41 -398 0
-42 -399 0
-40 -412 0
-41 -413 0
-42 -414 0
-40 -457 0
-41 -458 0
-42 -459 0
-40 -679 0
-41 -680 0
-42 -681 0
-43 -526 0
-44 -527 0
-45 -528 0
-46 -625 0
-47 -626 0
-48 -627 0
-46 -631 0
-47 -632 0
-48 -633 0
-46 -706 0
-47 -707 0
-48 -708 0
-46 -880 0
-47 -881 0
-48 -882 0
-46 -1129 0
-47 -1130 0
-48 -1131 0
-46 -1180 0
-47 -1181 0
-48 -1182 0
-49 -886 0
-50 -887 0
-51 -888 0
-49 -985 0
-50 -986 0
-51 -987 0
-52 -433 0
-53 -434 0
-54 -435 0
-52 -505 0
-53 -506 0
-54 -507 0
-52 -877 0
-53 -878 0
-54 -879 0
-52 -946 0
-53 -947 0
-54 -948 0
-52 -1147 0
-53 -1148 0
-54 -1149 0
-55 -229 0
-56 -230 0
-57 -231 0
-55 -286 0
-56 -287 0
-57 -288 0
-55 -481 0
-56 -482 0
-57 -483 0
-55 -511 0
-56 -512 0
-57 -513 0
-55 -604 0
-56 -605 0
-57 -606 0
-55 -610 0
-56 -611 0
-57 -612 0
-55 -1003 0
-56 -1004 0
-57 -1005 0
-55 -1114 0
-56 -1115 0
-57 -1116 0
-58 -187 0
-59 -188 0
-60 -189 0
-58 -697 0
-59 -698 0
-60 -699 0
-61 -292 0
-62 -293 0
-63 -294 0
-61 -325 0
-62 -326 0
-63 -327 0
-61 -784 0
-62 -785 0
-63 -786 0
-61 -823 0
-62 -824 0
-63 -825 0
-61 -847 0
-62 -848 0
-63 -849 0
-61 -865 0
-62 -866 0
-63 -867 0
-64 -205 0
-65 -206 0
-66 -207 0
-64 -889 0
-65 -890 0
-66 -891 0
-67 -151 0
-68 -152 0
-69 -153 0
-67 -184 0
-68 -185 0
-69 -186 0
-67 -412 0
-68 -413 0
-69 -414 0
-67 -574 0
-68 -575 0
-69 -576 0
-67 -847 0
-68 -848 0
-69 -849 0
-70 -499 0
-71 -500 0
-72 -501 0
-73 -262 0
-74 -263 0
-75 -264 0
-73 -427 0
-74 -428 0
-75 -429 0
-73 -484 0
-74 -485 0
-75 -486 0
-73 -607 0
-74 -608 0
-75 -609 0
-73 -628 0
-74 -629 0
-75 -630 0
-73 -658 0
-74 -659 0
-75 -660 0
-73 -715 0
-74 -716 0
-75 -717 0
-73 -1021 0
-74 -1022 0
-75 -1023 0
-73 -1168 0
-74 -1169 0
-75 -1170 0
-73 -1195 0
-74 -1196 0
-75 -1197 0
-76 -127 0
-77 -128 0
-78 -129 0
-76 -193 0
-77 -194 0
-78 -195 0
-76 -532 0
-77 -533 0
-78 -534 0
-76 -1024 0
-77 -1025 0
-78 -1026 0
-76 -1150 0
-77 -1151 0
-78 -1152 0
-79 -319 0
-80 -320 0
-81 -321 0
-79 -322 0
-80 -323 0
-81 -324 0
-79 -580 0
-80 -581 0
-81 -582 0
-79 -619 0
-80 -620 0
-81 -621 0
-79 -784 0
-80 -785 0
-81 -786 0
-79 -1186 0
-80 -1187 0
-81 -1188 0
-82 -109 0
-83 -110 0
-84 -111 0
-82 -190 0
-83 -191 0
-84 -192 0
-82 -517 0
-83 -518 0
-84 -519 0
-82 -586 0
-83 -587 0
-84 -588 0
-82 -640 0
-83 -641 0
-84 -642 0
-82 -922 0
-83 -923 0
-84 -924 0
-85 -121 0
-86 -122 0
-87 -123 0
-88 -247 0
-89 -248 0
-90 -249 0
-88 -610 0
-89 -611 0
-90 -612 0
-88 -994 0
-89 -995 0
-90 -996 0
-88 -1045 0
-89 -1046 0
-90 -1047 0
-88 -1114 0
-89 -1115 0
-90 -1116 0
-88 -1147 0
-89 -1148 0
-90 -1149 0
-88 -1174 0
-89 -1175 0
-90 -1176 0
-91 -172 0
-92 -173 0
-93 -174 0
-91 -175 0
-92 -176 0
-93 -177 0
-91 -199 0
-92 -200 0
-93 -201 0
-91 -340 0
-92 -341 0
-93 -342 0
-91 -496 0
-92 -497 0
-93 -498 0
-91 -778 0
-92 -779 0
-93 -780 0
-91 -1102 0
-92 -1103 0
-93 -1104 0
-94 -376 0
-95 -377 0
-96 -378 0
-94 -697 0
-95 -698 0
-96 -699 0
-94 -934 0
-95 -935 0
-96 -936 0
-94 -961 0
-95 -962 0
-96 -963 0
-94 -1192 0
-95 -1193 0
-96 -1194 0
-97 -184 0
-98 -185 0
-99 -186 0
-100 -577 0
-101 -578 0
-102 -579 0
-100 -901 0
-101 -902 0
-102 -903 0
-100 -973 0
-101 -974 0
-102 -975 0
-100 -1132 0
-101 -1133 0
-102 -1134 0
-103 -139 0
-104 -140 0
-105 -141 0
-103 -202 0
-104 -203 0
-105 -204 0
-103 -343 0
-104 -344 0
-105 -345 0
-103 -346 0
-104 -347 0
-105 -348 0
-106 -331 0
-107 -332 0
-108 -333 0
-106 -454 0
-107 -455 0
-108 -456 0
-106 -601 0
-107 -602 0
-108 -603 0
-106 -739 0
-107 -740 0
-108 -741 0
-106 -991 0
-107 -992 0
-108 -993 0
-106 -1183 0
-107 -1184 0
-108 -1185 0
-109 -181 0
-110 -182 0
-111 -183 0
-109 -229 0
-110 -230 0
-111 -231 0
-109 -433 0
-110 -434 0
-111 -435 0
-109 -841 0
-110 -842 0
-111 -843 0
-109 -943 0
-110 -944 0
-111 -945 0
-112 -391 0
-113 -392 0
-114 -393 0
-112 -685 0
-113 -686 0
-114 -687 0
-115 -193 0
-116 -194 0
-117 -195 0
-115 -385 0
-116 -386 0
-117 -387 0
-115 -406 0
-116 -407 0
-117 -408 0
-115 -664 0
-116 -665 0
-117 -666 0
-115 -973 0
-116 -974 0
-117 -975 0
-118 -1051 0
-119 -1052 0
-120 -1053 0
-118 -1117 0
-119 -1118 0
-120 -1119 0
-121 -184 0
-122 -185 0
-123 -186 0
-121 -433 0
-122 -434 0
-123 -435 0
-121 -550 0
-122 -551 0
-123 -552 0
-121 -643 0
-122 -644 0
-123 -645 0
-121 -889 0
-122 -890 0
-123 -891 0
-121 -1012 0
-122 -1013 0
-123 -1014 0
-124 -676 0
-125 -677 0
-126 -678 0
-127 -166 0
-128 -167 0
-129 -168 0
-127 -187 0
-128 -188 0
-129 -189 0
-127 -346 0
-128 -347 0
-129 -348 0
-127 -391 0
-128 -392 0
-129 -393 0
-127 -475 0
-128 -476 0
-129 -477 0
-127 -589 0
-128 -590 0
-129 -591 0
-127 -604 0
-128 -605 0
-129 -606 0
-127 -688 0
-128 -689 0
-129 -690 0
-127 -868 0
-128 -869 0
-129 -870 0
-127 -925 0
-128 -926 0
-129 -927 0
-127 -1111 0
-128 -1112 0
-129 -1113 0
-130 -337 0
-131 -338 0
-132 -339 0
-133 -1096 0
-134 -1097 0
-135 -1098 0
-136 -364 0
-137 -365 0
-138 -366 0
-136 -436 0
-137 -437 0
-138 -438 0
-136 -685 0
-137 -686 0
-138 -687 0
-136 -718 0
-137 -719 0
-138 -720 0
-136 -1144 0
-137 -1145 0
-138 -1146 0
-139 -292 0
-140 -293 0
-141 -294 0
-139 -973 0
-140 -974 0
-141 -975 0
-139 -1105 0
-140 -1106 0
-141 -1107 0
-142 -184 0
-143 -185 0
-144 -186 0
-142 -211 0
-143 -212 0
-144 -213 0
-142 -379 0
-143 -380 0
-144 -381 0
-142 -1129 0
-143 -1130 0
-144 -1131 0
-145 -286 0
-146 -287 0
-147 -288 0
-145 -685 0
-146 -686 0
-147 -687 0
-145 -814 0
-146 -815 0
-147 -816 0
-145 -823 0
-146 -824 0
-147 -825 0
-145 -910 0
-146 -911 0
-147 -912 0
-148 -160 0
-149 -161 0
-150 -162 0
-148 -313 0
-149 -314 0
-150 -315 0
-148 -586 0
-149 -587 0
-150 -588 0
-148 -718 0
-149 -719 0
-150 -720 0
-148 -742 0
-149 -743 0
-150 -744 0
-151 -760 0
-152 -761 0
-153 -762 0
-151 -1006 0
-152 -1007 0
-153 -1008 0
-151 -1141 0
-152 -1142 0
-153 -1143 0
-151 -1150 0
-152 -1151 0
-153 -1152 0
-154 -169 0
-155 -170 0
-156 -171 0
-154 -1189 0
-155 -1190 0
-156 -1191 0
-157 -532 0
-158 -533 0
-159 -534 0
-157 -781 0
-158 -782 0
-159 -783 0
-160 -190 0
-161 -191 0
-162 -192 0
-160 -376 0
-161 -377 0
-162 -378 0
-160 -397 0
-161 -398 0
-162 -399 0
-160 -745 0
-161 -746 0
-162 -747 0
-160 -778 0
-161 -779 0
-162 -780 0
-160 -967 0
-161 -968 0
-162 -969 0
-163 -391 0
-164 -392 0
-165 -393 0
-163 -412 0
-164 -413 0
-165 -414 0
-163 -415 0
-164 -416 0
-165 -417 0
-163 -418 0
-164 -419 0
-165 -420 0
-163 -553 0
-164 -554 0
-165 -555 0
-163 -1048 0
-164 -1049 0
-165 -1050 0
-166 -823 0
-167 -824 0
-168 -825 0
-166 -862 0
-167 -863 0
-168 -864 0
-169 -601 0
-170 -602 0
-171 -603 0
-169 -802 0
-170 -803 0
-171 -804 0
-172 -343 0
-173 -344 0
-174 -345 0
-172 -766 0
-173 -767 0
-174 -768 0
-172 -907 0
-173 -908 0
-174 -909 0
-175 -265 0
-176 -266 0
-177 -267 0
-175 -487 0
-176 -488 0
-177 -489 0
-175 -862 0
-176 -863 0
-177 -864 0
-175 -895 0
-176 -896 0
-177 -897 0
-175 -946 0
-176 -947 0
-177 -948 0
-175 -973 0
-176 -974 0
-177 -975 0
-175 -1087 0
-176 -1088 0
-177 -1089 0
-178 -784 0
-179 -785 0
-180 -786 0
-181 -262 0
-182 -263 0
-183 -264 0
-181 -919 0
-182 -920 0
-183 -921 0
-181 -1042 0
-182 -1043 0
-183 -1044 0
-184 -370 0
-185 -371 0
-186 -372 0
-184 -457 0
-185 -458 0
-186 -459 0
-184 -499 0
-185 -500 0
-186 -501 0
-184 -679 0
-185 -680 0
-186 -681 0
-184 -919 0
-185 -920 0
-186 -921 0
-184 -970 0
-185 -971 0
-186 -972 0
-187 -199 0
-188 -200 0
-189 -201 0
-187 -328 0
-188 -329 0
-189 -330 0
-187 -679 0
-188 -680 0
-189 -681 0
-187 -760 0
-188 -761 0
-189 -762 0
-190 -298 0
-191 -299 0
-192 -300 0
-190 -895 0
-191 -896 0
-192 -897 0
-193 -511 0
-194 -512 0
-195 -513 0
-193 -802 0
-194 -803 0
-195 -804 0
-199 -481 0
-200 -482 0
-201 -483 0
-199 -991 0
-200 -992 0
-201 -993 0
-202 -391 0
-203 -392 0
-204 -393 0
-202 -403 0
-203 -404 0
-204 -405 0
-202 -1081 0
-203 -1082 0
-204 -1083 0
-202 -1141 0
-203 -1142 0
-204 -1143 0
-205 -259 0
-206 -260 0
-207 -261 0
-205 -442 0
-206 -443 0
-207 -444 0
-205 -595 0
-206 -596 0
-207 -597 0
-208 -319 0
-209 -320 0
-210 -321 0
-208 -421 0
-209 -422 0
-210 -423 0
-208 -1120 0
-209 -1121 0
-210 -1122 0
-211 -505 0
-212 -506 0
-213 -507 0
-211 -637 0
-212 -638 0
-213 -639 0
-211 -889 0
-212 -890 0
-213 -891 0
-214 -586 0
-215 -587 0
-216 -588 0
-214 -799 0
-215 -800 0
-216 -801 0
-214 -1087 0
-215 -1088 0
-216 -1089 0
-217 -544 0
-218 -545 0
-219 -546 0
-217 -577 0
-218 -578 0
-219 -579 0
-217 -691 0
-218 -692 0
-219 -693 0
-217 -745 0
-218 -746 0
-219 -747 0
-217 -937 0
-218 -938 0
-219 -939 0
-220 -667 0
-221 -668 0
-222 -669 0
-223 -376 0
-224 -377 0
-225 -378 0
-223 -679 0
-224 -680 0
-225 -681 0
-226 -1078 0
-227 -1079 0
-228 -1080 0
-229 -841 0
-230 -842 0
-231 -843 0
-229 -1141 0
-230 -1142 0
-231 -1143 0
-232 -445 0
-233 -446 0
-234 -447 0
-232 -661 0
-233 -662 0
-234 -663 0
-232 -886 0
-233 -887 0
-234 -888 0
-232 -1165 0
-233 -1166 0
-234 -1167 0
-232 -1195 0
-233 -1196 0
-234 -1197 0
-235 -697 0
-236 -698 0
-237 -699 0
-235 -1018 0
-236 -1019 0
-237 -1020 0
-238 -259 0
-239 -260 0
-240 -261 0
-238 -496 0
-239 -497 0
-240 -498 0
-238 -613 0
-239 -614 0
-240 -615 0
-238 -703 0
-239 -704 0
-240 -705 0
-238 -724 0
-239 -725 0
-240 -726 0
-238 -862 0
-239 -863 0
-240 -864 0
-238 -946 0
-239 -947 0
-240 -948 0
-241 -1048 0
-242 -1049 0
-243 -1050 0
-244 -424 0
-245 -425 0
-246 -426 0
-244 -472 0
-245 -473 0
-246 -474 0
-247 -982 0
-248 -983 0
-249 -984 0
-247 -985 0
-248 -986 0
-249 -987 0
-247 -1087 0
-248 -1088 0
-249 -1089 0
-250 -520 0
-251 -521 0
-252 -522 0
-253 -505 0
-254 -506 0
-255 -507 0
-253 -580 0
-254 -581 0
-255 -582 0
-253 -709 0
-254 -710 0
-255 -711 0
-253 -1183 0
-254 -1184 0
-255 -1185 0
-256 -1021 0
-257 -1022 0
-258 -1023 0
-259 -493 0
-260 -494 0
-261 -495 0
-259 -712 0
-260 -713 0
-261 -714 0
-259 -802 0
-260 -803 0
-261 -804 0
-259 -994 0
-260 -995 0
-261 -996 0
-262 -691 0
-263 -692 0
-264 -693 0
-262 -757 0
-263 -758 0
-264 -759 0
-262 -838 0
-263 -839 0
-264 -840 0
-262 -1033 0
-263 -1034 0
-264 -1035 0
-265 -277 0
-266 -278 0
-267 -279 0
-265 -442 0
-266 -443 0
-267 -444 0
-265 -907 0
-266 -908 0
-267 -909 0
-265 -1102 0
-266 -1103 0
-267 -1104 0
-265 -1186 0
-266 -1187 0
-267 -1188 0
-268 -841 0
-269 -842 0
-270 -843 0
-268 -895 0
-269 -896 0
-270 -897 0
-271 -841 0
-272 -842 0
-273 -843 0
-271 -1129 0
-272 -1130 0
-273 -1131 0
-274 -730 0
-275 -731 0
-276 -732 0
-274 -829 0
-275 -830 0
-276 -831 0
-274 -1006 0
-275 -1007 0
-276 -1008 0
-274 -1177 0
-275 -1178 0
-276 -1179 0
-277 -430 0
-278 -431 0
-279 -432 0
-277 -682 0
-278 -683 0
-279 -684 0
-280 -610 0
-281 -611 0
-282 -612 0
-280 -919 0
-281 -920 0
-282 -921 0
-280 -967 0
-281 -968 0
-282 -969 0
-280 -1075 0
-281 -1076 0
-282 -1077 0
-283 -298 0
-284 -299 0
-285 -300 0
-283 -499 0
-284 -500 0
-285 -501 0
-283 -988 0
-284 -989 0
-285 -990 0
-286 -754 0
-287 -755 0
-288 -756 0
-286 -868 0
-287 -869 0
-288 -870 0
-286 -955 0
-287 -956 0
-288 -957 0
-286 -997 0
-287 -998 0
-288 -999 0
-286 -1096 0
-287 -1097 0
-288 -1098 0
-289 -325 0
-290 -326 0
-291 -327 0
-289 -409 0
-290 -410 0
-291 -411 0
-292 -619 0
-293 -620 0
-294 -621 0
-292 -829 0
-293 -830 0
-294 -831 0
-295 -817 0
-296 -818 0
-297 -819 0
-295 -862 0
-296 -863 0
-297 -864 0
-295 -982 0
-296 -983 0
-297 -984 0
-298 -415 0
-299 -416 0
-300 -417 0
-298 -595 0
-299 -596 0
-300 -597 0
-298 -1144 0
-299 -1145 0
-300 -1146 0
-301 -316 0
-302 -317 0
-303 -318 0
-301 -517 0
-302 -518 0
-303 -519 0
-301 -547 0
-302 -548 0
-303 -549 0
-301 -850 0
-302 -851 0
-303 -852 0
-301 -1060 0
-302 -1061 0
-303 -1062 0
-304 -349 0
-305 -350 0
-306 -351 0
-304 -556 0
-305 -557 0
-306 -558 0
-304 -592 0
-305 -593 0
-306 -594 0
-304 -646 0
-305 -647 0
-306 -648 0
-304 -850 0
-305 -851 0
-306 -852 0
-304 -1114 0
-305 -1115 0
-306 -1116 0
-307 -436 0
-308 -437 0
-309 -438 0
-307 -451 0
-308 -452 0
-309 -453 0
-307 -634 0
-308 -635 0
-309 -636 0
-307 -700 0
-308 -701 0
-309 -702 0
-307 -883 0
-308 -884 0
-309 -885 0
-310 -388 0
-311 -389 0
-312 -390 0
-310 -403 0
-311 -404 0
-312 -405 0
-310 -670 0
-311 -671 0
-312 -672 0
-310 -823 0
-311 -824 0
-312 -825 0
-313 -733 0
-314 -734 0
-315 -735 0
-313 -859 0
-314 -860 0
-315 -861 0
-316 -571 0
-317 -572 0
-318 -573 0
-319 -481 0
-320 -482 0
-321 -483 0
-319 -1177 0
-320 -1178 0
-321 -1179 0
-322 -355 0
-323 -356 0
-324 -357 0
-322 -508 0
-323 -509 0
-324 -510 0
-322 -595 0
-323 -596 0
-324 -597 0
-322 -871 0
-323 -872 0
-324 -873 0
-322 -1135 0
-323 -1136 0
-324 -1137 0
-325 -331 0
-326 -332 0
-327 -333 0
-325 -403 0
-326 -404 0
-327 -405 0
-328 -511 0
-329 -512 0
-330 -513 0
-328 -709 0
-329 -710 0
-330 -711 0
-331 -733 0
-332 -734 0
-333 -735 0
-331 -850 0
-332 -851 0
-333 -852 0
-331 -979 0
-332 -980 0
-333 -981 0
-331 -1078 0
-332 -1079 0
-333 -1080 0
-331 -1153 0
-332 -1154 0
-333 -1155 0
-334 -718 0
-335 -719 0
-336 -720 0
-334 -796 0
-335 -797 0
-336 -798 0
-334 -820 0
-335 -821 0
-336 -822 0
-334 -967 0
-335 -968 0
-336 -969 0
-334 -1069 0
-335 -1070 0
-336 -1071 0
-337 -445 0
-338 -446 0
-339 -447 0
-337 -739 0
-338 -740 0
-339 -741 0
-337 -826 0
-338 -827 0
-339 -828 0
-337 -1018 0
-338 -1019 0
-339 -1020 0
-337 -1189 0
-338 -1190 0
-339 -1191 0
-340 -403 0
-341 -404 0
-342 -405 0
-340 -538 0
-341 -539 0
-342 -540 0
-340 -931 0
-341 -932 0
-342 -933 0
-340 -1141 0
-341 -1142 0
-342 -1143 0
-343 -403 0
-344 -404 0
-345 -405 0
-343 -421 0
-344 -422 0
-345 -423 0
-343 -454 0
-344 -455 0
-345 -456 0
-346 -376 0
-347 -377 0
-348 -378 0
-346 -658 0
-347 -659 0
-348 -660 0
-346 -916 0
-347 -917 0
-348 -918 0
-349 -376 0
-350 -377 0
-351 -378 0
-349 -946 0
-350 -947 0
-351 -948 0
-352 -550 0
-353 -551 0
-354 -552 0
-352 -1063 0
-353 -1064 0
-354 -1065 0
-352 -1198 0
-353 -1199 0
-354 -1200 0
-358 -565 0
-359 -566 0
-360 -567 0
-358 -790 0
-359 -791 0
-360 -792 0
-358 -1066 0
-359 -1067 0
-360 -1068 0
-361 -370 0
-362 -371 0
-363 -372 0
-361 -577 0
-362 -578 0
-363 -579 0
-361 -844 0
-362 -845 0
-363 -846 0
-361 -940 0
-362 -941 0
-363 -942 0
-361 -1105 0
-362 -1106 0
-363 -1107 0
-364 -379 0
-365 -380 0
-366 -381 0
-364 -454 0
-365 -455 0
-366 -456 0
-367 -745 0
-368 -746 0
-369 -747 0
-367 -778 0
-368 -779 0
-369 -780 0
-367 -790 0
-368 -791 0
-369 -792 0
-367 -805 0
-368 -806 0
-369 -807 0
-367 -865 0
-368 -866 0
-369 -867 0
-367 -1087 0
-368 -1088 0
-369 -1089 0
-367 -1171 0
-368 -1172 0
-369 -1173 0
-370 -1195 0
-371 -1196 0
-372 -1197 0
-373 -391 0
-374 -392 0
-375 -393 0
-373 -472 0
-374 -473 0
-375 -474 0
-373 -730 0
-374 -731 0
-375 -732 0
-373 -763 0
-374 -764 0
-375 -765 0
-373 -775 0
-374 -776 0
-375 -777 0
-373 -904 0
-374 -905 0
-375 -906 0
-376 -727 0
-377 -728 0
-378 -729 0
-376 -889 0
-377 -890 0
-378 -891 0
-376 -1030 0
-377 -1031 0
-378 -1032 0
-376 -1084 0
-377 -1085 0
-378 -1086 0
-379 -637 0
-380 -638 0
-381 -639 0
-379 -754 0
-380 -755 0
-381 -756 0
-379 -781 0
-380 -782 0
-381 -783 0
-382 -1030 0
-383 -1031 0
-384 -1032 0
-382 -1072 0
-383 -1073 0
-384 -1074 0
-385 -808 0
-386 -809 0
-387 -810 0
-388 -523 0
-389 -524 0
-390 -525 0
-388 -628 0
-389 -629 0
-390 -630 0
-388 -646 0
-389 -647 0
-390 -648 0
-388 -676 0
-389 -677 0
-390 -678 0
-388 -736 0
-389 -737 0
-390 -738 0
-388 -874 0
-389 -875 0
-390 -876 0
-388 -946 0
-389 -947 0
-390 -948 0
-388 -1042 0
-389 -1043 0
-390 -1044 0
-391 -418 0
-392 -419 0
-393 -420 0
-391 -436 0
-392 -437 0
-393 -438 0
-391 -589 0
-392 -590 0
-393 -591 0
-391 -844 0
-392 -845 0
-393 -846 0
-391 -898 0
-392 -899 0
-393 -900 0
-391 -1000 0
-392 -1001 0
-393 -1002 0
-394 -451 0
-395 -452 0
-396 -453 0
-394 -1060 0
-395 -1061 0
-396 -1062 0
-394 -1159 0
-395 -1160 0
-396 -1161 0
-397 -1105 0
-398 -1106 0
-399 -1107 0
-397 -1159 0
-398 -1160 0
-399 -1161 0
-400 -415 0
-401 -416 0
-402 -417 0
-400 -424 0
-401 -425 0
-402 -426 0
-400 -469 0
-401 -470 0
-402 -471 0
-400 -736 0
-401 -737 0
-402 -738 0
-400 -745 0
-401 -746 0
-402 -747 0
-400 -820 0
-401 -821 0
-402 -822 0
-400 -907 0
-401 -908 0
-402 -909 0
-400 -1183 0
-401 -1184 0
-402 -1185 0
-403 -406 0
-404 -407 0
-405 -408 0
-403 -1135 0
-404 -1136 0
-405 -1137 0
-406 -817 0
-407 -818 0
-408 -819 0
-406 -1018 0
-407 -1019 0
-408 -1020 0
-409 -502 0
-410 -503 0
-411 -504 0
-409 -610 0
-410 -611 0
-411 -612 0
-409 -793 0
-410 -794 0
-411 -795 0
-412 -964 0
-413 -965 0
-414 -966 0
-415 -751 0
-416 -752 0
-417 -753 0
-418 -604 0
-419 -605 0
-420 -606 0
-418 -799 0
-419 -800 0
-420 -801 0
-418 -1102 0
-419 -1103 0
-420 -1104 0
-418 -1162 0
-419 -1163 0
-420 -1164 0
-421 -490 0
-422 -491 0
-423 -492 0
-421 -709 0
-422 -710 0
-423 -711 0
-421 -925 0
-422 -926 0
-423 -927 0
-421 -934 0
-422 -935 0
-423 -936 0
-421 -937 0
-422 -938 0
-423 -939 0
-421 -1072 0
-422 -1073 0
-423 -1074 0
-421 -1111 0
-422 -1112 0
-423 -1113 0
-424 -580 0
-425 -581 0
-426 -582 0
-424 -637 0
-425 -638 0
-426 -639 0
-424 -823 0
-425 -824 0
-426 -825 0
-424 -844 0
-425 -845 0
-426 -846 0
-427 -556 0
-428 -557 0
-429 -558 0
-427 -601 0
-428 -602 0
-429 -603 0
-427 -829 0
-428 -830 0
-429 -831 0
-427 -853 0
-428 -854 0
-429 -855 0
-427 -883 0
-428 -884 0
-429 -885 0
-430 -829 0
-431 -830 0
-432 -831 0
-433 -904 0
-434 -905 0
-435 -906 0
-433 -991 0
-434 -992 0
-435 -993 0
-433 -1132 0
-434 -1133 0
-435 -1134 0
-436 -460 0
-437 -461 0
-438 -462 0
-436 -547 0
-437 -548 0
-438 -549 0
-436 -664 0
-437 -665 0
-438 -666 0
-442 -985 0
-443 -986 0
-444 -987 0
-442 -1096 0
-443 -1097 0
-444 -1098 0
-445 -526 0
-446 -527 0
-447 -528 0
-445 -742 0
-446 -743 0
-447 -744 0
-448 -481 0
-449 -482 0
-450 -483 0
-448 -496 0
-449 -497 0
-450 -498 0
-448 -628 0
-449 -629 0
-450 -630 0
-451 -595 0
-452 -596 0
-453 -597 0
-451 -811 0
-452 -812 0
-453 -813 0
-451 -1114 0
-452 -1115 0
-453 -1116 0
-451 -1129 0
-452 -1130 0
-453 -1131 0
-454 -805 0
-455 -806 0
-456 -807 0
-457 -817 0
-458 -818 0
-459 -819 0
-460 -526 0
-461 -527 0
-462 -528 0
-460 -1024 0
-461 -1025 0
-462 -1026 0
-460 -1072 0
-461 -1073 0
-462 -1074 0
-463 -625 0
-464 -626 0
-465 -627 0
-463 -793 0
-464 -794 0
-465 -795 0
-463 -970 0
-464 -971 0
-465 -972 0
-463 -1147 0
-464 -1148 0
-465 -1149 0
-466 -526 0
-467 -527 0
-468 -528 0
-466 -784 0
-467 -785 0
-468 -786 0
-466 -826 0
-467 -827 0
-468 -828 0
-466 -829 0
-467 -830 0
-468 -831 0
-466 -880 0
-467 -881 0
-468 -882 0
-466 -1138 0
-467 -1139 0
-468 -1140 0
-469 -769 0
-470 -770 0
-471 -771 0
-469 -823 0
-470 -824 0
-471 -825 0
-469 -895 0
-470 -896 0
-471 -897 0
-469 -1165 0
-470 -1166 0
-471 -1167 0
-472 -571 0
-473 -572 0
-474 -573 0
-472 -841 0
-473 -842 0
-474 -843 0
-472 -955 0
-473 -956 0
-474 -957 0
-478 -1081 0
-479 -1082 0
-480 -1083 0
-481 -1042 0
-482 -1043 0
-483 -1044 0
-484 -544 0
-485 -545 0
-486 -546 0
-484 -982 0
-485 -983 0
-486 -984 0
-484 -1003 0
-485 -1004 0
-486 -1005 0
-484 -1069 0
-485 -1070 0
-486 -1071 0
-484 -1072 0
-485 -1073 0
-486 -1074 0
-484 -1147 0
-485 -1148 0
-486 -1149 0
-484 -1177 0
-485 -1178 0
-486 -1179 0
-490 -958 0
-491 -959 0
-492 -960 0
-490 -1027 0
-491 -1028 0
-492 -1029 0
-496 -562 0
-497 -563 0
-498 -564 0
-496 -577 0
-497 -578 0
-498 -579 0
-496 -910 0
-497 -911 0
-498 -912 0
-496 -928 0
-497 -929 0
-498 -930 0
-499 -502 0
-500 -503 0
-501 -504 0
-499 -523 0
-500 -524 0
-501 -525 0
-499 -778 0
-500 -779 0
-501 -780 0
-499 -1123 0
-500 -1124 0
-501 -1125 0
-499 -1168 0
-500 -1169 0
-501 -1170 0
-502 -1063 0
-503 -1064 0
-504 -1065 0
-502 -1168 0
-503 -1169 0
-504 -1170 0
-505 -907 0
-506 -908 0
-507 -909 0
-508 -1015 0
-509 -1016 0
-510 -1017 0
-511 -1012 0
-512 -1013 0
-513 -1014 0
-511 -1087 0
-512 -1088 0
-513 -1089 0
-514 -523 0
-515 -524 0
-516 -525 0
-514 -652 0
-515 -653 0
-516 -654 0
-514 -1009 0
-515 -1010 0
-516 -1011 0
-514 -1036 0
-515 -1037 0
-516 -1038 0
-514 -1087 0
-515 -1088 0
-516 -1089 0
-514 -1141 0
-515 -1142 0
-516 -1143 0
-517 -640 0
-518 -641 0
-519 -642 0
-517 -703 0
-518 -704 0
-519 -705 0
-517 -913 0
-518 -914 0
-519 -915 0
-520 -916 0
-521 -917 0
-522 -918 0
-520 -1000 0
-521 -1001 0
-522 -1002 0
-523 -601 0
-524 -602 0
-525 -603 0
-523 -637 0
-524 -638 0
-525 -639 0
-523 -847 0
-524 -848 0
-525 -849 0
-523 -1198 0
-524 -1199 0
-525 -1200 0
-526 -1198 0
-527 -1199 0
-528 -1200 0
-529 -568 0
-530 -569 0
-531 -570 0
-529 -835 0
-530 -836 0
-531 -837 0
-529 -1063 0
-530 -1064 0
-531 -1065 0
-529 -1153 0
-530 -1154 0
-531 -1155 0
-532 -781 0
-533 -782 0
-534 -783 0
-532 -1111 0
-533 -1112 0
-534 -1113 0
-535 -751 0
-536 -752 0
-537 -753 0
-535 -1009 0
-536 -1010 0
-537 -1011 0
-538 -610 0
-539 -611 0
-540 -612 0
-538 -811 0
-539 -812 0
-540 -813 0
-538 -868 0
-539 -869 0
-540 -870 0
-538 -931 0
-539 -932 0
-540 -933 0
-538 -946 0
-539 -947 0
-540 -948 0
-538 -1165 0
-539 -1166 0
-540 -1167 0
-541 -832 0
-542 -833 0
-543 -834 0
-544 -988 0
-545 -989 0
-546 -990 0
-544 -1000 0
-545 -1001 0
-546 -1002 0
-547 -1054 0
-548 -1055 0
-549 -1056 0
-547 -1192 0
-548 -1193 0
-549 -1194 0
-550 -976 0
-551 -977 0
-552 -978 0
-553 -655 0
-554 -656 0
-555 -657 0
-553 -709 0
-554 -710 0
-555 -711 0
-559 -592 0
-560 -593 0
-561 -594 0
-559 -688 0
-560 -689 0
-561 -690 0
-559 -997 0
-560 -998 0
-561 -999 0
-562 -1180 0
-563 -1181 0
-564 -1182 0
-565 -613 0
-566 -614 0
-567 -615 0
-565 -832 0
-566 -833 0
-567 -834 0
-565 -991 0
-566 -992 0
-567 -993 0
-568 -607 0
-569 -608 0
-570 -609 0
-568 -787 0
-569 -788 0
-570 -789 0
-568 -817 0
-569 -818 0
-570 -819 0
-568 -895 0
-569 -896 0
-570 -897 0
-568 -904 0
-569 -905 0
-570 -906 0
-568 -937 0
-569 -938 0
-570 -939 0
-571 -1174 0
-572 -1175 0
-573 -1176 0
-574 -580 0
-575 -581 0
-576 -582 0
-574 -604 0
-575 -605 0
-576 -606 0
-574 -811 0
-575 -812 0
-576 -813 0
-577 -595 0
-578 -596 0
-579 -597 0
-577 -1045 0
-578 -1046 0
-579 -1047 0
-577 -1087 0
-578 -1088 0
-579 -1089 0
-577 -1141 0
-578 -1142 0
-579 -1143 0
-580 -982 0
-581 -983 0
-582 -984 0
-583 -814 0
-584 -815 0
-585 -816 0
-583 -859 0
-584 -860 0
-585 -861 0
-583 -949 0
-584 -950 0
-585 -951 0
-586 -910 0
-587 -911 0
-588 -912 0
-586 -1159 0
-587 -1160 0
-588 -1161 0
-586 -1183 0
-587 -1184 0
-588 -1185 0
-589 -751 0
-590 -752 0
-591 -753 0
-589 -1057 0
-590 -1058 0
-591 -1059 0
-589 -1060 0
-590 -1061 0
-591 -1062 0
-592 -976 0
-593 -977 0
-594 -978 0
-595 -961 0
-596 -962 0
-597 -963 0
-595 -1042 0
-596 -1043 0
-597 -1044 0
-598 -667 0
-599 -668 0
-600 -669 0
-601 -769 0
-602 -770 0
-603 -771 0
-601 -934 0
-602 -935 0
-603 -936 0
-601 -1036 0
-602 -1037 0
-603 -1038 0
-601 -1072 0
-602 -1073 0
-603 -1074 0
-604 -931 0
-605 -932 0
-606 -933 0
-604 -1147 0
-605 -1148 0
-606 -1149 0
-607 -865 0
-608 -866 0
-609 -867 0
-610 -724 0
-611 -725 0
-612 -726 0
-610 -781 0
-611 -782 0
-612 -783 0
-610 -895 0
-611 -896 0
-612 -897 0
-613 -808 0
-614 -809 0
-615 -810 0
-613 -871 0
-614 -872 0
-615 -873 0
-613 -880 0
-614 -881 0
-615 -882 0
-613 -1114 0
-614 -1115 0
-615 -1116 0
-616 -694 0
-617 -695 0
-618 -696 0
-616 -835 0
-617 -836 0
-618 -837 0
-616 -937 0
-617 -938 0
-618 -939 0
-616 -1156 0
-617 -1157 0
-618 -1158 0
-619 -757 0
-620 -758 0
-621 -759 0
-619 -988 0
-620 -989 0
-621 -990 0
-622 -727 0
-623 -728 0
-624 -729 0
-622 -1177 0
-623 -1178 0
-624 -1179 0
-625 -904 0
-626 -905 0
-627 -906 0
-628 -883 0
-629 -884 0
-630 -885 0
-628 -940 0
-629 -941 0
-630 -942 0
-631 -1183 0
-632 -1184 0
-633 -1185 0
-637 -844 0
-638 -845 0
-639 -846 0
-637 -847 0
-638 -848 0
-639 -849 0
-637 -1117 0
-638 -1118 0
-639 -1119 0
-640 -958 0
-641 -959 0
-642 -960 0
-640 -1009 0
-641 -1010 0
-642 -1011 0
-643 -1027 0
-644 -1028 0
-645 -1029 0
-643 -1144 0
-644 -1145 0
-645 -1146 0
-646 -883 0
-647 -884 0
-648 -885 0
-646 -1003 0
-647 -1004 0
-648 -1005 0
-649 -1150 0
-650 -1151 0
-651 -1152 0
-652 -904 0
-653 -905 0
-654 -906 0
-655 -838 0
-656 -839 0
-657 -840 0
-655 -1039 0
-656 -1040 0
-657 -1041 0
-658 -751 0
-659 -752 0
-660 -753 0
-658 -874 0
-659 -875 0
-660 -876 0
-658 -946 0
-659 -947 0
-660 -948 0
-658 -964 0
-659 -965 0
-660 -966 0
-661 -778 0
-662 -779 0
-663 -780 0
-661 -1009 0
-662 -1010 0
-663 -1011 0
-664 -892 0
-665 -893 0
-666 -894 0
-667 -817 0
-668 -818 0
-669 -819 0
-667 -1117 0
-668 -1118 0
-669 -1119 0
-667 -1156 0
-668 -1157 0
-669 -1158 0
-670 -715 0
-671 -716 0
-672 -717 0
-670 -1027 0
-671 -1028 0
-672 -1029 0
-670 -1075 0
-671 -1076 0
-672 -1077 0
-670 -1165 0
-671 -1166 0
-672 -1167 0
-673 -904 0
-674 -905 0
-675 -906 0
-673 -1012 0
-674 -1013 0
-675 -1014 0
-673 -1159 0
-674 -1160 0
-675 -1161 0
-676 -685 0
-677 -686 0
-678 -687 0
-676 -967 0
-677 -968 0
-678 -969 0
-685 -823 0
-686 -824 0
-687 -825 0
-685 -886 0
-686 -887 0
-687 -888 0
-688 -1123 0
-689 -1124 0
-690 -1125 0
-691 -889 0
-692 -890 0
-693 -891 0
-697 -970 0
-698 -971 0
-699 -972 0
-700 -892 0
-701 -893 0
-702 -894 0
-700 -1120 0
-701 -1121 0
-702 -1122 0
-703 -823 0
-704 -824 0
-705 -825 0
-703 -868 0
-704 -869 0
-705 -870 0
-703 -931 0
-704 -932 0
-705 -933 0
-703 -1075 0
-704 -1076 0
-705 -1077 0
-703 -1111 0
-704 -1112 0
-705 -1113 0
-703 -1177 0
-704 -1178 0
-705 -1179 0
-712 -898 0
-713 -899 0
-714 -900 0
-715 -919 0
-716 -920 0
-717 -921 0
-715 -1186 0
-716 -1187 0
-717 -1188 0
-718 -754 0
-719 -755 0
-720 -756 0
-718 -805 0
-719 -806 0
-720 -807 0
-718 -871 0
-719 -872 0
-720 -873 0
-721 -811 0
-722 -812 0
-723 -813 0
-721 -1003 0
-722 -1004 0
-723 -1005 0
-721 -1132 0
-722 -1133 0
-723 -1134 0
-724 -802 0
-725 -803 0
-726 -804 0
-724 -1090 0
-725 -1091 0
-726 -1092 0
-730 -877 0
-731 -878 0
-732 -879 0
-730 -1135 0
-731 -1136 0
-732 -1137 0
-739 -1195 0
-740 -1196 0
-741 -1197 0
-742 -901 0
-743 -902 0
-744 -903 0
-745 -877 0
-746 -878 0
-747 -879 0
-748 -847 0
-749 -848 0
-750 -849 0
-751 -1033 0
-752 -1034 0
-753 -1035 0
-751 -1165 0
-752 -1166 0
-753 -1167 0
-757 -994 0
-758 -995 0
-759 -996 0
-760 -931 0
-761 -932 0
-762 -933 0
-763 -823 0
-764 -824 0
-765 -825 0
-763 -904 0
-764 -905 0
-765 -906 0
-769 -832 0
-770 -833 0
-771 -834 0
-769 -934 0
-770 -935 0
-771 -936 0
-769 -1003 0
-770 -1004 0
-771 -1005 0
-769 -1099 0
-770 -1100 0
-771 -1101 0
-769 -1117 0
-770 -1118 0
-771 -1119 0
-769 -1171 0
-770 -1172 0
-771 -1173 0
-769 -1189 0
-770 -1190 0
-771 -1191 0
-772 -850 0
-773 -851 0
-774 -852 0
-775 -799 0
-776 -800 0
-777 -801 0
-778 -808 0
-779 -809 0
-780 -810 0
-778 -907 0
-779 -908 0
-780 -909 0
-778 -1093 0
-779 -1094 0
-780 -1095 0
-778 -1096 0
-779 -1097 0
-780 -1098 0
-781 -1174 0
-782 -1175 0
-783 -1176 0
-784 -958 0
-785 -959 0
-786 -960 0
-784 -1105 0
-785 -1106 0
-786 -1107 0
-787 -832 0
-788 -833 0
-789 -834 0
-787 -871 0
-788 -872 0
-789 -873 0
-787 -874 0
-788 -875 0
-789 -876 0
-790 -937 0
-791 -938 0
-792 -939 0
-799 -868 0
-800 -869 0
-801 -870 0
-802 -1198 0
-803 -1199 0
-804 -1200 0
-805 -958 0
-806 -959 0
-807 -960 0
-805 -1048 0
-806 -1049 0
-807 -1050 0
-805 -1126 0
-806 -1127 0
-807 -1128 0
-805 -1150 0
-806 -1151 0
-807 -1152 0
-808 -961 0
-809 -962 0
-810 -963 0
-811 -853 0
-812 -854 0
-813 -855 0
-814 -1006 0
-815 -1007 0
-816 -1008 0
-814 -1141 0
-815 -1142 0
-816 -1143 0
-814 -1144 0
-815 -1145 0
-816 -1146 0
-817 -1048 0
-818 -1049 0
-819 -1050 0
-820 -880 0
-821 -881 0
-822 -882 0
-820 -1081 0
-821 -1082 0
-822 -1083 0
-832 -931 0
-833 -932 0
-834 -933 0
-835 -895 0
-836 -896 0
-837 -897 0
-835 -922 0
-836 -923 0
-837 -924 0
-835 -982 0
-836 -983 0
-837 -984 0
-838 -994 0
-839 -995 0
-840 -996 0
-841 -862 0
-842 -863 0
-843 -864 0
-841 -895 0
-842 -896 0
-843 -897 0
-841 -961 0
-842 -962 0
-843 -963 0
-841 -1174 0
-842 -1175 0
-843 -1176 0
-841 -1183 0
-842 -1184 0
-843 -1185 0
-844 -1126 0
-845 -1127 0
-846 -1128 0
-847 -1135 0
-848 -1136 0
-849 -1137 0
-847 -1198 0
-848 -1199 0
-849 -1200 0
-850 -1021 0
-851 -1022 0
-852 -1023 0
-853 -952 0
-854 -953 0
-855 -954 0
-862 -865 0
-863 -866 0
-864 -867 0
-862 -985 0
-863 -986 0
-864 -987 0
-862 -1090 0
-863 -1091 0
-864 -1092 0
-868 -880 0
-869 -881 0
-870 -882 0
-871 -1090 0
-872 -1091 0
-873 -1092 0
-874 -1117 0
-875 -1118 0
-876 -1119 0
-877 -1009 0
-878 -1010 0
-879 -1011 0
-877 -1060 0
-878 -1061 0
-879 -1062 0
-883 -1096 0
-884 -1097 0
-885 -1098 0
-889 -910 0
-890 -911 0
-891 -912 0
-889 -916 0
-890 -917 0
-891 -918 0
-895 -1105 0
-896 -1106 0
-897 -1107 0
-898 -997 0
-899 -998 0
-900 -999 0
-910 -1084 0
-911 -1085 0
-912 -1086 0
-913 -1003 0
-914 -1004 0
-915 -1005 0
-916 -955 0
-917 -956 0
-918 -957 0
-916 -1066 0
-917 -1067 0
-918 -1068 0
-919 -976 0
-920 -977 0
-921 -978 0
-919 -1159 0
-920 -1160 0
-921 -1161 0
-919 -1183 0
-920 -1184 0
-921 -1185 0
-922 -1033 0
-923 -1034 0
-924 -1035 0
-925 -1093 0
-926 -1094 0
-927 -1095 0
-934 -985 0
-935 -986 0
-936 -987 0
-937 -1036 0
-938 -1037 0
-939 -1038 0
-937 -1108 0
-938 -1109 0
-939 -1110 0
-937 -1171 0
-938 -1172 0
-939 -1173 0
-940 -1072 0
-941 -1073 0
-942 -1074 0
-943 -1114 0
-944 -1115 0
-945 -1116 0
-949 -1165 0
-950 -1166 0
-951 -1167 0
-952 -1156 0
-953 -1157 0
-954 -1158 0
-955 -1048 0
-956 -1049 0
-957 -1050 0
-955 -1108 0
-956 -1109 0
-957 -1110 0
-964 -1096 0
-965 -1097 0
-966 -1098 0
-967 -985 0
-968 -986 0
-969 -987 0
-973 -985 0
-974 -986 0
-975 -987 0
-976 -1195 0
-977 -1196 0
-978 -1197 0
-979 -1183 0
-980 -1184 0
-981 -1185 0
-982 -1036 0
-983 -1037 0
-984 -1038 0
-985 -997 0
-986 -998 0
-987 -999 0
-985 -1024 0
-986 -1025 0
-987 -1026 0
-994 -1009 0
-995 -1010 0
-996 -1011 0
-1003 -1039 0
-1004 -1040 0
-1005 -1041 0
-1003 -1132 0
-1004 -1133 0
-1005 -1134 0
-1006 -1018 0
-1007 -1019 0
-1008 -1020 0
-1006 -1054 0
-1007 -1055 0
-1008 -1056 0
-1009 -1051 0
-1010 -1052 0
-1011 -1053 0
-1012 -1072 0
-1013 -1073 0
-1014 -1074 0
-1012 -1156 0
-1013 -1157 0
-1014 -1158 0
-1015 -1078 0
-1016 -1079 0
-1017 -1080 0
-1015 -1099 0
-1016 -1100 0
-1017 -1101 0
-1018 -1186 0
-1019 -1187 0
-1020 -1188 0
-1027 -1054 0
-1028 -1055 0
-1029 -1056 0
-1030 -1171 0
-1031 -1172 0
-1032 -1173 0
-1036 -1063 0
-1037 -1064 0
-1038 -1065 0
-1039 -1120 0
-1040 -1121 0
-1041 -1122 0
-1045 -1063 0
-1046 -1064 0
-1047 -1065 0
-1045 -1150 0
-1046 -1151 0
-1047 -1152 0
-1045 -1159 0
-1046 -1160 0
-1047 -1161 0
-1054 -1126 0
-1055 -1127 0
-1056 -1128 0
-1057 -1078 0
-1058 -1079 0
-1059 -1080 0
-1075 -1165 0
-1076 -1166 0
-1077 -1167 0
-1075 -1177 0
-1076 -1178 0
-1077 -1179 0
-1090 -1120 0
-1091 -1121 0
-1092 -1122 0
-1102 -1156 0
-1103 -1157 0
-1104 -1158 0
-1114 -1162 0
-1115 -1163 0
-1116 -1164 0
-1114 -1189 0
-1115 -1190 0
-1116 -1191 0
-1117 -1132 0
-1118 -1133 0
-1119 -1134 0
-1123 -1144 0
-1124 -1145 0
-1125 -1146 0
-1126 -1129 0
-1127 -1130 0
-1128 -1131 0
-1126 -1141 0
-1127 -1142 0
-1128 -1143 0
-1150 -1192 0
-1151 -1193 0
-1152 -1194 0
-1153 -1177 0
-1154 -1178 0
-1155 -1179 0
-1180 -1189 0
-1181 -1190 0
-1182 -1191 0
