p cnf 1200 4408
1 2 3 0
4 5 6 0
7 8 9 0
10 11 12 0
13 14 15 0
16 17 18 0
19 20 21 0
22 23 24 0
25 26 27 0
28 29 30 0
31 32 33 0
34 35 36 0
37 38 39 0
40 41 42 0
43 44 45 0
46 47 48 0
49 50 51 0
52 53 54 0
55 56 57 0
58 59 60 0
61 62 63 0
64 65 66 0
67 68 69 0
70 71 72 0
73 74 75 0
76 77 78 0
79 80 81 0
82 83 84 0
85 86 87 0
88 89 90 0
91 92 93 0
94 95 96 0
97 98 99 0
100 101 102 0
103 104 105 0
106 107 108 0
109 110 111 0
112 113 114 0
115 116 117 0
118 119 120 0
121 122 123 0
124 125 126 0
127 128 129 0
130 131 132 0
133 134 135 0
136 137 138 0
139 140 141 0
142 143 144 0
145 146 147 0
148 149 150 0
151 152 153 0
154 155 156 0
157 158 159 0
160 161 162 0
163 164 165 0
166 167 168 0
169 170 171 0
172 173 174 0
175 176 177 0
178 179 180 0
181 182 183 0
184 185 186 0
187 188 189 0
190 191 192 0
193 194 195 0
196 197 198 0
199 200 201 0
202 203 204 0
205 206 207 0
208 209 210 0
211 212 213 0
214 215 216 0
217 218 219 0
220 221 222 0
223 224 225 0
226 227 228 0
229 230 231 0
232 233 234 0
235 236 237 0
238 239 240 0
241 242 243 0
244 245 246 0
247 248 249 0
250 251 252 0
253 254 255 0
256 257 258 0
259 260 261 0
262 263 264 0
265 266 267 0
268 269 270 0
271 272 273 0
274 275 276 0
277 278 279 0
280 281 282 0
283 284 285 0
286 287 288 0
289 290 291 0
292 293 294 0
295 296 297 0
298 299 300 0
301 302 303 0
304 305 306 0
307 308 309 0
310 311 312 0
313 314 315 0
316 317 318 0
319 320 321 0
322 323 324 0
325 326 327 0
328 329 330 0
331 332 333 0
334 335 336 0
337 338 339 0
340 341 342 0
343 344 345 0
346 347 348 0
349 350 351 0
352 353 354 0
355 356 357 0
358 359 360 0
361 362 363 0
364 365 366 0
367 368 369 0
370 371 372 0
373 374 375 0
376 377 378 0
379 380 381 0
382 383 384 0
385 386 387 0
388 389 390 0
391 392 393 0
394 395 396 0
397 398 399 0
400 401 402 0
403 404 405 0
406 407 408 0
409 410 411 0
412 413 414 0
415 416 417 0
418 419 420 0
421 422 423 0
424 425 426 0
427 428 429 0
430 431 432 0
433 434 435 0
436 437 438 0
439 440 441 0
442 443 444 0
445 446 447 0
448 449 450 0
451 452 453 0
454 455 456 0
457 458 459 0
460 461 462 0
463 464 465 0
466 467 468 0
469 470 471 0
472 473 474 0
475 476 477 0
478 479 480 0
481 482 483 0
484 485 486 0
487 488 489 0
490 491 492 0
493 494 495 0
496 497 498 0
499 500 501 0
502 503 504 0
505 506 507 0
508 509 510 0
511 512 513 0
514 515 516 0
517 518 519 0
520 521 522 0
523 524 525 0
526 527 528 0
529 530 531 0
532 533 534 0
535 536 537 0
538 539 540 0
541 542 543 0
544 545 546 0
547 548 549 0
550 551 552 0
553 554 555 0
556 557 558 0
559 560 561 0
562 563 564 0
565 566 567 0
568 569 570 0
571 572 573 0
574 575 576 0
577 578 579 0
580 581 582 0
583 584 585 0
586 587 588 0
589 590 591 0
592 593 594 0
595 596 597 0
598 599 600 0
601 602 603 0
604 605 606 0
607 608 609 0
610 611 612 0
613 614 615 0
616 617 618 0
619 620 621 0
622 623 624 0
625 626 627 0
628 629 630 0
631 632 633 0
634 635 636 0
637 638 639 0
640 641 642 0
643 644 645 0
646 647 648 0
649 650 651 0
652 653 654 0
655 656 657 0
658 659 660 0
661 662 663 0
664 665 666 0
667 668 669 0
670 671 672 0
673 674 675 0
676 677 678 0
679 680 681 0
682 683 684 0
685 686 687 0
688 689 690 0
691 692 693 0
694 695 696 0
697 698 699 0
700 701 702 0
703 704 705 0
706 707 708 0
709 710 711 0
712 713 714 0
715 716 717 0
718 719 720 0
721 722 723 0
724 725 726 0
727 728 729 0
730 731 732 0
733 734 735 0
736 737 738 0
739 740 741 0
742 743 744 0
745 746 747 0
748 749 750 0
751 752 753 0
754 755 756 0
757 758 759 0
760 761 762 0
763 764 765 0
766 767 768 0
769 770 771 0
772 773 774 0
775 776 777 0
778 779 780 0
781 782 783 0
784 785 786 0
787 788 789 0
790 791 792 0
793 794 795 0
796 797 798 0
799 800 801 0
802 803 804 0
805 806 807 0
808 809 810 0
811 812 813 0
814 815 816 0
817 818 819 0
820 821 822 0
823 824 825 0
826 827 828 0
829 830 831 0
832 833 834 0
835 836 837 0
838 839 840 0
841 842 843 0
844 845 846 0
847 848 849 0
850 851 852 0
853 854 855 0
856 857 858 0
859 860 861 0
862 863 864 0
865 866 867 0
868 869 870 0
871 872 873 0
874 875 876 0
877 878 879 0
880 881 882 0
883 884 885 0
886 887 888 0
889 890 891 0
892 893 894 0
895 896 897 0
898 899 900 0
901 902 903 0
904 905 906 0
907 908 909 0
910 911 912 0
913 914 915 0
916 917 918 0
919 920 921 0
922 923 924 0
925 926 927 0
928 929 930 0
931 932 933 0
934 935 936 0
937 938 939 0
940 941 942 0
943 944 945 0
946 947 948 0
949 950 951 0
952 953 954 0
955 956 957 0
958 959 960 0
961 962 963 0
964 965 966 0
967 968 969 0
970 971 972 0
973 974 975 0
976 977 978 0
979 980 981 0
982 983 984 0
985 986 987 0
988 989 990 0
991 992 993 0
994 995 996 0
997 998 999 0
1000 1001 1002 0
1003 1004 1005 0
1006 1007 1008 0
1009 1010 1011 0
1012 1013 1014 0
1015 1016 1017 0
1018 1019 1020 0
1021 1022 1023 0
1024 1025 1026 0
1027 1028 1029 0
1030 1031 1032 0
1033 1034 1035 0
1036 1037 1038 0
1039 1040 1041 0
1042 1043 1044 0
1045 1046 1047 0
1048 1049 1050 0
1051 1052 1053 0
1054 1055 1056 0
1057 1058 1059 0
1060 1061 1062 0
1063 1064 1065 0
1066 1067 1068 0
1069 1070 1071 0
1072 1073 1074 0
1075 1076 1077 0
1078 1079 1080 0
1081 1082 1083 0
1084 1085 1086 0
1087 1088 1089 0
1090 1091 1092 0
1093 1094 1095 0
1096 1097 1098 0
1099 1100 1101 0
1102 1103 1104 0
1105 1106 1107 0
1108 1109 1110 0
1111 1112 1113 0
1114 1115 1116 0
1117 1118 1119 0
1120 1121 1122 0
1123 1124 1125 0
1126 1127 1128 0
1129 1130 1131 0
1132 1133 1134 0
1135 1136 1137 0
1138 1139 1140 0
1141 1142 1143 0
1144 1145 1146 0
1147 1148 1149 0
1150 1151 1152 0
1153 1154 1155 0
1156 1157 1158 0
1159 1160 1161 0
1162 1163 1164 0
1165 1166 1167 0
1168 1169 1170 0
1171 1172 1173 0
1174 1175 1176 0
1177 1178 1179 0
1180 1181 1182 0
1183 1184 1185 0
1186 1187 1188 0
1189 1190 1191 0
1192 1193 1194 0
1195 1196 1197 0
1198 1199 1200 0
-1 -2 0
-1 -3 0
-2 -3 0
-4 -5 0
-4 -6 0
-5 -6 0
-7 -8 0
-7 -9 0
-8 -9 0
-10 -11 0
-10 -12 0
-11 -12 0
-13 -14 0
-13 -15 0
-14 -15 0
-16 -17 0
-16 -18 0
-17 -18 0
-19 -20 0
-19 -21 0
-20 -21 0
-22 -23 0
-22 -24 0
-23 -24 0
-25 -26 0
-25 -27 0
-26 -27 0
-28 -29 0
-28 -30 0
-29 -30 0
-31 -32 0
-31 -33 0
-32 -33 0
-34 -35 0
-34 -36 0
-35 -36 0
-37 -38 0
-37 -39 0
-38 -39 0
-40 -41 0
-40 -42 0
-41 -42 0
-43 -44 0
-43 -45 0
-44 -45 0
-46 -47 0
-46 -48 0
-47 -48 0
-49 -50 0
-49 -51 0
-50 -51 0
-52 -53 0
-52 -54 0
-53 -54 0
-55 -56 0
-55 -57 0
-56 -57 0
-58 -59 0
-58 -60 0
-59 -60 0
-61 -62 0
-61 -63 0
-62 -63 0
-64 -65 0
-64 -66 0
-65 -66 0
-67 -68 0
-67 -69 0
-68 -69 0
-70 -71 0
-70 -72 0
-71 -72 0
-73 -74 0
-73 -75 0
-74 -75 0
-76 -77 0
-76 -78 0
-77 -78 0
-79 -80 0
-79 -81 0
-80 -81 0
-82 -83 0
-82 -84 0
-83 -84 0
-85 -86 0
-85 -87 0
-86 -87 0
-88 -89 0
-88 -90 0
-89 -90 0
-91 -92 0
-91 -93 0
-92 -93 0
-94 -95 0
-94 -96 0
-95 -96 0
-97 -98 0
-97 -99 0
-98 -99 0
-100 -101 0
-100 -102 0
-101 -102 0
-103 -104 0
-103 -105 0
-104 -105 0
-106 -107 0
-106 -108 0
-107 -108 0
-109 -110 0
-109 -111 0
-110 -111 0
-112 -113 0
-112 -114 0
-113 -114 0
-115 -116 0
-115 -117 0
-116 -117 0
-118 -119 0
-118 -120 0
-119 -120 0
-121 -122 0
-121 -123 0
-122 -123 0
-124 -125 0
-124 -126 0
-125 -126 0
-127 -128 0
-127 -129 0
-128 -129 0
-130 -131 0
-130 -132 0
-131 -132 0
-133 -134 0
-133 -135 0
-134 -135 0
-136 -137 0
-136 -138 0
-137 -138 0
-139 -140 0
-139 -141 0
-140 -141 0
-142 -143 0
-142 -144 0
-143 -144 0
-145 -146 0
-145 -147 0
-146 -147 0
-148 -149 0
-148 -150 0
-149 -150 0
-151 -152 0
-151 -153 0
-152 -153 0
-154 -155 0
-154 -156 0
-155 -156 0
-157 -158 0
-157 -159 0
-158 -159 0
-160 -161 0
-160 -162 0
-161 -162 0
-163 -164 0
-163 -165 0
-164 -165 0
-166 -167 0
-166 -168 0
-167 -168 0
-169 -170 0
-169 -171 0
-170 -171 0
-172 -173 0
-172 -174 0
-173 -174 0
-175 -176 0
-175 -177 0
-176 -177 0
-178 -179 0
-178 -180 0
-179 -180 0
-181 -182 0
-181 -183 0
-182 -183 0
-184 -185 0
-184 -186 0
-185 -186 0
-187 -188 0
-187 -189 0
-188 -189 0
-190 -191 0
-190 -192 0
-191 -192 0
-193 -194 0
-193 -195 0
-194 -195 0
-196 -197 0
-196 -198 0
-197 -198 0
-199 -200 0
-199 -201 0
-200 -201 0
-202 -203 0
-202 -204 0
-203 -204 0
-205 -206 0
-205 -207 0
-206 -207 0
-208 -209 0
-208 -210 0
-209 -210 0
-211 -212 0
-211 -213 0
-212 -213 0
-214 -215 0
-214 -216 0
-215 -216 0
-217 -218 0
-217 -219 0
-218 -219 0
-220 -221 0
-220 -222 0
-221 -222 0
-223 -224 0
-223 -225 0
-224 -225 0
-226 -227 0
-226 -228 0
-227 -228 0
-229 -230 0
-229 -231 0
-230 -231 0
-232 -233 0
-232 -234 0
-233 -234 0
-235 -236 0
-235 -237 0
-236 -237 0
-238 -239 0
-238 -240 0
-239 -240 0
-241 -242 0
-241 -243 0
-242 -243 0
-244 -245 0
-244 -246 0
-245 -246 0
-247 -248 0
-247 -249 0
-248 -249 0
-250 -251 0
-250 -252 0
-251 -252 0
-253 -254 0
-253 -255 0
-254 -255 0
-256 -257 0
-256 -258 0
-257 -258 0
-259 -260 0
-259 -261 0
-260 -261 0
-262 -263 0
-262 -264 0
-263 -264 0
-265 -266 0
-265 -267 0
-266 -267 0
-268 -269 0
-268 -270 0
-269 -270 0
-271 -272 0
-271 -273 0
-272 -273 0
-274 -275 0
-274 -276 0
-275 -276 0
-277 -278 0
-277 -279 0
-278 -279 0
-280 -281 0
-280 -282 0
-281 -282 0
-283 -284 0
-283 -285 0
-284 -285 0
-286 -287 0
-286 -288 0
-287 -288 0
-289 -290 0
-289 -291 0
-290 -291 0
-292 -293 0
-292 -294 0
-293 -294 0
-295 -296 0
-295 -297 0
-296 -297 0
-298 -299 0
-298 -300 0
-299 -300 0
-301 -302 0
-301 -303 0
-302 -303 0
-304 -305 0
-304 -306 0
-305 -306 0
-307 -308 0
-307 -309 0
-308 -309 0
-310 -311 0
-310 -312 0
-311 -312 0
-313 -314 0
-313 -315 0
-314 -315 0
-316 -317 0
-316 -318 0
-317 -318 0
-319 -320 0
-319 -321 0
-320 -321 0
-322 -323 0
-322 -324 0
-323 -324 0
-325 -326 0
-325 -327 0
-326 -327 0
-328 -329 0
-328 -330 0
-329 -330 0
-331 -332 0
-331 -333 0
-332 -333 0
-334 -335 0
-334 -336 0
-335 -336 0
-337 -338 0
-337 -339 0
-338 -339 0
-340 -341 0
-340 -342 0
-341 -342 0
-343 -344 0
-343 -345 0
-344 -345 0
-346 -347 0
-346 -348 0
-347 -348 0
-349 -350 0
-349 -351 0
-350 -351 0
-352 -353 0
-352 -354 0
-353 -354 0
-355 -356 0
-355 -357 0
-356 -357 0
-358 -359 0
-358 -360 0
-359 -360 0
-361 -362 0
-361 -363 0
-362 -363 0
-364 -365 0
-364 -366 0
-365 -366 0
-367 -368 0
-367 -369 0
-368 -369 0
-370 -371 0
-370 -372 0
-371 -372 0
-373 -374 0
-373 -375 0
-374 -375 0
-376 -377 0
-376 -378 0
-377 -378 0
-379 -380 0
-379 -381 0
-380 -381 0
-382 -383 0
-382 -384 0
-383 -384 0
-385 -386 0
-385 -387 0
-386 -387 0
-388 -389 0
-388 -390 0
-389 -390 0
-391 -392 0
-391 -393 0
-392 -393 0
-394 -395 0
-394 -396 0
-395 -396 0
-397 -398 0
-397 -399 0
-398 -399 0
-400 -401 0
-400 -402 0
-401 -402 0
-403 -404 0
-403 -405 0
-404 -405 0
-406 -407 0
-406 -408 0
-407 -408 0
-409 -410 0
-409 -411 0
-410 -411 0
-412 -413 0
-412 -414 0
-413 -414 0
-415 -416 0
-415 -417 0
-416 -417 0
-418 -419 0
-418 -420 0
-419 -420 0
-421 -422 0
-421 -423 0
-422 -423 0
-424 -425 0
-424 -426 0
-425 -426 0
-427 -428 0
-427 -429 0
-428 -429 0
-430 -431 0
-430 -432 0
-431 -432 0
-433 -434 0
-433 -435 0
-434 -435 0
-436 -437 0
-436 -438 0
-437 -438 0
-439 -440 0
-439 -441 0
-440 -441 0
-442 -443 0
-442 -444 0
-443 -444 0
-445 -446 0
-445 -447 0
-446 -447 0
-448 -449 0
-448 -450 0
-449 -450 0
-451 -452 0
-451 -453 0
-452 -453 0
-454 -455 0
-454 -456 0
-455 -456 0
-457 -458 0
-457 -459 0
-458 -459 0
-460 -461 0
-460 -462 0
-461 -462 0
-463 -464 0
-463 -465 0
-464 -465 0
-466 -467 0
-466 -468 0
-467 -468 0
-469 -470 0
-469 -471 0
-470 -471 0
-472 -473 0
-472 -474 0
-473 -474 0
-475 -476 0
-475 -477 0
-476 -477 0
-478 -479 0
-478 -480 0
-479 -480 0
-481 -482 0
-481 -483 0
-482 -483 0
-484 -485 0
-484 -486 0
-485 -486 0
-487 -488 0
-487 -489 0
-488 -489 0
-490 -491 0
-490 -492 0
-491 -492 0
-493 -494 0
-493 -495 0
-494 -495 0
-496 -497 0
-496 -498 0
-497 -498 0
-499 -500 0
-499 -501 0
-500 -501 0
-502 -503 0
-502 -504 0
-503 -504 0
-505 -506 0
-505 -507 0
-506 -507 0
-508 -509 0
-508 -510 0
-509 -510 0
-511 -512 0
-511 -513 0
-512 -513 0
-514 -515 0
-514 -516 0
-515 -516 0
-517 -518 0
-517 -519 0
-518 -519 0
-520 -521 0
-520 -522 0
-521 -522 0
-523 -524 0
-523 -525 0
-524 -525 0
-526 -527 0
-526 -528 0
-527 -528 0
-529 -530 0
-529 -531 0
-530 -531 0
-532 -533 0
-532 -534 0
-533 -534 0
-535 -536 0
-535 -537 0
-536 -537 0
-538 -539 0
-538 -540 0
-539 -540 0
-541 -542 0
-541 -543 0
-542 -543 0
-544 -545 0
-544 -546 0
-545 -546 0
-547 -548 0
-547 -549 0
-548 -549 0
-550 -551 0
-550 -552 0
-551 -552 0
-553 -554 0
-553 -555 0
-554 -555 0
-556 -557 0
-556 -558 0
-557 -558 0
-559 -560 0
-559 -561 0
-560 -561 0
-562 -563 0
-562 -564 0
-563 -564 0
-565 -566 0
-565 -567 0
-566 -567 0
-568 -569 0
-568 -570 0
-569 -570 0
-571 -572 0
-571 -573 0
-572 -573 0
-574 -575 0
-574 -576 0
-575 -576 0
-577 -578 0
-577 -579 0
-578 -579 0
-580 -581 0
-580 -582 0
-581 -582 0
-583 -584 0
-583 -585 0
-584 -585 0
-586 -587 0
-586 -588 0
-587 -588 0
-589 -590 0
-589 -591 0
-590 -591 0
-592 -593 0
-592 -594 0
-593 -594 0
-595 -596 0
-595 -597 0
-596 -597 0
-598 -599 0
-598 -600 0
-599 -600 0
-601 -602 0
-601 -603 0
-602 -603 0
-604 -605 0
-604 -606 0
-605 -606 0
-607 -608 0
-607 -609 0
-608 -609 0
-610 -611 0
-610 -612 0
-611 -612 0
-613 -614 0
-613 -615 0
-614 -615 0
-616 -617 0
-616 -618 0
-617 -618 0
-619 -620 0
-619 -621 0
-620 -621 0
-622 -623 0
-622 -624 0
-623 -624 0
-625 -626 0
-625 -627 0
-626 -627 0
-628 -629 0
-628 -630 0
-629 -630 0
-631 -632 0
-631 -633 0
-632 -633 0
-634 -635 0
-634 -636 0
-635 -636 0
-637 -638 0
-637 -639 0
-638 -639 0
-640 -641 0
-640 -642 0
-641 -642 0
-643 -644 0
-643 -645 0
-644 -645 0
-646 -647 0
-646 -648 0
-647 -648 0
-649 -650 0
-649 -651 0
-650 -651 0
-652 -653 0
-652 -654 0
-653 -654 0
-655 -656 0
-655 -657 0
-656 -657 0
-658 -659 0
-658 -660 0
-659 -660 0
-661 -662 0
-661 -663 0
-662 -663 0
-664 -665 0
-664 -666 0
-665 -666 0
-667 -668 0
-667 -669 0
-668 -669 0
-670 -671 0
-670 -672 0
-671 -672 0
-673 -674 0
-673 -675 0
-674 -675 0
-676 -677 0
-676 -678 0
-677 -678 0
-679 -680 0
-679 -681 0
-680 -681 0
-682 -683 0
-682 -684 0
-683 -684 0
-685 -686 0
-685 -687 0
-686 -687 0
-688 -689 0
-688 -690 0
-689 -690 0
-691 -692 0
-691 -693 0
-692 -693 0
-694 -695 0
-694 -696 0
-695 -696 0
-697 -698 0
-697 -699 0
-698 -699 0
-700 -701 0
-700 -702 0
-701 -702 0
-703 -704 0
-703 -705 0
-704 -705 0
-706 -707 0
-706 -708 0
-707 -708 0
-709 -710 0
-709 -711 0
-710 -711 0
-712 -713 0
-712 -714 0
-713 -714 0
-715 -716 0
-715 -717 0
-716 -717 0
-718 -719 0
-718 -720 0
-719 -720 0
-721 -722 0
-721 -723 0
-722 -723 0
-724 -725 0
-724 -726 0
-725 -726 0
-727 -728 0
-727 -729 0
-728 -729 0
-730 -731 0
-730 -732 0
-731 -732 0
-733 -734 0
-733 -735 0
-734 -735 0
-736 -737 0
-736 -738 0
-737 -738 0
-739 -740 0
-739 -741 0
-740 -741 0
-742 -743 0
-742 -744 0
-743 -744 0
-745 -746 0
-745 -747 0
-746 -747 0
-748 -749 0
-748 -750 0
-749 -750 0
-751 -752 0
-751 -753 0
-752 -753 0
-754 -755 0
-754 -756 0
-755 -756 0
-757 -758 0
-757 -759 0
-758 -759 0
-760 -761 0
-760 -762 0
-761 -762 0
-763 -764 0
-763 -765 0
-764 -765 0
-766 -767 0
-766 -768 0
-767 -768 0
-769 -770 0
-769 -771 0
-770 -771 0
-772 -773 0
-772 -774 0
-773 -774 0
-775 -776 0
-775 -777 0
-776 -777 0
-778 -779 0
-778 -780 0
-779 -780 0
-781 -782 0
-781 -783 0
-782 -783 0
-784 -785 0
-784 -786 0
-785 -786 0
-787 -788 0
-787 -789 0
-788 -789 0
-790 -791 0
-790 -792 0
-791 -792 0
-793 -794 0
-793 -795 0
-794 -795 0
-796 -797 0
-796 -798 0
-797 -798 0
-799 -800 0
-799 -801 0
-800 -801 0
-802 -803 0
-802 -804 0
-803 -804 0
-805 -806 0
-805 -807 0
-806 -807 0
-808 -809 0
-808 -810 0
-809 -810 0
-811 -812 0
-811 -813 0
-812 -813 0
-814 -815 0
-814 -816 0
-815 -816 0
-817 -818 0
-817 -819 0
-818 -819 0
-820 -821 0
-820 -822 0
-821 -822 0
-823 -824 0
-823 -825 0
-824 -825 0
-826 -827 0
-826 -828 0
-827 -828 0
-829 -830 0
-829 -831 0
-830 -831 0
-832 -833 0
-832 -834 0
-833 -834 0
-835 -836 0
-835 -837 0
-836 -837 0
-838 -839 0
-838 -840 0
-839 -840 0
-841 -842 0
-841 -843 0
-842 -843 0
-844 -845 0
-844 -846 0
-845 -846 0
-847 -848 0
-847 -849 0
-848 -849 0
-850 -851 0
-850 -852 0
-851 -852 0
-853 -854 0
-853 -855 0
-854 -855 0
-856 -857 0
-856 -858 0
-857 -858 0
-859 -860 0
-859 -861 0
-860 -861 0
-862 -863 0
-862 -864 0
-863 -864 0
-865 -866 0
-865 -867 0
-866 -867 0
-868 -869 0
-868 -870 0
-869 -870 0
-871 -872 0
-871 -873 0
-872 -873 0
-874 -875 0
-874 -876 0
-875 -876 0
-877 -878 0
-877 -879 0
-878 -879 0
-880 -881 0
-880 -882 0
-881 -882 0
-883 -884 0
-883 -885 0
-884 -885 0
-886 -887 0
-886 -888 0
-887 -888 0
-889 -890 0
-889 -891 0
-890 -891 0
-892 -893 0
-892 -894 0
-893 -894 0
-895 -896 0
-895 -897 0
-896 -897 0
-898 -899 0
-898 -900 0
-899 -900 0
-901 -902 0
-901 -903 0
-902 -903 0
-904 -905 0
-904 -906 0
-905 -906 0
-907 -908 0
-907 -909 0
-908 -909 0
-910 -911 0
-910 -912 0
-911 -912 0
-913 -914 0
-913 -915 0
-914 -915 0
-916 -917 0
-916 -918 0
-917 -918 0
-919 -920 0
-919 -921 0
-920 -921 0
-922 -923 0
-922 -924 0
-923 -924 0
-925 -926 0
-925 -927 0
-926 -927 0
-928 -929 0
-928 -930 0
-929 -930 0
-931 -932 0
-931 -933 0
-932 -933 0
-934 -935 0
-934 -936 0
-935 -936 0
-937 -938 0
-937 -939 0
-938 -939 0
-940 -941 0
-940 -942 0
-941 -942 0
-943 -944 0
-943 -945 0
-944 -945 0
-946 -947 0
-946 -948 0
-947 -948 0
-949 -950 0
-949 -951 0
-950 -951 0
-952 -953 0
-952 -954 0
-953 -954 0
-955 -956 0
-955 -957 0
-956 -957 0
-958 -959 0
-958 -960 0
-959 -960 0
-961 -962 0
-961 -963 0
-962 -963 0
-964 -965 0
-964 -966 0
-965 -966 0
-967 -968 0
-967 -969 0
-968 -969 0
-970 -971 0
-970 -972 0
-971 -972 0
-973 -974 0
-973 -975 0
-974 -975 0
-976 -977 0
-976 -978 0
-977 -978 0
-979 -980 0
-979 -981 0
-980 -981 0
-982 -983 0
-982 -984 0
-983 -984 0
-985 -986 0
-985 -987 0
-986 -987 0
-988 -989 0
-988 -990 0
-989 -990 0
-991 -992 0
-991 -993 0
-992 -993 0
-994 -995 0
-994 -996 0
-995 -996 0
-997 -998 0
-997 -999 0
-998 -999 0
-1000 -1001 0
-1000 -1002 0
-1001 -1002 0
-1003 -1004 0
-1003 -1005 0
-1004 -1005 0
-1006 -1007 0
-1006 -1008 0
-1007 -1008 0
-1009 -1010 0
-1009 -1011 0
-1010 -1011 0
-1012 -1013 0
-1012 -1014 0
-1013 -1014 0
-1015 -1016 0
-1015 -1017 0
-1016 -1017 0
-1018 -1019 0
-1018 -1020 0
-1019 -1020 0
-1021 -1022 0
-1021 -1023 0
-1022 -1023 0
-1024 -1025 0
-1024 -1026 0
-1025 -1026 0
-1027 -1028 0
-1027 -1029 0
-1028 -1029 0
-1030 -1031 0
-1030 -1032 0
-1031 -1032 0
-1033 -1034 0
-1033 -1035 0
-1034 -1035 0
-1036 -1037 0
-1036 -1038 0
-1037 -1038 0
-1039 -1040 0
-1039 -1041 0
-1040 -1041 0
-1042 -1043 0
-1042 -1044 0
-1043 -1044 0
-1045 -1046 0
-1045 -1047 0
-1046 -1047 0
-1048 -1049 0
-1048 -1050 0
-1049 -1050 0
-1051 -1052 0
-1051 -1053 0
-1052 -1053 0
-1054 -1055 0
-1054 -1056 0
-1055 -1056 0
-1057 -1058 0
-1057 -1059 0
-1058 -1059 0
-1060 -1061 0
-1060 -1062 0
-1061 -1062 0
-1063 -1064 0
-1063 -1065 0
-1064 -1065 0
-1066 -1067 0
-1066 -1068 0
-1067 -1068 0
-1069 -1070 0
-1069 -1071 0
-1070 -1071 0
-1072 -1073 0
-1072 -1074 0
-1073 -1074 0
-1075 -1076 0
-1075 -1077 0
-1076 -1077 0
-1078 -1079 0
-1078 -1080 0
-1079 -1080 0
-1081 -1082 0
-1081 -1083 0
-1082 -1083 0
-1084 -1085 0
-1084 -1086 0
-1085 -1086 0
-1087 -1088 0
-1087 -1089 0
-1088 -1089 0
-1090 -1091 0
-1090 -1092 0
-1091 -1092 0
-1093 -1094 0
-1093 -1095 0
-1094 -1095 0
-1096 -1097 0
-1096 -1098 0
-1097 -1098 0
-1099 -1100 0
-1099 -1101 0
-1100 -1101 0
-1102 -1103 0
-1102 -1104 0
-1103 -1104 0
-1105 -1106 0
-1105 -1107 0
-1106 -1107 0
-1108 -1109 0
-1108 -1110 0
-1109 -1110 0
-1111 -1112 0
-1111 -1113 0
-1112 -1113 0
-1114 -1115 0
-1114 -1116 0
-1115 -1116 0
-1117 -1118 0
-1117 -1119 0
-1118 -1119 0
-1120 -1121 0
-1120 -1122 0
-1121 -1122 0
-1123 -1124 0
-1123 -1125 0
-1124 -1125 0
-1126 -1127 0
-1126 -1128 0
-1127 -1128 0
-1129 -1130 0
-1129 -1131 0
-1130 -1131 0
-1132 -1133 0
-1132 -1134 0
-1133 -1134 0
-1135 -1136 0
-1135 -1137 0
-1136 -1137 0
-1138 -1139 0
-1138 -1140 0
-1139 -1140 0
-1141 -1142 0
-1141 -1143 0
-1142 -1143 0
-1144 -1145 0
-1144 -1146 0
-1145 -1146 0
-1147 -1148 0
-1147 -1149 0
-1148 -1149 0
-1150 -1151 0
-1150 -1152 0
-1151 -1152 0
-1153 -1154 0
-1153 -1155 0
-1154 -1155 0
-1156 -1157 0
-1156 -1158 0
-1157 -1158 0
-1159 -1160 0
-1159 -1161 0
-1160 -1161 0
-1162 -1163 0
-1162 -1164 0
-1163 -1164 0
-1165 -1166 0
-1165 -1167 0
-1166 -1167 0
-1168 -1169 0
-1168 -1170 0
-1169 -1170 0
-1171 -1172 0
-1171 -1173 0
-1172 -1173 0
-1174 -1175 0
-1174 -1176 0
-1175 -1176 0
-1177 -1178 0
-1177 -1179 0
-1178 -1179 0
-1180 -1181 0
-1180 -1182 0
-1181 -1182 0
-1183 -1184 0
-1183 -1185 0
-1184 -1185 0
-1186 -1187 0
-1186 -1188 0
-1187 -1188 0
-1189 -1190 0
-1189 -1191 0
-1190 -1191 0
-1192 -1193 0
-1192 -1194 0
-1193 -1194 0
-1195 -1196 0
-1195 -1197 0
-1196 -1197 0
-1198 -1199 0
-1198 -1200 0
-1199 -1200 0
-1 -316 0
-2 -317 0
-3 -318 0
-1 -331 0
-2 -332 0
-3 -333 0
-1 -859 0
-2 -860 0
-3 -861 0
-4 -241 0
-5 -242 0
-6 -243 0
-4 -484 0
-5 -485 0
-6 -486 0
-7 -13 0
-8 -14 0
-9 -15 0
-7 -874 0
-8 -875 0
-9 -876 0
-7 -916 0
-8 -917 0
-9 -918 0
-7 -988 0
-8 -989 0
-9 -990 0
-7 -1048 0
-8 -1049 0
-9 -1050 0
-10 -115 0
-11 -116 0
-12 -117 0
-10 -295 0
-11 -296 0
-12 -297 0
-10 -406 0
-11 -407 0
-12 -408 0
-10 -763 0
-11 -764 0
-12 -765 0
-10 -1066 0
-11 -1067 0
-12 -1068 0
-13 -283 0
-14 -284 0
-15 -285 0
-13 -469 0
-14 -470 0
-15 -471 0
-13 -982 0
-14 -983 0
-15 -984 0
-16 -691 0
-17 -692 0
-18 -693 0
-16 -1078 0
-17 -1079 0
-18 -1080 0
-19 -64 0
-20 -65 0
-21 -66 0
-19 -157 0
-20 -158 0
-21 -159 0
-19 -409 0
-20 -410 0
-21 -411 0
-19 -466 0
-20 -467 0
-21 -468 0
-19 -841 0
-20 -842 0
-21 -843 0
-19 -1159 0
-20 -1160 0
-21 -1161 0
-22 -37 0
-23 -38 0
-24 -39 0
-22 -130 0
-23 -131 0
-24 -132 0
-22 -535 0
-23 -536 0
-24 -537 0
-22 -799 0
-23 -800 0
-24 -801 0
-22 -913 0
-23 -914 0
-24 -915 0
-22 -1180 0
-23 -1181 0
-24 -1182 0
-25 -271 0
-26 -272 0
-27 -273 0
-25 -349 0
-26 -350 0
-27 -351 0
-25 -706 0
-26 -707 0
-27 -708 0
-25 -796 0
-26 -797 0
-27 -798 0
-28 -223 0
-29 -224 0
-30 -225 0
-28 -334 0
-29 -335 0
-30 -336 0
-28 -949 0
-29 -950 0
-30 -951 0
-28 -991 0
-29 -992 0
-30 -993 0
-31 -124 0
-32 -125 0
-33 -126 0
-31 -130 0
-32 -131 0
-33 -132 0
-31 -385 0
-32 -386 0
-33 -387 0
-31 -445 0
-32 -446 0
-33 -447 0
-31 -568 0
-32 -569 0
-33 -570 0
-31 -622 0
-32 -623 0
-33 -624 0
-31 -628 0
-32 -629 0
-33 -630 0
-31 -1165 0
-32 -1166 0
-33 -1167 0
-34 -160 0
-35 -161 0
-36 -162 0
-34 -334 0
-35 -335 0
-36 -336 0
-34 -487 0
-35 -488 0
-36 -489 0
-34 -703 0
-35 -704 0
-36 -705 0
-34 -868 0
-35 -869 0
-36 -870 0
-34 -961 0
-35 -962 0
-36 -963 0
-37 -394 0
-38 -395 0
-39 -396 0
-40 -691 0
-41 -692 0
-42 -693 0
-40 -712 0
-41 -713 0
-42 -714 0
-40 -1015 0
-41 -1016 0
-42 -1017 0
-43 -442 0
-44 -443 0
-45 -444 0
-43 -715 0
-44 -716 0
-45 -717 0
-43 -736 0
-44 -737 0
-45 -738 0
-43 -1060 0
-44 -1061 0
-45 -1062 0
-46 -103 0
-47 -104 0
-48 -105 0
-46 -142 0
-47 -143 0
-48 -144 0
-46 -340 0
-47 -341 0
-48 -342 0
-46 -679 0
-47 -680 0
-48 -681 0
-46 -757 0
-47 -758 0
-48 -759 0
-46 -847 0
-47 -848 0
-48 -849 0
-49 -286 0
-50 -287 0
-51 -288 0
-49 -289 0
-50 -290 0
-51 -291 0
-49 -316 0
-50 -317 0
-51 -318 0
-49 -358 0
-50 -359 0
-51 -360 0
-49 -463 0
-50 -464 0
-51 -465 0
-49 -676 0
-50 -677 0
-51 -678 0
-49 -910 0
-50 -911 0
-51 -912 0
-52 -619 0
-53 -620 0
-54 -621 0
-52 -916 0
-53 -917 0
-54 -918 0
-52 -934 0
-53 -935 0
-54 -936 0
-55 -175 0
-56 -176 0
-57 -177 0
-55 -655 0
-56 -656 0
-57 -657 0
-55 -1039 0
-56 -1040 0
-57 -1041 0
-55 -1045 0
-56 -1046 0
-57 -1047 0
-58 -448 0
-59 -449 0
-60 -450 0
-58 -757 0
-59 -758 0
-60 -759 0
-58 -982 0
-59 -983 0
-60 -984 0
-58 -1006 0
-59 -1007 0
-60 -1008 0
-58 -1030 0
-59 -1031 0
-60 -1032 0
-61 -148 0
-62 -149 0
-63 -150 0
-61 -250 0
-62 -251 0
-63 -252 0
-61 -325 0
-62 -326 0
-63 -327 0
-61 -478 0
-62 -479 0
-63 -480 0
-61 -691 0
-62 -692 0
-63 -693 0
-61 -1129 0
-62 -1130 0
-63 -1131 0
-61 -1159 0
-62 -1160 0
-63 -1161 0
-64 -88 0
-65 -89 0
-66 -90 0
-64 -1117 0
-65 -1118 0
-66 -1119 0
-67 -127 0
-68 -128 0
-69 -129 0
-67 -259 0
-68 -260 0
-69 -261 0
-67 -682 0
-68 -683 0
-69 -684 0
-67 -1033 0
-68 -1034 0
-69 -1035 0
-67 -1102 0
-68 -1103 0
-69 -1104 0
-70 -166 0
-71 -167 0
-72 -168 0
-70 -316 0
-71 -317 0
-72 -318 0
-70 -373 0
-71 -374 0
-72 -375 0
-70 -376 0
-71 -377 0
-72 -378 0
-70 -421 0
-71 -422 0
-72 -423 0
-70 -463 0
-71 -464 0
-72 -465 0
-70 -649 0
-71 -650 0
-72 -651 0
-73 -82 0
-74 -83 0
-75 -84 0
-73 -169 0
-74 -170 0
-75 -171 0
-73 -283 0
-74 -284 0
-75 -285 0
-73 -1009 0
-74 -1010 0
-75 -1011 0
-76 -181 0
-77 -182 0
-78 -183 0
-76 -619 0
-77 -620 0
-78 -621 0
-76 -811 0
-77 -812 0
-78 -813 0
-76 -985 0
-77 -986 0
-78 -987 0
-76 -1111 0
-77 -1112 0
-78 -1113 0
-79 -223 0
-80 -224 0
-81 -225 0
-82 -193 0
-83 -194 0
-84 -195 0
-82 -307 0
-83 -308 0
-84 -309 0
-82 -952 0
-83 -953 0
-84 -954 0
-82 -1165 0
-83 -1166 0
-84 -1167 0
-85 -193 0
-86 -194 0
-87 -195 0
-85 -907 0
-86 -908 0
-87 -909 0
-85 -919 0
-86 -920 0
-87 -921 0
-88 -508 0
-89 -509 0
-90 -510 0
-88 -760 0
-89 -761 0
-90 -762 0
-88 -814 0
-89 -815 0
-90 -816 0
-88 -874 0
-89 -875 0
-90 -876 0
-91 -112 0
-92 -113 0
-93 -114 0
-91 -688 0
-92 -689 0
-93 -690 0
-91 -967 0
-92 -968 0
-93 -969 0
-91 -991 0
-92 -992 0
-93 -993 0
-91 -1021 0
-92 -1022 0
-93 -1023 0
-91 -1171 0
-92 -1172 0
-93 -1173 0
-94 -187 0
-95 -188 0
-96 -189 0
-97 -106 0
-98 -107 0
-99 -108 0
-100 -133 0
-101 -134 0
-102 -135 0
-100 -253 0
-101 -254 0
-102 -255 0
-100 -535 0
-101 -536 0
-102 -537 0
-100 -574 0
-101 -575 0
-102 -576 0
-100 -790 0
-101 -791 0
-102 -792 0
-103 -475 0
-104 -476 0
-105 -477 0
-103 -907 0
-104 -908 0
-105 -909 0
-103 -1189 0
-104 -1190 0
-105 -1191 0
-106 -1189 0
-107 -1190 0
-108 -1191 0
-109 -280 0
-110 -281 0
-111 -282 0
-109 -283 0
-110 -284 0
-111 -285 0
-109 -301 0
-110 -302 0
-111 -303 0
-109 -535 0
-110 -536 0
-111 -537 0
-109 -778 0
-110 -779 0
-111 -780 0
-109 -1147 0
-110 -1148 0
-111 -1149 0
-112 -262 0
-113 -263 0
-114 -264 0
-112 -1051 0
-113 -1052 0
-114 -1053 0
-112 -1168 0
-113 -1169 0
-114 -1170 0
-115 -196 0
-116 -197 0
-117 -198 0
-115 -268 0
-116 -269 0
-117 -270 0
-115 -448 0
-116 -449 0
-117 -450 0
-115 -946 0
-116 -947 0
-117 -948 0
-115 -1021 0
-116 -1022 0
-117 -1023 0
-118 -370 0
-119 -371 0
-120 -372 0
-118 -397 0
-119 -398 0
-120 -399 0
-118 -493 0
-119 -494 0
-120 -495 0
-118 -901 0
-119 -902 0
-120 -903 0
-118 -1150 0
-119 -1151 0
-120 -1152 0
-121 -145 0
-122 -146 0
-123 -147 0
-121 -310 0
-122 -311 0
-123 -312 0
-121 -718 0
-122 -719 0
-123 -720 0
-121 -724 0
-122 -725 0
-123 -726 0
-121 -895 0
-122 -896 0
-123 -897 0
-124 -151 0
-125 -152 0
-126 -153 0
-124 -214 0
-125 -215 0
-126 -216 0
-124 -235 0
-125 -236 0
-126 -237 0
-124 -376 0
-125 -377 0
-126 -378 0
-124 -760 0
-125 -761 0
-126 -762 0
-124 -1093 0
-125 -1094 0
-126 -1095 0
-127 -163 0
-128 -164 0
-129 -165 0
-127 -283 0
-128 -284 0
-129 -285 0
-127 -640 0
-128 -641 0
-129 -642 0
-127 -793 0
-128 -794 0
-129 -795 0
-127 -907 0
-128 -908 0
-129 -909 0
-130 -556 0
-131 -557 0
-132 -558 0
-130 -652 0
-131 -653 0
-132 -654 0
-130 -682 0
-131 -683 0
-132 -684 0
-130 -751 0
-131 -752 0
-132 -753 0
-133 -205 0
-134 -206 0
-135 -207 0
-133 -232 0
-134 -233 0
-135 -234 0
-133 -298 0
-134 -299 0
-135 -300 0
-133 -517 0
-134 -518 0
-135 -519 0
-133 -583 0
-134 -584 0
-135 -585 0
-133 -703 0
-134 -704 0
-135 -705 0
-133 -844 0
-134 -845 0
-135 -846 0
-133 -1039 0
-134 -1040 0
-135 -1041 0
-136 -337 0
-137 -338 0
-138 -339 0
-136 -631 0
-137 -632 0
-138 -633 0
-136 -697 0
-137 -698 0
-138 -699 0
-136 -859 0
-137 -860 0
-138 -861 0
-136 -862 0
-137 -863 0
-138 -864 0
-136 -1048 0
-137 -1049 0
-138 -1050 0
-139 -436 0
-140 -437 0
-141 -438 0
-139 -511 0
-140 -512 0
-141 -513 0
-139 -586 0
-140 -587 0
-141 -588 0
-139 -880 0
-140 -881 0
-141 -882 0
-139 -928 0
-140 -929 0
-141 -930 0
-139 -1126 0
-140 -1127 0
-141 -1128 0
-142 -157 0
-143 -158 0
-144 -159 0
-142 -172 0
-143 -173 0
-144 -174 0
-142 -334 0
-143 -335 0
-144 -336 0
-142 -589 0
-143 -590 0
-144 -591 0
-142 -676 0
-143 -677 0
-144 -678 0
-142 -1072 0
-143 -1073 0
-144 -1074 0
-145 -493 0
-146 -494 0
-147 -495 0
-145 -778 0
-146 -779 0
-147 -780 0
-145 -892 0
-146 -893 0
-147 -894 0
-145 -1057 0
-146 -1058 0
-147 -1059 0
-148 -280 0
-149 -281 0
-150 -282 0
-148 -1039 0
-149 -1040 0
-150 -1041 0
-151 -400 0
-152 -401 0
-153 -402 0
-151 -868 0
-152 -869 0
-153 -870 0
-151 -1027 0
-152 -1028 0
-153 -1029 0
-151 -1102 0
-152 -1103 0
-153 -1104 0
-151 -1120 0
-152 -1121 0
-153 -1122 0
-151 -1162 0
-152 -1163 0
-153 -1164 0
-154 -982 0
-155 -983 0
-156 -984 0
-157 -355 0
-158 -356 0
-159 -357 0
-157 -391 0
-158 -392 0
-159 -393 0
-157 -445 0
-158 -446 0
-159 -447 0
-157 -928 0
-158 -929 0
-159 -930 0
-160 -184 0
-161 -185 0
-162 -186 0
-160 -211 0
-161 -212 0
-162 -213 0
-160 -253 0
-161 -254 0
-162 -255 0
-160 -271 0
-161 -272 0
-162 -273 0
-160 -499 0
-161 -500 0
-162 -501 0
-160 -778 0
-161 -779 0
-162 -780 0
-160 -802 0
-161 -803 0
-162 -804 0
-163 -484 0
-164 -485 0
-165 -486 0
-166 -223 0
-167 -224 0
-168 -225 0
-166 -253 0
-167 -254 0
-168 -255 0
-166 -1111 0
-167 -1112 0
-168 -1113 0
-169 -586 0
-170 -587 0
-171 -588 0
-169 -754 0
-170 -755 0
-171 -756 0
-169 -976 0
-170 -977 0
-171 -978 0
-169 -1144 0
-170 -1145 0
-171 -1146 0
-172 -487 0
-173 -488 0
-174 -489 0
-175 -631 0
-176 -632 0
-177 -633 0
-175 -811 0
-176 -812 0
-177 -813 0
-175 -970 0
-176 -971 0
-177 -972 0
-175 -1042 0
-176 -1043 0
-177 -1044 0
-178 -220 0
-179 -221 0
-180 -222 0
-178 -259 0
-179 -260 0
-180 -261 0
-178 -607 0
-179 -608 0
-180 -609 0
-178 -877 0
-179 -878 0
-180 -879 0
-178 -1198 0
-179 -1199 0
-180 -1200 0
-181 -400 0
-182 -401 0
-183 -402 0
-181 -811 0
-182 -812 0
-183 -813 0
-181 -925 0
-182 -926 0
-183 -927 0
-181 -1069 0
-182 -1070 0
-183 -1071 0
-184 -217 0
-185 -218 0
-186 -219 0
-184 -454 0
-185 -455 0
-186 -456 0
-184 -649 0
-185 -650 0
-186 -651 0
-187 -292 0
-188 -293 0
-189 -294 0
-187 -385 0
-188 -386 0
-189 -387 0
-187 -997 0
-188 -998 0
-189 -999 0
-190 -331 0
-191 -332 0
-192 -333 0
-190 -481 0
-191 -482 0
-192 -483 0
-190 -514 0
-191 -515 0
-192 -516 0
-190 -691 0
-191 -692 0
-192 -693 0
-193 -760 0
-194 -761 0
-195 -762 0
-193 -880 0
-194 -881 0
-195 -882 0
-193 -964 0
-194 -965 0
-195 -966 0
-196 -487 0
-197 -488 0
-198 -489 0
-196 -502 0
-197 -503 0
-198 -504 0
-196 -682 0
-197 -683 0
-198 -684 0
-196 -1033 0
-197 -1034 0
-198 -1035 0
-199 -481 0
-200 -482 0
-201 -483 0
-199 -655 0
-200 -656 0
-201 -657 0
-199 -685 0
-200 -686 0
-201 -687 0
-199 -802 0
-200 -803 0
-201 -804 0
-199 -883 0
-200 -884 0
-201 -885 0
-202 -460 0
-203 -461 0
-204 -462 0
-202 -616 0
-203 -617 0
-204 -618 0
-202 -721 0
-203 -722 0
-204 -723 0
-202 -943 0
-203 -944 0
-204 -945 0
-205 -268 0
-206 -269 0
-207 -270 0
-205 -496 0
-206 -497 0
-207 -498 0
-205 -832 0
-206 -833 0
-207 -834 0
-205 -844 0
-206 -845 0
-207 -846 0
-205 -970 0
-206 -971 0
-207 -972 0
-208 -844 0
-209 -845 0
-210 -846 0
-208 -916 0
-209 -917 0
-210 -918 0
-208 -1066 0
-209 -1067 0
-210 -1068 0
-211 -253 0
-212 -254 0
-213 -255 0
-211 -277 0
-212 -278 0
-213 -279 0
-211 -535 0
-212 -536 0
-213 -537 0
-211 -736 0
-212 -737 0
-213 -738 0
-211 -910 0
-212 -911 0
-213 -912 0
-211 -931 0
-212 -932 0
-213 -933 0
-211 -1156 0
-212 -1157 0
-213 -1158 0
-214 -481 0
-215 -482 0
-216 -483 0
-214 -628 0
-215 -629 0
-216 -630 0
-214 -643 0
-215 -644 0
-216 -645 0
-214 -1045 0
-215 -1046 0
-216 -1047 0
-217 -307 0
-218 -308 0
-219 -309 0
-217 -337 0
-218 -338 0
-219 -339 0
-217 -820 0
-218 -821 0
-219 -822 0
-220 -1006 0
-221 -1007 0
-222 -1008 0
-223 -550 0
-224 -551 0
-225 -552 0
-223 -820 0
-224 -821 0
-225 -822 0
-223 -904 0
-224 -905 0
-225 -906 0
-223 -1084 0
-224 -1085 0
-225 -1086 0
-223 -1093 0
-224 -1094 0
-225 -1095 0
-226 -259 0
-227 -260 0
-228 -261 0
-226 -757 0
-227 -758 0
-228 -759 0
-226 -913 0
-227 -914 0
-228 -915 0
-226 -1075 0
-227 -1076 0
-228 -1077 0
-226 -1129 0
-227 -1130 0
-228 -1131 0
-229 -637 0
-230 -638 0
-231 -639 0
-229 -808 0
-230 -809 0
-231 -810 0
-229 -1165 0
-230 -1166 0
-231 -1167 0
-232 -247 0
-233 -248 0
-234 -249 0
-232 -343 0
-233 -344 0
-234 -345 0
-232 -580 0
-233 -581 0
-234 -582 0
-232 -598 0
-233 -599 0
-234 -600 0
-232 -622 0
-233 -623 0
-234 -624 0
-232 -817 0
-233 -818 0
-234 -819 0
-232 -874 0
-233 -875 0
-234 -876 0
-232 -895 0
-233 -896 0
-234 -897 0
-235 -358 0
-236 -359 0
-237 -360 0
-235 -1078 0
-236 -1079 0
-237 -1080 0
-238 -598 0
-239 -599 0
-240 -600 0
-238 -784 0
-239 -785 0
-240 -786 0
-238 -1192 0
-239 -1193 0
-240 -1194 0
-241 -904 0
-242 -905 0
-243 -906 0
-244 -364 0
-245 -365 0
-246 -366 0
-244 -421 0
-245 -422 0
-246 -423 0
-244 -778 0
-245 -779 0
-246 -780 0
-244 -799 0
-245 -800 0
-246 -801 0
-244 -1195 0
-245 -1196 0
-246 -1197 0
-247 -322 0
-248 -323 0
-249 -324 0
-247 -1090 0
-248 -1091 0
-249 -1092 0
-247 -1135 0
-248 -1136 0
-249 -1137 0
-250 -493 0
-251 -494 0
-252 -495 0
-250 -523 0
-251 -524 0
-252 -525 0
-253 -613 0
-254 -614 0
-255 -615 0
-253 -685 0
-254 -686 0
-255 -687 0
-253 -829 0
-254 -830 0
-255 -831 0
-253 -1012 0
-254 -1013 0
-255 -1014 0
-253 -1084 0
-254 -1085 0
-255 -1086 0
-256 -505 0
-257 -506 0
-258 -507 0
-256 -583 0
-257 -584 0
-258 -585 0
-256 -592 0
-257 -593 0
-258 -594 0
-256 -976 0
-257 -977 0
-258 -978 0
-256 -1045 0
-257 -1046 0
-258 -1047 0
-256 -1111 0
-257 -1112 0
-258 -1113 0
-259 -1123 0
-260 -1124 0
-261 -1125 0
-262 -277 0
-263 -278 0
-264 -279 0
-262 -625 0
-263 -626 0
-264 -627 0
-262 -706 0
-263 -707 0
-264 -708 0
-262 -712 0
-263 -713 0
-264 -714 0
-262 -943 0
-263 -944 0
-264 -945 0
-265 -280 0
-266 -281 0
-267 -282 0
-265 -1144 0
-266 -1145 0
-267 -1146 0
-268 -532 0
-269 -533 0
-270 -534 0
-268 -712 0
-269 -713 0
-270 -714 0
-268 -1057 0
-269 -1058 0
-270 -1059 0
-268 -1198 0
-269 -1199 0
-270 -1200 0
-271 -370 0
-272 -371 0
-273 -372 0
-274 -793 0
-275 -794 0
-276 -795 0
-277 -370 0
-278 -371 0
-279 -372 0
-277 -457 0
-278 -458 0
-279 -459 0
-277 -715 0
-278 -716 0
-279 -717 0
-277 -1045 0
-278 -1046 0
-279 -1047 0
-280 -448 0
-281 -449 0
-282 -450 0
-280 -1003 0
-281 -1004 0
-282 -1005 0
-280 -1006 0
-281 -1007 0
-282 -1008 0
-280 -1051 0
-281 -1052 0
-282 -1053 0
-283 -319 0
-284 -320 0
-285 -321 0
-283 -598 0
-284 -599 0
-285 -600 0
-283 -793 0
-284 -794 0
-285 -795 0
-283 -1021 0
-284 -1022 0
-285 -1023 0
-283 -1159 0
-284 -1160 0
-285 -1161 0
-286 -934 0
-287 -935 0
-288 -936 0
-289 -352 0
-290 -353 0
-291 -354 0
-289 -451 0
-290 -452 0
-291 -453 0
-289 -1108 0
-290 -1109 0
-291 -1110 0
-289 -1126 0
-290 -1127 0
-291 -1128 0
-292 -802 0
-293 -803 0
-294 -804 0
-292 -976 0
-293 -977 0
-294 -978 0
-295 -511 0
-296 -512 0
-297 -513 0
-295 -940 0
-296 -941 0
-297 -942 0
-298 -418 0
-299 -419 0
-300 -420 0
-298 -751 0
-299 -752 0
-300 -753 0
-301 -535 0
-302 -536 0
-303 -537 0
-301 -547 0
-302 -548 0
-303 -549 0
-301 -652 0
-302 -653 0
-303 -654 0
-301 -682 0
-302 -683 0
-303 -684 0
-301 -892 0
-302 -893 0
-303 -894 0
-301 -988 0
-302 -989 0
-303 -990 0
-301 -994 0
-302 -995 0
-303 -996 0
-304 -400 0
-305 -401 0
-306 -402 0
-304 -535 0
-305 -536 0
-306 -537 0
-304 -1063 0
-305 -1064 0
-306 -1065 0
-307 -985 0
-308 -986 0
-309 -987 0
-310 -406 0
-311 -407 0
-312 -408 0
-310 -580 0
-311 -581 0
-312 -582 0
-310 -619 0
-311 -620 0
-312 -621 0
-310 -700 0
-311 -701 0
-312 -702 0
-313 -409 0
-314 -410 0
-315 -411 0
-313 -472 0
-314 -473 0
-315 -474 0
-313 -694 0
-314 -695 0
-315 -696 0
-316 -343 0
-317 -344 0
-318 -345 0
-316 -346 0
-317 -347 0
-318 -348 0
-316 -568 0
-317 -569 0
-318 -570 0
-316 -715 0
-317 -716 0
-318 -717 0
-316 -796 0
-317 -797 0
-318 -798 0
-316 -850 0
-317 -851 0
-318 -852 0
-319 -886 0
-320 -887 0
-321 -888 0
-319 -1039 0
-320 -1040 0
-321 -1041 0
-319 -1135 0
-320 -1136 0
-321 -1137 0
-322 -325 0
-323 -326 0
-324 -327 0
-322 -868 0
-323 -869 0
-324 -870 0
-322 -1132 0
-323 -1133 0
-324 -1134 0
-322 -1177 0
-323 -1178 0
-324 -1179 0
-325 -835 0
-326 -836 0
-327 -837 0
-331 -856 0
-332 -857 0
-333 -858 0
-331 -991 0
-332 -992 0
-333 -993 0
-334 -598 0
-335 -599 0
-336 -600 0
-334 -877 0
-335 -878 0
-336 -879 0
-337 -694 0
-338 -695 0
-339 -696 0
-337 -784 0
-338 -785 0
-339 -786 0
-337 -937 0
-338 -938 0
-339 -939 0
-337 -976 0
-338 -977 0
-339 -978 0
-340 -529 0
-341 -530 0
-342 -531 0
-340 -1084 0
-341 -1085 0
-342 -1086 0
-343 -394 0
-344 -395 0
-345 -396 0
-343 -742 0
-344 -743 0
-345 -744 0
-343 -748 0
-344 -749 0
-345 -750 0
-346 -643 0
-347 -644 0
-348 -645 0
-346 -886 0
-347 -887 0
-348 -888 0
-346 -1156 0
-347 -1157 0
-348 -1158 0
-349 -547 0
-350 -548 0
-351 -549 0
-349 -580 0
-350 -581 0
-351 -582 0
-349 -730 0
-350 -731 0
-351 -732 0
-352 -520 0
-353 -521 0
-354 -522 0
-352 -544 0
-353 -545 0
-354 -546 0
-352 -592 0
-353 -593 0
-354 -594 0
-352 -739 0
-353 -740 0
-354 -741 0
-352 -790 0
-353 -791 0
-354 -792 0
-352 -925 0
-353 -926 0
-354 -927 0
-355 -358 0
-356 -359 0
-357 -360 0
-355 -391 0
-356 -392 0
-357 -393 0
-355 -1075 0
-356 -1076 0
-357 -1077 0
-355 -1195 0
-356 -1196 0
-357 -1197 0
-358 -472 0
-359 -473 0
-360 -474 0
-358 -511 0
-359 -512 0
-360 -513 0
-358 -529 0
-359 -530 0
-360 -531 0
-358 -586 0
-359 -587 0
-360 -588 0
-358 -718 0
-359 -719 0
-360 -720 0
-358 -874 0
-359 -875 0
-360 -876 0
-358 -976 0
-359 -977 0
-360 -978 0
-361 -805 0
-362 -806 0
-363 -807 0
-361 -907 0
-362 -908 0
-363 -909 0
-361 -1051 0
-362 -1052 0
-363 -1053 0
-364 -388 0
-365 -389 0
-366 -390 0
-364 -433 0
-365 -434 0
-366 -435 0
-364 -469 0
-365 -470 0
-366 -471 0
-364 -715 0
-365 -716 0
-366 -717 0
-367 -1003 0
-368 -1004 0
-369 -1005 0
-367 -1180 0
-368 -1181 0
-369 -1182 0
-370 -496 0
-371 -497 0
-372 -498 0
-373 -430 0
-374 -431 0
-375 -432 0
-373 -490 0
-374 -491 0
-375 -492 0
-373 -781 0
-374 -782 0
-375 -783 0
-373 -1186 0
-374 -1187 0
-375 -1188 0
-376 -1120 0
-377 -1121 0
-378 -1122 0
-379 -604 0
-380 -605 0
-381 -606 0
-379 -649 0
-380 -650 0
-381 -651 0
-379 -811 0
-380 -812 0
-381 -813 0
-379 -871 0
-380 -872 0
-381 -873 0
-379 -883 0
-380 -884 0
-381 -885 0
-382 -433 0
-383 -434 0
-384 -435 0
-382 -991 0
-383 -992 0
-384 -993 0
-382 -1000 0
-383 -1001 0
-384 -1002 0
-382 -1186 0
-383 -1187 0
-384 -1188 0
-385 -508 0
-386 -509 0
-387 -510 0
-385 -733 0
-386 -734 0
-387 -735 0
-385 -799 0
-386 -800 0
-387 -801 0
-385 -982 0
-386 -983 0
-387 -984 0
-385 -1183 0
-386 -1184 0
-387 -1185 0
-388 -394 0
-389 -395 0
-390 -396 0
-388 -466 0
-389 -467 0
-390 -468 0
-388 -973 0
-389 -974 0
-390 -975 0
-388 -988 0
-389 -989 0
-390 -990 0
-391 -418 0
-392 -419 0
-393 -420 0
-391 -520 0
-392 -521 0
-393 -522 0
-391 -748 0
-392 -749 0
-393 -750 0
-391 -796 0
-392 -797 0
-393 -798 0
-394 -919 0
-395 -920 0
-396 -921 0
-394 -1096 0
-395 -1097 0
-396 -1098 0
-394 -1138 0
-395 -1139 0
-396 -1140 0
-397 -451 0
-398 -452 0
-399 -453 0
-397 -466 0
-398 -467 0
-399 -468 0
-397 -883 0
-398 -884 0
-399 -885 0
-397 -919 0
-398 -920 0
-399 -921 0
-397 -937 0
-398 -938 0
-399 -939 0
-397 -1012 0
-398 -1013 0
-399 -1014 0
-397 -1198 0
-398 -1199 0
-399 -1200 0
-400 -763 0
-401 -764 0
-402 -765 0
-400 -964 0
-401 -965 0
-402 -966 0
-403 -829 0
-404 -830 0
-405 -831 0
-403 -868 0
-404 -869 0
-405 -870 0
-403 -952 0
-404 -953 0
-405 -954 0
-403 -979 0
-404 -980 0
-405 -981 0
-403 -1111 0
-404 -1112 0
-405 -1113 0
-403 -1141 0
-404 -1142 0
-405 -1143 0
-406 -418 0
-407 -419 0
-408 -420 0
-406 -622 0
-407 -623 0
-408 -624 0
-409 -808 0
-410 -809 0
-411 -810 0
-412 -778 0
-413 -779 0
-414 -780 0
-412 -895 0
-413 -896 0
-414 -897 0
-412 -922 0
-413 -923 0
-414 -924 0
-412 -937 0
-413 -938 0
-414 -939 0
-412 -967 0
-413 -968 0
-414 -969 0
-412 -1072 0
-413 -1073 0
-414 -1074 0
-412 -1186 0
-413 -1187 0
-414 -1188 0
-415 -646 0
-416 -647 0
-417 -648 0
-415 -904 0
-416 -905 0
-417 -906 0
-415 -1141 0
-416 -1142 0
-417 -1143 0
-418 -457 0
-419 -458 0
-420 -459 0
-418 -889 0
-419 -890 0
-420 -891 0
-418 -1003 0
-419 -1004 0
-420 -1005 0
-421 -724 0
-422 -725 0
-423 -726 0
-421 -910 0
-422 -911 0
-423 -912 0
-424 -511 0
-425 -512 0
-426 -513 0
-424 -637 0
-425 -638 0
-426 -639 0
-424 -739 0
-425 -740 0
-426 -741 0
-427 -892 0
-428 -893 0
-429 -894 0
-427 -1168 0
-428 -1169 0
-429 -1170 0
-430 -1099 0
-431 -1100 0
-432 -1101 0
-433 -568 0
-434 -569 0
-435 -570 0
-433 -604 0
-434 -605 0
-435 -606 0
-433 -682 0
-434 -683 0
-435 -684 0
-439 -529 0
-440 -530 0
-441 -531 0
-439 -688 0
-440 -689 0
-441 -690 0
-439 -736 0
-440 -737 0
-441 -738 0
-439 -838 0
-440 -839 0
-441 -840 0
-442 -568 0
-443 -569 0
-444 -570 0
-442 -631 0
-443 -632 0
-444 -633 0
-445 -667 0
-446 -668 0
-447 -669 0
-445 -778 0
-446 -779 0
-447 -780 0
-445 -1072 0
-446 -1073 0
-447 -1074 0
-448 -490 0
-449 -491 0
-450 -492 0
-448 -1006 0
-449 -1007 0
-450 -1008 0
-451 -646 0
-452 -647 0
-453 -648 0
-451 -796 0
-452 -797 0
-453 -798 0
-451 -1102 0
-452 -1103 0
-453 -1104 0
-451 -1114 0
-452 -1115 0
-453 -1116 0
-454 -538 0
-455 -539 0
-456 -540 0
-454 -802 0
-455 -803 0
-456 -804 0
-457 -652 0
-458 -653 0
-459 -654 0
-460 -505 0
-461 -506 0
-462 -507 0
-460 -595 0
-461 -596 0
-462 -597 0
-460 -988 0
-461 -989 0
-462 -990 0
-460 -1117 0
-461 -1118 0
-462 -1119 0
-463 -475 0
-464 -476 0
-465 -477 0
-463 -529 0
-464 -530 0
-465 -531 0
-463 -1171 0
-464 -1172 0
-465 -1173 0
-466 -571 0
-467 -572 0
-468 -573 0
-466 -868 0
-467 -869 0
-468 -870 0
-466 -1138 0
-467 -1139 0
-468 -1140 0
-466 -1162 0
-467 -1163 0
-468 -1164 0
-466 -1168 0
-467 -1169 0
-468 -1170 0
-469 -742 0
-470 -743 0
-471 -744 0
-469 -796 0
-470 -797 0
-471 -798 0
-469 -1000 0
-470 -1001 0
-471 -1002 0
-469 -1030 0
-470 -1031 0
-471 -1032 0
-472 -652 0
-473 -653 0
-474 -654 0
-472 -739 0
-473 -740 0
-474 -741 0
-472 -865 0
-473 -866 0
-474 -867 0
-472 -1111 0
-473 -1112 0
-474 -1113 0
-475 -700 0
-476 -701 0
-477 -702 0
-475 -952 0
-476 -953 0
-477 -954 0
-475 -961 0
-476 -962 0
-477 -963 0
-478 -661 0
-479 -662 0
-480 -663 0
-478 -1060 0
-479 -1061 0
-480 -1062 0
-478 -1171 0
-479 -1172 0
-480 -1173 0
-481 -592 0
-482 -593 0
-483 -594 0
-484 -502 0
-485 -503 0
-486 -504 0
-484 -892 0
-485 -893 0
-486 -894 0
-484 -1072 0
-485 -1073 0
-486 -1074 0
-487 -1003 0
-488 -1004 0
-489 -1005 0
-487 -1084 0
-488 -1085 0
-489 -1086 0
-487 -1105 0
-488 -1106 0
-489 -1107 0
-490 -946 0
-491 -947 0
-492 -948 0
-490 -1120 0
-491 -1121 0
-492 -1122 0
-493 -856 0
-494 -857 0
-495 -858 0
-493 -1084 0
-494 -1085 0
-495 -1086 0
-493 -1120 0
-494 -1121 0
-495 -1122 0
-496 -901 0
-497 -902 0
-498 -903 0
-499 -682 0
-500 -683 0
-501 -684 0
-499 -907 0
-500 -908 0
-501 -909 0
-499 -1012 0
-500 -1013 0
-501 -1014 0
-502 -778 0
-503 -779 0
-504 -780 0
-502 -850 0
-503 -851 0
-504 -852 0
-502 -1165 0
-503 -1166 0
-504 -1167 0
-505 -511 0
-506 -512 0
-507 -513 0
-505 -769 0
-506 -770 0
-507 -771 0
-505 -814 0
-506 -815 0
-507 -816 0
-505 -904 0
-506 -905 0
-507 -906 0
-505 -919 0
-506 -920 0
-507 -921 0
-505 -1150 0
-506 -1151 0
-507 -1152 0
-508 -679 0
-509 -680 0
-510 -681 0
-508 -1030 0
-509 -1031 0
-510 -1032 0
-511 -913 0
-512 -914 0
-513 -915 0
-514 -538 0
-515 -539 0
-516 -540 0
-514 -1030 0
-515 -1031 0
-516 -1032 0
-517 -520 0
-518 -521 0
-519 -522 0
-517 -850 0
-518 -851 0
-519 -852 0
-517 -925 0
-518 -926 0
-519 -927 0
-517 -1054 0
-518 -1055 0
-519 -1056 0
-520 -589 0
-521 -590 0
-522 -591 0
-520 -739 0
-521 -740 0
-522 -741 0
-520 -877 0
-521 -878 0
-522 -879 0
-520 -994 0
-521 -995 0
-522 -996 0
-520 -1162 0
-521 -1163 0
-522 -1164 0
-529 -565 0
-530 -566 0
-531 -567 0
-529 -583 0
-530 -584 0
-531 -585 0
-529 -649 0
-530 -650 0
-531 -651 0
-529 -754 0
-530 -755 0
-531 -756 0
-529 -844 0
-530 -845 0
-531 -846 0
-529 -1060 0
-530 -1061 0
-531 -1062 0
-532 -1012 0
-533 -1013 0
-534 -1014 0
-532 -1198 0
-533 -1199 0
-534 -1200 0
-535 -574 0
-536 -575 0
-537 -576 0
-535 -943 0
-536 -944 0
-537 -945 0
-535 -1162 0
-536 -1163 0
-537 -1164 0
-538 -1033 0
-539 -1034 0
-540 -1035 0
-538 -1090 0
-539 -1091 0
-540 -1092 0
-538 -1108 0
-539 -1109 0
-540 -1110 0
-541 -910 0
-542 -911 0
-543 -912 0
-541 -997 0
-542 -998 0
-543 -999 0
-541 -1015 0
-542 -1016 0
-543 -1017 0
-541 -1129 0
-542 -1130 0
-543 -1131 0
-544 -640 0
-545 -641 0
-546 -642 0
-544 -775 0
-545 -776 0
-546 -777 0
-544 -967 0
-545 -968 0
-546 -969 0
-550 -577 0
-551 -578 0
-552 -579 0
-550 -703 0
-551 -704 0
-552 -705 0
-550 -841 0
-551 -842 0
-552 -843 0
-550 -1105 0
-551 -1106 0
-552 -1107 0
-550 -1120 0
-551 -1121 0
-552 -1122 0
-556 -619 0
-557 -620 0
-558 -621 0
-556 -640 0
-557 -641 0
-558 -642 0
-556 -769 0
-557 -770 0
-558 -771 0
-556 -949 0
-557 -950 0
-558 -951 0
-559 -586 0
-560 -587 0
-561 -588 0
-559 -949 0
-560 -950 0
-561 -951 0
-559 -1168 0
-560 -1169 0
-561 -1170 0
-562 -640 0
-563 -641 0
-564 -642 0
-562 -685 0
-563 -686 0
-564 -687 0
-562 -1036 0
-563 -1037 0
-564 -1038 0
-562 -1078 0
-563 -1079 0
-564 -1080 0
-565 -607 0
-566 -608 0
-567 -609 0
-565 -769 0
-566 -770 0
-567 -771 0
-565 -799 0
-566 -800 0
-567 -801 0
-565 -805 0
-566 -806 0
-567 -807 0
-565 -1066 0
-566 -1067 0
-567 -1068 0
-565 -1102 0
-566 -1103 0
-567 -1104 0
-568 -661 0
-569 -662 0
-570 -663 0
-568 -688 0
-569 -689 0
-570 -690 0
-568 -844 0
-569 -845 0
-570 -846 0
-571 -694 0
-572 -695 0
-573 -696 0
-571 -940 0
-572 -941 0
-573 -942 0
-574 -835 0
-575 -836 0
-576 -837 0
-574 -853 0
-575 -854 0
-576 -855 0
-577 -1126 0
-578 -1127 0
-579 -1128 0
-580 -727 0
-581 -728 0
-582 -729 0
-580 -787 0
-581 -788 0
-582 -789 0
-580 -1147 0
-581 -1148 0
-582 -1149 0
-583 -586 0
-584 -587 0
-585 -588 0
-583 -883 0
-584 -884 0
-585 -885 0
-583 -979 0
-584 -980 0
-585 -981 0
-586 -592 0
-587 -593 0
-588 -594 0
-589 -688 0
-590 -689 0
-591 -690 0
-589 -862 0
-590 -863 0
-591 -864 0
-589 -865 0
-590 -866 0
-591 -867 0
-589 -988 0
-590 -989 0
-591 -990 0
-589 -1024 0
-590 -1025 0
-591 -1026 0
-589 -1087 0
-590 -1088 0
-591 -1089 0
-592 -1177 0
-593 -1178 0
-594 -1179 0
-601 -622 0
-602 -623 0
-603 -624 0
-601 -685 0
-602 -686 0
-603 -687 0
-601 -871 0
-602 -872 0
-603 -873 0
-601 -1177 0
-602 -1178 0
-603 -1179 0
-604 -805 0
-605 -806 0
-606 -807 0
-604 -847 0
-605 -848 0
-606 -849 0
-607 -727 0
-608 -728 0
-609 -729 0
-607 -874 0
-608 -875 0
-609 -876 0
-610 -811 0
-611 -812 0
-612 -813 0
-610 -937 0
-611 -938 0
-612 -939 0
-613 -955 0
-614 -956 0
-615 -957 0
-613 -1147 0
-614 -1148 0
-615 -1149 0
-613 -1171 0
-614 -1172 0
-615 -1173 0
-616 -844 0
-617 -845 0
-618 -846 0
-619 -685 0
-620 -686 0
-621 -687 0
-619 -700 0
-620 -701 0
-621 -702 0
-619 -892 0
-620 -893 0
-621 -894 0
-619 -1069 0
-620 -1070 0
-621 -1071 0
-619 -1165 0
-620 -1166 0
-621 -1167 0
-622 -766 0
-623 -767 0
-624 -768 0
-622 -814 0
-623 -815 0
-624 -816 0
-622 -919 0
-623 -920 0
-624 -921 0
-631 -670 0
-632 -671 0
-633 -672 0
-631 -964 0
-632 -965 0
-633 -966 0
-631 -1180 0
-632 -1181 0
-633 -1182 0
-634 -1198 0
-635 -1199 0
-636 -1200 0
-637 -844 0
-638 -845 0
-639 -846 0
-640 -973 0
-641 -974 0
-642 -975 0
-640 -1048 0
-641 -1049 0
-642 -1050 0
-640 -1126 0
-641 -1127 0
-642 -1128 0
-643 -796 0
-644 -797 0
-645 -798 0
-646 -1186 0
-647 -1187 0
-648 -1188 0
-649 -658 0
-650 -659 0
-651 -660 0
-649 -715 0
-650 -716 0
-651 -717 0
-652 -1039 0
-653 -1040 0
-654 -1041 0
-655 -1060 0
-656 -1061 0
-657 -1062 0
-658 -760 0
-659 -761 0
-660 -762 0
-658 -766 0
-659 -767 0
-660 -768 0
-658 -802 0
-659 -803 0
-660 -804 0
-658 -823 0
-659 -824 0
-660 -825 0
-658 -1111 0
-659 -1112 0
-660 -1113 0
-661 -712 0
-662 -713 0
-663 -714 0
-661 -892 0
-662 -893 0
-663 -894 0
-661 -958 0
-662 -959 0
-663 -960 0
-664 -1156 0
-665 -1157 0
-666 -1158 0
-664 -1159 0
-665 -1160 0
-666 -1161 0
-667 -670 0
-668 -671 0
-669 -672 0
-667 -817 0
-668 -818 0
-669 -819 0
-670 -868 0
-671 -869 0
-672 -870 0
-670 -895 0
-671 -896 0
-672 -897 0
-670 -1006 0
-671 -1007 0
-672 -1008 0
-670 -1180 0
-671 -1181 0
-672 -1182 0
-673 -742 0
-674 -743 0
-675 -744 0
-673 -769 0
-674 -770 0
-675 -771 0
-673 -985 0
-674 -986 0
-675 -987 0
-673 -1162 0
-674 -1163 0
-675 -1164 0
-676 -1126 0
-677 -1127 0
-678 -1128 0
-676 -1129 0
-677 -1130 0
-678 -1131 0
-679 -1171 0
-680 -1172 0
-681 -1173 0
-682 -781 0
-683 -782 0
-684 -783 0
-685 -856 0
-686 -857 0
-687 -858 0
-685 -895 0
-686 -896 0
-687 -897 0
-685 -910 0
-686 -911 0
-687 -912 0
-688 -808 0
-689 -809 0
-690 -810 0
-691 -913 0
-692 -914 0
-693 -915 0
-691 -1042 0
-692 -1043 0
-693 -1044 0
-694 -1138 0
-695 -1139 0
-696 -1140 0
-697 -739 0
-698 -740 0
-699 -741 0
-700 -1114 0
-701 -1115 0
-702 -1116 0
-703 -742 0
-704 -743 0
-705 -744 0
-703 -793 0
-704 -794 0
-705 -795 0
-703 -850 0
-704 -851 0
-705 -852 0
-703 -859 0
-704 -860 0
-705 -861 0
-703 -1132 0
-704 -1133 0
-705 -1134 0
-706 -715 0
-707 -716 0
-708 -717 0
-706 -718 0
-707 -719 0
-708 -720 0
-709 -838 0
-710 -839 0
-711 -840 0
-709 -865 0
-710 -866 0
-711 -867 0
-709 -1162 0
-710 -1163 0
-711 -1164 0
-709 -1168 0
-710 -1169 0
-711 -1170 0
-712 -982 0
-713 -983 0
-714 -984 0
-712 -1075 0
-713 -1076 0
-714 -1077 0
-715 -922 0
-716 -923 0
-717 -924 0
-715 -967 0
-716 -968 0
-717 -969 0
-715 -1156 0
-716 -1157 0
-717 -1158 0
-718 -814 0
-719 -815 0
-720 -816 0
-718 -1075 0
-719 -1076 0
-720 -1077 0
-721 -805 0
-722 -806 0
-723 -807 0
-721 -883 0
-722 -884 0
-723 -885 0
-721 -928 0
-722 -929 0
-723 -930 0
-721 -1132 0
-722 -1133 0
-723 -1134 0
-724 -1078 0
-725 -1079 0
-726 -1080 0
-727 -1021 0
-728 -1022 0
-729 -1023 0
-727 -1075 0
-728 -1076 0
-729 -1077 0
-736 -742 0
-737 -743 0
-738 -744 0
-736 -907 0
-737 -908 0
-738 -909 0
-739 -928 0
-740 -929 0
-741 -930 0
-742 -922 0
-743 -923 0
-744 -924 0
-742 -955 0
-743 -956 0
-744 -957 0
-748 -967 0
-749 -968 0
-750 -969 0
-748 -1021 0
-749 -1022 0
-750 -1023 0
-748 -1036 0
-749 -1037 0
-750 -1038 0
-751 -784 0
-752 -785 0
-753 -786 0
-751 -865 0
-752 -866 0
-753 -867 0
-751 -1054 0
-752 -1055 0
-753 -1056 0
-754 -958 0
-755 -959 0
-756 -960 0
-757 -1018 0
-758 -1019 0
-759 -1020 0
-757 -1036 0
-758 -1037 0
-759 -1038 0
-757 -1057 0
-758 -1058 0
-759 -1059 0
-760 -802 0
-761 -803 0
-762 -804 0
-760 -1048 0
-761 -1049 0
-762 -1050 0
-763 -781 0
-764 -782 0
-765 -783 0
-763 -886 0
-764 -887 0
-765 -888 0
-766 -772 0
-767 -773 0
-768 -774 0
-766 -1033 0
-767 -1034 0
-768 -1035 0
-766 -1087 0
-767 -1088 0
-768 -1089 0
-769 -781 0
-770 -782 0
-771 -783 0
-769 -883 0
-770 -884 0
-771 -885 0
-772 -850 0
-773 -851 0
-774 -852 0
-772 -964 0
-773 -965 0
-774 -966 0
-772 -1174 0
-773 -1175 0
-774 -1176 0
-775 -874 0
-776 -875 0
-777 -876 0
-775 -1153 0
-776 -1154 0
-777 -1155 0
-781 -868 0
-782 -869 0
-783 -870 0
-781 -898 0
-782 -899 0
-783 -900 0
-781 -1147 0
-782 -1148 0
-783 -1149 0
-784 -880 0
-785 -881 0
-786 -882 0
-784 -898 0
-785 -899 0
-786 -900 0
-784 -934 0
-785 -935 0
-786 -936 0
-784 -988 0
-785 -989 0
-786 -990 0
-787 -967 0
-788 -968 0
-789 -969 0
-790 -907 0
-791 -908 0
-792 -909 0
-790 -1057 0
-791 -1058 0
-792 -1059 0
-793 -961 0
-794 -962 0
-795 -963 0
-793 -982 0
-794 -983 0
-795 -984 0
-793 -994 0
-794 -995 0
-795 -996 0
-796 -967 0
-797 -968 0
-798 -969 0
-796 -1012 0
-797 -1013 0
-798 -1014 0
-802 -1162 0
-803 -1163 0
-804 -1164 0
-805 -904 0
-806 -905 0
-807 -906 0
-805 -913 0
-806 -914 0
-807 -915 0
-805 -940 0
-806 -941 0
-807 -942 0
-805 -1024 0
-806 -1025 0
-807 -1026 0
-805 -1111 0
-806 -1112 0
-807 -1113 0
-808 -988 0
-809 -989 0
-810 -990 0
-808 -994 0
-809 -995 0
-810 -996 0
-808 -1003 0
-809 -1004 0
-810 -1005 0
-808 -1075 0
-809 -1076 0
-810 -1077 0
-817 -1039 0
-818 -1040 0
-819 -1041 0
-817 -1195 0
-818 -1196 0
-819 -1197 0
-823 -880 0
-824 -881 0
-825 -882 0
-829 -1024 0
-830 -1025 0
-831 -1026 0
-829 -1072 0
-830 -1073 0
-831 -1074 0
-829 -1078 0
-830 -1079 0
-831 -1080 0
-832 -1084 0
-833 -1085 0
-834 -1086 0
-835 -1129 0
-836 -1130 0
-837 -1131 0
-835 -1162 0
-836 -1163 0
-837 -1164 0
-841 -991 0
-842 -992 0
-843 -993 0
-841 -1027 0
-842 -1028 0
-843 -1029 0
-844 -937 0
-845 -938 0
-846 -939 0
-844 -1012 0
-845 -1013 0
-846 -1014 0
-847 -889 0
-848 -890 0
-849 -891 0
-847 -970 0
-848 -971 0
-849 -972 0
-850 -955 0
-851 -956 0
-852 -957 0
-850 -1117 0
-851 -1118 0
-852 -1119 0
-850 -1156 0
-851 -1157 0
-852 -1158 0
-850 -1165 0
-851 -1166 0
-852 -1167 0
-853 -1078 0
-854 -1079 0
-855 -1080 0
-859 -1027 0
-860 -1028 0
-861 -1029 0
-859 -1183 0
-860 -1184 0
-861 -1185 0
-868 -1153 0
-869 -1154 0
-870 -1155 0
-871 -1033 0
-872 -1034 0
-873 -1035 0
-871 -1156 0
-872 -1157 0
-873 -1158 0
-874 -931 0
-875 -932 0
-876 -933 0
-877 -889 0
-878 -890 0
-879 -891 0
-877 -1117 0
-878 -1118 0
-879 -1119 0
-877 -1156 0
-878 -1157 0
-879 -1158 0
-880 -997 0
-881 -998 0
-882 -999 0
-880 -1060 0
-881 -1061 0
-882 -1062 0
-886 -928 0
-887 -929 0
-888 -930 0
-886 -1105 0
-887 -1106 0
-888 -1107 0
-886 -1138 0
-887 -1139 0
-888 -1140 0
-892 -1114 0
-893 -1115 0
-894 -1116 0
-898 -970 0
-899 -971 0
-900 -972 0
-898 -976 0
-899 -977 0
-900 -978 0
-898 -994 0
-899 -995 0
-900 -996 0
-898 -1102 0
-899 -1103 0
-900 -1104 0
-898 -1186 0
-899 -1187 0
-900 -1188 0
-901 -1141 0
-902 -1142 0
-903 -1143 0
-907 -1147 0
-908 -1148 0
-909 -1149 0
-910 -931 0
-911 -932 0
-912 -933 0
-910 -1051 0
-911 -1052 0
-912 -1053 0
-916 -1006 0
-917 -1007 0
-918 -1008 0
-922 -925 0
-923 -926 0
-924 -927 0
-922 -964 0
-923 -965 0
-924 -966 0
-922 -994 0
-923 -995 0
-924 -996 0
-922 -1015 0
-923 -1016 0
-924 -1017 0
-922 -1177 0
-923 -1178 0
-924 -1179 0
-925 -961 0
-926 -962 0
-927 -963 0
-925 -1045 0
-926 -1046 0
-927 -1047 0
-934 -1036 0
-935 -1037 0
-936 -1038 0
-934 -1111 0
-935 -1112 0
-936 -1113 0
-934 -1147 0
-935 -1148 0
-936 -1149 0
-937 -985 0
-938 -986 0
-939 -987 0
-937 -1051 0
-938 -1052 0
-939 -1053 0
-943 -1009 0
-944 -1010 0
-945 -1011 0
-943 -1066 0
-944 -1067 0
-945 -1068 0
-943 -1186 0
-944 -1187 0
-945 -1188 0
-946 -955 0
-947 -956 0
-948 -957 0
-952 -1132 0
-953 -1133 0
-954 -1134 0
-961 -1027 0
-962 -1028 0
-963 -1029 0
-961 -1072 0
-962 -1073 0
-963 -1074 0
-964 -1162 0
-965 -1163 0
-966 -1164 0
-967 -1174 0
-968 -1175 0
-969 -1176 0
-970 -1147 0
-971 -1148 0
-972 -1149 0
-976 -1180 0
-977 -1181 0
-978 -1182 0
-982 -988 0
-983 -989 0
-984 -990 0
-988 -1189 0
-989 -1190 0
-990 -1191 0
-994 -1057 0
-995 -1058 0
-996 -1059 0
-994 -1189 0
-995 -1190 0
-996 -1191 0
-997 -1141 0
-998 -1142 0
-999 -1143 0
-997 -1183 0
-998 -1184 0
-999 -1185 0
-1006 -1045 0
-1007 -1046 0
-1008 -1047 0
-1006 -1141 0
-1007 -1142 0
-1008 -1143 0
-1015 -1123 0
-1016 -1124 0
-1017 -1125 0
-1018 -1030 0
-1019 -1031 0
-1020 -1032 0
-1024 -1072 0
-1025 -1073 0
-1026 -1074 0
-1024 -1156 0
-1025 -1157 0
-1026 -1158 0
-1024 -1174 0
-1025 -1175 0
-1026 -1176 0
-1024 -1198 0
-1025 -1199 0
-1026 -1200 0
-1027 -1075 0
-1028 -1076 0
-1029 -1077 0
-1033 -1177 0
-1034 -1178 0
-1035 -1179 0
-1036 -1132 0
-1037 -1133 0
-1038 -1134 0
-1060 -1189 0
-1061 -1190 0
-1062 -1191 0
-1075 -1135 0
-1076 -1136 0
-1077 -1137 0
-1096 -1177 0
-1097 -1178 0
-1098 -1179 0
-1099 -1198 0
-1100 -1199 0
-1101 -1200 0
-1108 -1192 0
-1109 -1193 0
-1110 -1194 0
-1111 -1123 0
-1112 -1124 0
-1113 -1125 0
-1114 -1120 0
-1115 -1121 0
-1116 -1122 0
-1117 -1123 0
-1118 -1124 0
-1119 -1125 0
-1117 -1135 0
-1118 -1136 0
-1119 -1137 0
-1120 -1132 0
-1121 -1133 0
-1122 -1134 0
-1123 -1180 0
-1124 -1181 0
-1125 -1182 0
-1135 -1138 0
-1136 -1139 0
-1137 -1140 0
-1147 -1195 0
-1148 -1196 0
-1149 -1197 0
