p cnf 1500 5666
1 2 3 0
4 5 6 0
7 8 9 0
10 11 12 0
13 14 15 0
16 17 18 0
19 20 21 0
22 23 24 0
25 26 27 0
28 29 30 0
31 32 33 0
34 35 36 0
37 38 39 0
40 41 42 0
43 44 45 0
46 47 48 0
49 50 51 0
52 53 54 0
55 56 57 0
58 59 60 0
61 62 63 0
64 65 66 0
67 68 69 0
70 71 72 0
73 74 75 0
76 77 78 0
79 80 81 0
82 83 84 0
85 86 87 0
88 89 90 0
91 92 93 0
94 95 96 0
97 98 99 0
100 101 102 0
103 104 105 0
106 107 108 0
109 110 111 0
112 113 114 0
115 116 117 0
118 119 120 0
121 122 123 0
124 125 126 0
127 128 129 0
130 131 132 0
133 134 135 0
136 137 138 0
139 140 141 0
142 143 144 0
145 146 147 0
148 149 150 0
151 152 153 0
154 155 156 0
157 158 159 0
160 161 162 0
163 164 165 0
166 167 168 0
169 170 171 0
172 173 174 0
175 176 177 0
178 179 180 0
181 182 183 0
184 185 186 0
187 188 189 0
190 191 192 0
193 194 195 0
196 197 198 0
199 200 201 0
202 203 204 0
205 206 207 0
208 209 210 0
211 212 213 0
214 215 216 0
217 218 219 0
220 221 222 0
223 224 225 0
226 227 228 0
229 230 231 0
232 233 234 0
235 236 237 0
238 239 240 0
241 242 243 0
244 245 246 0
247 248 249 0
250 251 252 0
253 254 255 0
256 257 258 0
259 260 261 0
262 263 264 0
265 266 267 0
268 269 270 0
271 272 273 0
274 275 276 0
277 278 279 0
280 281 282 0
283 284 285 0
286 287 288 0
289 290 291 0
292 293 294 0
295 296 297 0
298 299 300 0
301 302 303 0
304 305 306 0
307 308 309 0
310 311 312 0
313 314 315 0
316 317 318 0
319 320 321 0
322 323 324 0
325 326 327 0
328 329 330 0
331 332 333 0
334 335 336 0
337 338 339 0
340 341 342 0
343 344 345 0
346 347 348 0
349 350 351 0
352 353 354 0
355 356 357 0
358 359 360 0
361 362 363 0
364 365 366 0
367 368 369 0
370 371 372 0
373 374 375 0
376 377 378 0
379 380 381 0
382 383 384 0
385 386 387 0
388 389 390 0
391 392 393 0
394 395 396 0
397 398 399 0
400 401 402 0
403 404 405 0
406 407 408 0
409 410 411 0
412 413 414 0
415 416 417 0
418 419 420 0
421 422 423 0
424 425 426 0
427 428 429 0
430 431 432 0
433 434 435 0
436 437 438 0
439 440 441 0
442 443 444 0
445 446 447 0
448 449 450 0
451 452 453 0
454 455 456 0
457 458 459 0
460 461 462 0
463 464 465 0
466 467 468 0
469 470 471 0
472 473 474 0
475 476 477 0
478 479 480 0
481 482 483 0
484 485 486 0
487 488 489 0
490 491 492 0
493 494 495 0
496 497 498 0
499 500 501 0
502 503 504 0
505 506 507 0
508 509 510 0
511 512 513 0
514 515 516 0
517 518 519 0
520 521 522 0
523 524 525 0
526 527 528 0
529 530 531 0
532 533 534 0
535 536 537 0
538 539 540 0
541 542 543 0
544 545 546 0
547 548 549 0
550 551 552 0
553 554 555 0
556 557 558 0
559 560 561 0
562 563 564 0
565 566 567 0
568 569 570 0
571 572 573 0
574 575 576 0
577 578 579 0
580 581 582 0
583 584 585 0
586 587 588 0
589 590 591 0
592 593 594 0
595 596 597 0
598 599 600 0
601 602 603 0
604 605 606 0
607 608 609 0
610 611 612 0
613 614 615 0
616 617 618 0
619 620 621 0
622 623 624 0
625 626 627 0
628 629 630 0
631 632 633 0
634 635 636 0
637 638 639 0
640 641 642 0
643 644 645 0
646 647 648 0
649 650 651 0
652 653 654 0
655 656 657 0
658 659 660 0
661 662 663 0
664 665 666 0
667 668 669 0
670 671 672 0
673 674 675 0
676 677 678 0
679 680 681 0
682 683 684 0
685 686 687 0
688 689 690 0
691 692 693 0
694 695 696 0
697 698 699 0
700 701 702 0
703 704 705 0
706 707 708 0
709 710 711 0
712 713 714 0
715 716 717 0
718 719 720 0
721 722 723 0
724 725 726 0
727 728 729 0
730 731 732 0
733 734 735 0
736 737 738 0
739 740 741 0
742 743 744 0
745 746 747 0
748 749 750 0
751 752 753 0
754 755 756 0
757 758 759 0
760 761 762 0
763 764 765 0
766 767 768 0
769 770 771 0
772 773 774 0
775 776 777 0
778 779 780 0
781 782 783 0
784 785 786 0
787 788 789 0
790 791 792 0
793 794 795 0
796 797 798 0
799 800 801 0
802 803 804 0
805 806 807 0
808 809 810 0
811 812 813 0
814 815 816 0
817 818 819 0
820 821 822 0
823 824 825 0
826 827 828 0
829 830 831 0
832 833 834 0
835 836 837 0
838 839 840 0
841 842 843 0
844 845 846 0
847 848 849 0
850 851 852 0
853 854 855 0
856 857 858 0
859 860 861 0
862 863 864 0
865 866 867 0
868 869 870 0
871 872 873 0
874 875 876 0
877 878 879 0
880 881 882 0
883 884 885 0
886 887 888 0
889 890 891 0
892 893 894 0
895 896 897 0
898 899 900 0
901 902 903 0
904 905 906 0
907 908 909 0
910 911 912 0
913 914 915 0
916 917 918 0
919 920 921 0
922 923 924 0
925 926 927 0
928 929 930 0
931 932 933 0
934 935 936 0
937 938 939 0
940 941 942 0
943 944 945 0
946 947 948 0
949 950 951 0
952 953 954 0
955 956 957 0
958 959 960 0
961 962 963 0
964 965 966 0
967 968 969 0
970 971 972 0
973 974 975 0
976 977 978 0
979 980 981 0
982 983 984 0
985 986 987 0
988 989 990 0
991 992 993 0
994 995 996 0
997 998 999 0
1000 1001 1002 0
1003 1004 1005 0
1006 1007 1008 0
1009 1010 1011 0
1012 1013 1014 0
1015 1016 1017 0
1018 1019 1020 0
1021 1022 1023 0
1024 1025 1026 0
1027 1028 1029 0
1030 1031 1032 0
1033 1034 1035 0
1036 1037 1038 0
1039 1040 1041 0
1042 1043 1044 0
1045 1046 1047 0
1048 1049 1050 0
1051 1052 1053 0
1054 1055 1056 0
1057 1058 1059 0
1060 1061 1062 0
1063 1064 1065 0
1066 1067 1068 0
1069 1070 1071 0
1072 1073 1074 0
1075 1076 1077 0
1078 1079 1080 0
1081 1082 1083 0
1084 1085 1086 0
1087 1088 1089 0
1090 1091 1092 0
1093 1094 1095 0
1096 1097 1098 0
1099 1100 1101 0
1102 1103 1104 0
1105 1106 1107 0
1108 1109 1110 0
1111 1112 1113 0
1114 1115 1116 0
1117 1118 1119 0
1120 1121 1122 0
1123 1124 1125 0
1126 1127 1128 0
1129 1130 1131 0
1132 1133 1134 0
1135 1136 1137 0
1138 1139 1140 0
1141 1142 1143 0
1144 1145 1146 0
1147 1148 1149 0
1150 1151 1152 0
1153 1154 1155 0
1156 1157 1158 0
1159 1160 1161 0
1162 1163 1164 0
1165 1166 1167 0
1168 1169 1170 0
1171 1172 1173 0
1174 1175 1176 0
1177 1178 1179 0
1180 1181 1182 0
1183 1184 1185 0
1186 1187 1188 0
1189 1190 1191 0
1192 1193 1194 0
1195 1196 1197 0
1198 1199 1200 0
1201 1202 1203 0
1204 1205 1206 0
1207 1208 1209 0
1210 1211 1212 0
1213 1214 1215 0
1216 1217 1218 0
1219 1220 1221 0
1222 1223 1224 0
1225 1226 1227 0
1228 1229 1230 0
1231 1232 1233 0
1234 1235 1236 0
1237 1238 1239 0
1240 1241 1242 0
1243 1244 1245 0
1246 1247 1248 0
1249 1250 1251 0
1252 1253 1254 0
1255 1256 1257 0
1258 1259 1260 0
1261 1262 1263 0
1264 1265 1266 0
1267 1268 1269 0
1270 1271 1272 0
1273 1274 1275 0
1276 1277 1278 0
1279 1280 1281 0
1282 1283 1284 0
1285 1286 1287 0
1288 1289 1290 0
1291 1292 1293 0
1294 1295 1296 0
1297 1298 1299 0
1300 1301 1302 0
1303 1304 1305 0
1306 1307 1308 0
1309 1310 1311 0
1312 1313 1314 0
1315 1316 1317 0
1318 1319 1320 0
1321 1322 1323 0
1324 1325 1326 0
1327 1328 1329 0
1330 1331 1332 0
1333 1334 1335 0
1336 1337 1338 0
1339 1340 1341 0
1342 1343 1344 0
1345 1346 1347 0
1348 1349 1350 0
1351 1352 1353 0
1354 1355 1356 0
1357 1358 1359 0
1360 1361 1362 0
1363 1364 1365 0
1366 1367 1368 0
1369 1370 1371 0
1372 1373 1374 0
1375 1376 1377 0
1378 1379 1380 0
1381 1382 1383 0
1384 1385 1386 0
1387 1388 1389 0
1390 1391 1392 0
1393 1394 1395 0
1396 1397 1398 0
1399 1400 1401 0
1402 1403 1404 0
1405 1406 1407 0
1408 1409 1410 0
1411 1412 1413 0
1414 1415 1416 0
1417 1418 1419 0
1420 1421 1422 0
1423 1424 1425 0
1426 1427 1428 0
1429 1430 1431 0
1432 1433 1434 0
1435 1436 1437 0
1438 1439 1440 0
1441 1442 1443 0
1444 1445 1446 0
1447 1448 1449 0
1450 1451 1452 0
1453 1454 1455 0
1456 1457 1458 0
1459 1460 1461 0
1462 1463 1464 0
1465 1466 1467 0
1468 1469 1470 0
1471 1472 1473 0
1474 1475 1476 0
1477 1478 1479 0
1480 1481 1482 0
1483 1484 1485 0
1486 1487 1488 0
1489 1490 1491 0
1492 1493 1494 0
1495 1496 1497 0
1498 1499 1500 0
-1 -2 0
-1 -3 0
-2 -3 0
-4 -5 0
-4 -6 0
-5 -6 0
-7 -8 0
-7 -9 0
-8 -9 0
-10 -11 0
-10 -12 0
-11 -12 0
-13 -14 0
-13 -15 0
-14 -15 0
-16 -17 0
-16 -18 0
-17 -18 0
-19 -20 0
-19 -21 0
-20 -21 0
-22 -23 0
-22 -24 0
-23 -24 0
-25 -26 0
-25 -27 0
-26 -27 0
-28 -29 0
-28 -30 0
-29 -30 0
-31 -32 0
-31 -33 0
-32 -33 0
-34 -35 0
-34 -36 0
-35 -36 0
-37 -38 0
-37 -39 0
-38 -39 0
-40 -41 0
-40 -42 0
-41 -42 0
-43 -44 0
-43 -45 0
-44 -45 0
-46 -47 0
-46 -48 0
-47 -48 0
-49 -50 0
-49 -51 0
-50 -51 0
-52 -53 0
-52 -54 0
-53 -54 0
-55 -56 0
-55 -57 0
-56 -57 0
-58 -59 0
-58 -60 0
-59 -60 0
-61 -62 0
-61 -63 0
-62 -63 0
-64 -65 0
-64 -66 0
-65 -66 0
-67 -68 0
-67 -69 0
-68 -69 0
-70 -71 0
-70 -72 0
-71 -72 0
-73 -74 0
-73 -75 0
-74 -75 0
-76 -77 0
-76 -78 0
-77 -78 0
-79 -80 0
-79 -81 0
-80 -81 0
-82 -83 0
-82 -84 0
-83 -84 0
-85 -86 0
-85 -87 0
-86 -87 0
-88 -89 0
-88 -90 0
-89 -90 0
-91 -92 0
-91 -93 0
-92 -93 0
-94 -95 0
-94 -96 0
-95 -96 0
-97 -98 0
-97 -99 0
-98 -99 0
-100 -101 0
-100 -102 0
-101 -102 0
-103 -104 0
-103 -105 0
-104 -105 0
-106 -107 0
-106 -108 0
-107 -108 0
-109 -110 0
-109 -111 0
-110 -111 0
-112 -113 0
-112 -114 0
-113 -114 0
-115 -116 0
-115 -117 0
-116 -117 0
-118 -119 0
-118 -120 0
-119 -120 0
-121 -122 0
-121 -123 0
-122 -123 0
-124 -125 0
-124 -126 0
-125 -126 0
-127 -128 0
-127 -129 0
-128 -129 0
-130 -131 0
-130 -132 0
-131 -132 0
-133 -134 0
-133 -135 0
-134 -135 0
-136 -137 0
-136 -138 0
-137 -138 0
-139 -140 0
-139 -141 0
-140 -141 0
-142 -143 0
-142 -144 0
-143 -144 0
-145 -146 0
-145 -147 0
-146 -147 0
-148 -149 0
-148 -150 0
-149 -150 0
-151 -152 0
-151 -153 0
-152 -153 0
-154 -155 0
-154 -156 0
-155 -156 0
-157 -158 0
-157 -159 0
-158 -159 0
-160 -161 0
-160 -162 0
-161 -162 0
-163 -164 0
-163 -165 0
-164 -165 0
-166 -167 0
-166 -168 0
-167 -168 0
-169 -170 0
-169 -171 0
-170 -171 0
-172 -173 0
-172 -174 0
-173 -174 0
-175 -176 0
-175 -177 0
-176 -177 0
-178 -179 0
-178 -180 0
-179 -180 0
-181 -182 0
-181 -183 0
-182 -183 0
-184 -185 0
-184 -186 0
-185 -186 0
-187 -188 0
-187 -189 0
-188 -189 0
-190 -191 0
-190 -192 0
-191 -192 0
-193 -194 0
-193 -195 0
-194 -195 0
-196 -197 0
-196 -198 0
-197 -198 0
-199 -200 0
-199 -201 0
-200 -201 0
-202 -203 0
-202 -204 0
-203 -204 0
-205 -206 0
-205 -207 0
-206 -207 0
-208 -209 0
-208 -210 0
-209 -210 0
-211 -212 0
-211 -213 0
-212 -213 0
-214 -215 0
-214 -216 0
-215 -216 0
-217 -218 0
-217 -219 0
-218 -219 0
-220 -221 0
-220 -222 0
-221 -222 0
-223 -224 0
-223 -225 0
-224 -225 0
-226 -227 0
-226 -228 0
-227 -228 0
-229 -230 0
-229 -231 0
-230 -231 0
-232 -233 0
-232 -234 0
-233 -234 0
-235 -236 0
-235 -237 0
-236 -237 0
-238 -239 0
-238 -240 0
-239 -240 0
-241 -242 0
-241 -243 0
-242 -243 0
-244 -245 0
-244 -246 0
-245 -246 0
-247 -248 0
-247 -249 0
-248 -249 0
-250 -251 0
-250 -252 0
-251 -252 0
-253 -254 0
-253 -255 0
-254 -255 0
-256 -257 0
-256 -258 0
-257 -258 0
-259 -260 0
-259 -261 0
-260 -261 0
-262 -263 0
-262 -264 0
-263 -264 0
-265 -266 0
-265 -267 0
-266 -267 0
-268 -269 0
-268 -270 0
-269 -270 0
-271 -272 0
-271 -273 0
-272 -273 0
-274 -275 0
-274 -276 0
-275 -276 0
-277 -278 0
-277 -279 0
-278 -279 0
-280 -281 0
-280 -282 0
-281 -282 0
-283 -284 0
-283 -285 0
-284 -285 0
-286 -287 0
-286 -288 0
-287 -288 0
-289 -290 0
-289 -291 0
-290 -291 0
-292 -293 0
-292 -294 0
-293 -294 0
-295 -296 0
-295 -297 0
-296 -297 0
-298 -299 0
-298 -300 0
-299 -300 0
-301 -302 0
-301 -303 0
-302 -303 0
-304 -305 0
-304 -306 0
-305 -306 0
-307 -308 0
-307 -309 0
-308 -309 0
-310 -311 0
-310 -312 0
-311 -312 0
-313 -314 0
-313 -315 0
-314 -315 0
-316 -317 0
-316 -318 0
-317 -318 0
-319 -320 0
-319 -321 0
-320 -321 0
-322 -323 0
-322 -324 0
-323 -324 0
-325 -326 0
-325 -327 0
-326 -327 0
-328 -329 0
-328 -330 0
-329 -330 0
-331 -332 0
-331 -333 0
-332 -333 0
-334 -335 0
-334 -336 0
-335 -336 0
-337 -338 0
-337 -339 0
-338 -339 0
-340 -341 0
-340 -342 0
-341 -342 0
-343 -344 0
-343 -345 0
-344 -345 0
-346 -347 0
-346 -348 0
-347 -348 0
-349 -350 0
-349 -351 0
-350 -351 0
-352 -353 0
-352 -354 0
-353 -354 0
-355 -356 0
-355 -357 0
-356 -357 0
-358 -359 0
-358 -360 0
-359 -360 0
-361 -362 0
-361 -363 0
-362 -363 0
-364 -365 0
-364 -366 0
-365 -366 0
-367 -368 0
-367 -369 0
-368 -369 0
-370 -371 0
-370 -372 0
-371 -372 0
-373 -374 0
-373 -375 0
-374 -375 0
-376 -377 0
-376 -378 0
-377 -378 0
-379 -380 0
-379 -381 0
-380 -381 0
-382 -383 0
-382 -384 0
-383 -384 0
-385 -386 0
-385 -387 0
-386 -387 0
-388 -389 0
-388 -390 0
-389 -390 0
-391 -392 0
-391 -393 0
-392 -393 0
-394 -395 0
-394 -396 0
-395 -396 0
-397 -398 0
-397 -399 0
-398 -399 0
-400 -401 0
-400 -402 0
-401 -402 0
-403 -404 0
-403 -405 0
-404 -405 0
-406 -407 0
-406 -408 0
-407 -408 0
-409 -410 0
-409 -411 0
-410 -411 0
-412 -413 0
-412 -414 0
-413 -414 0
-415 -416 0
-415 -417 0
-416 -417 0
-418 -419 0
-418 -420 0
-419 -420 0
-421 -422 0
-421 -423 0
-422 -423 0
-424 -425 0
-424 -426 0
-425 -426 0
-427 -428 0
-427 -429 0
-428 -429 0
-430 -431 0
-430 -432 0
-431 -432 0
-433 -434 0
-433 -435 0
-434 -435 0
-436 -437 0
-436 -438 0
-437 -438 0
-439 -440 0
-439 -441 0
-440 -441 0
-442 -443 0
-442 -444 0
-443 -444 0
-445 -446 0
-445 -447 0
-446 -447 0
-448 -449 0
-448 -450 0
-449 -450 0
-451 -452 0
-451 -453 0
-452 -453 0
-454 -455 0
-454 -456 0
-455 -456 0
-457 -458 0
-457 -459 0
-458 -459 0
-460 -461 0
-460 -462 0
-461 -462 0
-463 -464 0
-463 -465 0
-464 -465 0
-466 -467 0
-466 -468 0
-467 -468 0
-469 -470 0
-469 -471 0
-470 -471 0
-472 -473 0
-472 -474 0
-473 -474 0
-475 -476 0
-475 -477 0
-476 -477 0
-478 -479 0
-478 -480 0
-479 -480 0
-481 -482 0
-481 -483 0
-482 -483 0
-484 -485 0
-484 -486 0
-485 -486 0
-487 -488 0
-487 -489 0
-488 -489 0
-490 -491 0
-490 -492 0
-491 -492 0
-493 -494 0
-493 -495 0
-494 -495 0
-496 -497 0
-496 -498 0
-497 -498 0
-499 -500 0
-499 -501 0
-500 -501 0
-502 -503 0
-502 -504 0
-503 -504 0
-505 -506 0
-505 -507 0
-506 -507 0
-508 -509 0
-508 -510 0
-509 -510 0
-511 -512 0
-511 -513 0
-512 -513 0
-514 -515 0
-514 -516 0
-515 -516 0
-517 -518 0
-517 -519 0
-518 -519 0
-520 -521 0
-520 -522 0
-521 -522 0
-523 -524 0
-523 -525 0
-524 -525 0
-526 -527 0
-526 -528 0
-527 -528 0
-529 -530 0
-529 -531 0
-530 -531 0
-532 -533 0
-532 -534 0
-533 -534 0
-535 -536 0
-535 -537 0
-536 -537 0
-538 -539 0
-538 -540 0
-539 -540 0
-541 -542 0
-541 -543 0
-542 -543 0
-544 -545 0
-544 -546 0
-545 -546 0
-547 -548 0
-547 -549 0
-548 -549 0
-550 -551 0
-550 -552 0
-551 -552 0
-553 -554 0
-553 -555 0
-554 -555 0
-556 -557 0
-556 -558 0
-557 -558 0
-559 -560 0
-559 -561 0
-560 -561 0
-562 -563 0
-562 -564 0
-563 -564 0
-565 -566 0
-565 -567 0
-566 -567 0
-568 -569 0
-568 -570 0
-569 -570 0
-571 -572 0
-571 -573 0
-572 -573 0
-574 -575 0
-574 -576 0
-575 -576 0
-577 -578 0
-577 -579 0
-578 -579 0
-580 -581 0
-580 -582 0
-581 -582 0
-583 -584 0
-583 -585 0
-584 -585 0
-586 -587 0
-586 -588 0
-587 -588 0
-589 -590 0
-589 -591 0
-590 -591 0
-592 -593 0
-592 -594 0
-593 -594 0
-595 -596 0
-595 -597 0
-596 -597 0
-598 -599 0
-598 -600 0
-599 -600 0
-601 -602 0
-601 -603 0
-602 -603 0
-604 -605 0
-604 -606 0
-605 -606 0
-607 -608 0
-607 -609 0
-608 -609 0
-610 -611 0
-610 -612 0
-611 -612 0
-613 -614 0
-613 -615 0
-614 -615 0
-616 -617 0
-616 -618 0
-617 -618 0
-619 -620 0
-619 -621 0
-620 -621 0
-622 -623 0
-622 -624 0
-623 -624 0
-625 -626 0
-625 -627 0
-626 -627 0
-628 -629 0
-628 -630 0
-629 -630 0
-631 -632 0
-631 -633 0
-632 -633 0
-634 -635 0
-634 -636 0
-635 -636 0
-637 -638 0
-637 -639 0
-638 -639 0
-640 -641 0
-640 -642 0
-641 -642 0
-643 -644 0
-643 -645 0
-644 -645 0
-646 -647 0
-646 -648 0
-647 -648 0
-649 -650 0
-649 -651 0
-650 -651 0
-652 -653 0
-652 -654 0
-653 -654 0
-655 -656 0
-655 -657 0
-656 -657 0
-658 -659 0
-658 -660 0
-659 -660 0
-661 -662 0
-661 -663 0
-662 -663 0
-664 -665 0
-664 -666 0
-665 -666 0
-667 -668 0
-667 -669 0
-668 -669 0
-670 -671 0
-670 -672 0
-671 -672 0
-673 -674 0
-673 -675 0
-674 -675 0
-676 -677 0
-676 -678 0
-677 -678 0
-679 -680 0
-679 -681 0
-680 -681 0
-682 -683 0
-682 -684 0
-683 -684 0
-685 -686 0
-685 -687 0
-686 -687 0
-688 -689 0
-688 -690 0
-689 -690 0
-691 -692 0
-691 -693 0
-692 -693 0
-694 -695 0
-694 -696 0
-695 -696 0
-697 -698 0
-697 -699 0
-698 -699 0
-700 -701 0
-700 -702 0
-701 -702 0
-703 -704 0
-703 -705 0
-704 -705 0
-706 -707 0
-706 -708 0
-707 -708 0
-709 -710 0
-709 -711 0
-710 -711 0
-712 -713 0
-712 -714 0
-713 -714 0
-715 -716 0
-715 -717 0
-716 -717 0
-718 -719 0
-718 -720 0
-719 -720 0
-721 -722 0
-721 -723 0
-722 -723 0
-724 -725 0
-724 -726 0
-725 -726 0
-727 -728 0
-727 -729 0
-728 -729 0
-730 -731 0
-730 -732 0
-731 -732 0
-733 -734 0
-733 -735 0
-734 -735 0
-736 -737 0
-736 -738 0
-737 -738 0
-739 -740 0
-739 -741 0
-740 -741 0
-742 -743 0
-742 -744 0
-743 -744 0
-745 -746 0
-745 -747 0
-746 -747 0
-748 -749 0
-748 -750 0
-749 -750 0
-751 -752 0
-751 -753 0
-752 -753 0
-754 -755 0
-754 -756 0
-755 -756 0
-757 -758 0
-757 -759 0
-758 -759 0
-760 -761 0
-760 -762 0
-761 -762 0
-763 -764 0
-763 -765 0
-764 -765 0
-766 -767 0
-766 -768 0
-767 -768 0
-769 -770 0
-769 -771 0
-770 -771 0
-772 -773 0
-772 -774 0
-773 -774 0
-775 -776 0
-775 -777 0
-776 -777 0
-778 -779 0
-778 -780 0
-779 -780 0
-781 -782 0
-781 -783 0
-782 -783 0
-784 -785 0
-784 -786 0
-785 -786 0
-787 -788 0
-787 -789 0
-788 -789 0
-790 -791 0
-790 -792 0
-791 -792 0
-793 -794 0
-793 -795 0
-794 -795 0
-796 -797 0
-796 -798 0
-797 -798 0
-799 -800 0
-799 -801 0
-800 -801 0
-802 -803 0
-802 -804 0
-803 -804 0
-805 -806 0
-805 -807 0
-806 -807 0
-808 -809 0
-808 -810 0
-809 -810 0
-811 -812 0
-811 -813 0
-812 -813 0
-814 -815 0
-814 -816 0
-815 -816 0
-817 -818 0
-817 -819 0
-818 -819 0
-820 -821 0
-820 -822 0
-821 -822 0
-823 -824 0
-823 -825 0
-824 -825 0
-826 -827 0
-826 -828 0
-827 -828 0
-829 -830 0
-829 -831 0
-830 -831 0
-832 -833 0
-832 -834 0
-833 -834 0
-835 -836 0
-835 -837 0
-836 -837 0
-838 -839 0
-838 -840 0
-839 -840 0
-841 -842 0
-841 -843 0
-842 -843 0
-844 -845 0
-844 -846 0
-845 -846 0
-847 -848 0
-847 -849 0
-848 -849 0
-850 -851 0
-850 -852 0
-851 -852 0
-853 -854 0
-853 -855 0
-854 -855 0
-856 -857 0
-856 -858 0
-857 -858 0
-859 -860 0
-859 -861 0
-860 -861 0
-862 -863 0
-862 -864 0
-863 -864 0
-865 -866 0
-865 -867 0
-866 -867 0
-868 -869 0
-868 -870 0
-869 -870 0
-871 -872 0
-871 -873 0
-872 -873 0
-874 -875 0
-874 -876 0
-875 -876 0
-877 -878 0
-877 -879 0
-878 -879 0
-880 -881 0
-880 -882 0
-881 -882 0
-883 -884 0
-883 -885 0
-884 -885 0
-886 -887 0
-886 -888 0
-887 -888 0
-889 -890 0
-889 -891 0
-890 -891 0
-892 -893 0
-892 -894 0
-893 -894 0
-895 -896 0
-895 -897 0
-896 -897 0
-898 -899 0
-898 -900 0
-899 -900 0
-901 -902 0
-901 -903 0
-902 -903 0
-904 -905 0
-904 -906 0
-905 -906 0
-907 -908 0
-907 -909 0
-908 -909 0
-910 -911 0
-910 -912 0
-911 -912 0
-913 -914 0
-913 -915 0
-914 -915 0
-916 -917 0
-916 -918 0
-917 -918 0
-919 -920 0
-919 -921 0
-920 -921 0
-922 -923 0
-922 -924 0
-923 -924 0
-925 -926 0
-925 -927 0
-926 -927 0
-928 -929 0
-928 -930 0
-929 -930 0
-931 -932 0
-931 -933 0
-932 -933 0
-934 -935 0
-934 -936 0
-935 -936 0
-937 -938 0
-937 -939 0
-938 -939 0
-940 -941 0
-940 -942 0
-941 -942 0
-943 -944 0
-943 -945 0
-944 -945 0
-946 -947 0
-946 -948 0
-947 -948 0
-949 -950 0
-949 -951 0
-950 -951 0
-952 -953 0
-952 -954 0
-953 -954 0
-955 -956 0
-955 -957 0
-956 -957 0
-958 -959 0
-958 -960 0
-959 -960 0
-961 -962 0
-961 -963 0
-962 -963 0
-964 -965 0
-964 -966 0
-965 -966 0
-967 -968 0
-967 -969 0
-968 -969 0
-970 -971 0
-970 -972 0
-971 -972 0
-973 -974 0
-973 -975 0
-974 -975 0
-976 -977 0
-976 -978 0
-977 -978 0
-979 -980 0
-979 -981 0
-980 -981 0
-982 -983 0
-982 -984 0
-983 -984 0
-985 -986 0
-985 -987 0
-986 -987 0
-988 -989 0
-988 -990 0
-989 -990 0
-991 -992 0
-991 -993 0
-992 -993 0
-994 -995 0
-994 -996 0
-995 -996 0
-997 -998 0
-997 -999 0
-998 -999 0
-1000 -1001 0
-1000 -1002 0
-1001 -1002 0
-1003 -1004 0
-1003 -1005 0
-1004 -1005 0
-1006 -1007 0
-1006 -1008 0
-1007 -1008 0
-1009 -1010 0
-1009 -1011 0
-1010 -1011 0
-1012 -1013 0
-1012 -1014 0
-1013 -1014 0
-1015 -1016 0
-1015 -1017 0
-1016 -1017 0
-1018 -1019 0
-1018 -1020 0
-1019 -1020 0
-1021 -1022 0
-1021 -1023 0
-1022 -1023 0
-1024 -1025 0
-1024 -1026 0
-1025 -1026 0
-1027 -1028 0
-1027 -1029 0
-1028 -1029 0
-1030 -1031 0
-1030 -1032 0
-1031 -1032 0
-1033 -1034 0
-1033 -1035 0
-1034 -1035 0
-1036 -1037 0
-1036 -1038 0
-1037 -1038 0
-1039 -1040 0
-1039 -1041 0
-1040 -1041 0
-1042 -1043 0
-1042 -1044 0
-1043 -1044 0
-1045 -1046 0
-1045 -1047 0
-1046 -1047 0
-1048 -1049 0
-1048 -1050 0
-1049 -1050 0
-1051 -1052 0
-1051 -1053 0
-1052 -1053 0
-1054 -1055 0
-1054 -1056 0
-1055 -1056 0
-1057 -1058 0
-1057 -1059 0
-1058 -1059 0
-1060 -1061 0
-1060 -1062 0
-1061 -1062 0
-1063 -1064 0
-1063 -1065 0
-1064 -1065 0
-1066 -1067 0
-1066 -1068 0
-1067 -1068 0
-1069 -1070 0
-1069 -1071 0
-1070 -1071 0
-1072 -1073 0
-1072 -1074 0
-1073 -1074 0
-1075 -1076 0
-1075 -1077 0
-1076 -1077 0
-1078 -1079 0
-1078 -1080 0
-1079 -1080 0
-1081 -1082 0
-1081 -1083 0
-1082 -1083 0
-1084 -1085 0
-1084 -1086 0
-1085 -1086 0
-1087 -1088 0
-1087 -1089 0
-1088 -1089 0
-1090 -1091 0
-1090 -1092 0
-1091 -1092 0
-1093 -1094 0
-1093 -1095 0
-1094 -1095 0
-1096 -1097 0
-1096 -1098 0
-1097 -1098 0
-1099 -1100 0
-1099 -1101 0
-1100 -1101 0
-1102 -1103 0
-1102 -1104 0
-1103 -1104 0
-1105 -1106 0
-1105 -1107 0
-1106 -1107 0
-1108 -1109 0
-1108 -1110 0
-1109 -1110 0
-1111 -1112 0
-1111 -1113 0
-1112 -1113 0
-1114 -1115 0
-1114 -1116 0
-1115 -1116 0
-1117 -1118 0
-1117 -1119 0
-1118 -1119 0
-1120 -1121 0
-1120 -1122 0
-1121 -1122 0
-1123 -1124 0
-1123 -1125 0
-1124 -1125 0
-1126 -1127 0
-1126 -1128 0
-1127 -1128 0
-1129 -1130 0
-1129 -1131 0
-1130 -1131 0
-1132 -1133 0
-1132 -1134 0
-1133 -1134 0
-1135 -1136 0
-1135 -1137 0
-1136 -1137 0
-1138 -1139 0
-1138 -1140 0
-1139 -1140 0
-1141 -1142 0
-1141 -1143 0
-1142 -1143 0
-1144 -1145 0
-1144 -1146 0
-1145 -1146 0
-1147 -1148 0
-1147 -1149 0
-1148 -1149 0
-1150 -1151 0
-1150 -1152 0
-1151 -1152 0
-1153 -1154 0
-1153 -1155 0
-1154 -1155 0
-1156 -1157 0
-1156 -1158 0
-1157 -1158 0
-1159 -1160 0
-1159 -1161 0
-1160 -1161 0
-1162 -1163 0
-1162 -1164 0
-1163 -1164 0
-1165 -1166 0
-1165 -1167 0
-1166 -1167 0
-1168 -1169 0
-1168 -1170 0
-1169 -1170 0
-1171 -1172 0
-1171 -1173 0
-1172 -1173 0
-1174 -1175 0
-1174 -1176 0
-1175 -1176 0
-1177 -1178 0
-1177 -1179 0
-1178 -1179 0
-1180 -1181 0
-1180 -1182 0
-1181 -1182 0
-1183 -1184 0
-1183 -1185 0
-1184 -1185 0
-1186 -1187 0
-1186 -1188 0
-1187 -1188 0
-1189 -1190 0
-1189 -1191 0
-1190 -1191 0
-1192 -1193 0
-1192 -1194 0
-1193 -1194 0
-1195 -1196 0
-1195 -1197 0
-1196 -1197 0
-1198 -1199 0
-1198 -1200 0
-1199 -1200 0
-1201 -1202 0
-1201 -1203 0
-1202 -1203 0
-1204 -1205 0
-1204 -1206 0
-1205 -1206 0
-1207 -1208 0
-1207 -1209 0
-1208 -1209 0
-1210 -1211 0
-1210 -1212 0
-1211 -1212 0
-1213 -1214 0
-1213 -1215 0
-1214 -1215 0
-1216 -1217 0
-1216 -1218 0
-1217 -1218 0
-1219 -1220 0
-1219 -1221 0
-1220 -1221 0
-1222 -1223 0
-1222 -1224 0
-1223 -1224 0
-1225 -1226 0
-1225 -1227 0
-1226 -1227 0
-1228 -1229 0
-1228 -1230 0
-1229 -1230 0
-1231 -1232 0
-1231 -1233 0
-1232 -1233 0
-1234 -1235 0
-1234 -1236 0
-1235 -1236 0
-1237 -1238 0
-1237 -1239 0
-1238 -1239 0
-1240 -1241 0
-1240 -1242 0
-1241 -1242 0
-1243 -1244 0
-1243 -1245 0
-1244 -1245 0
-1246 -1247 0
-1246 -1248 0
-1247 -1248 0
-1249 -1250 0
-1249 -1251 0
-1250 -1251 0
-1252 -1253 0
-1252 -1254 0
-1253 -1254 0
-1255 -1256 0
-1255 -1257 0
-1256 -1257 0
-1258 -1259 0
-1258 -1260 0
-1259 -1260 0
-1261 -1262 0
-1261 -1263 0
-1262 -1263 0
-1264 -1265 0
-1264 -1266 0
-1265 -1266 0
-1267 -1268 0
-1267 -1269 0
-1268 -1269 0
-1270 -1271 0
-1270 -1272 0
-1271 -1272 0
-1273 -1274 0
-1273 -1275 0
-1274 -1275 0
-1276 -1277 0
-1276 -1278 0
-1277 -1278 0
-1279 -1280 0
-1279 -1281 0
-1280 -1281 0
-1282 -1283 0
-1282 -1284 0
-1283 -1284 0
-1285 -1286 0
-1285 -1287 0
-1286 -1287 0
-1288 -1289 0
-1288 -1290 0
-1289 -1290 0
-1291 -1292 0
-1291 -1293 0
-1292 -1293 0
-1294 -1295 0
-1294 -1296 0
-1295 -1296 0
-1297 -1298 0
-1297 -1299 0
-1298 -1299 0
-1300 -1301 0
-1300 -1302 0
-1301 -1302 0
-1303 -1304 0
-1303 -1305 0
-1304 -1305 0
-1306 -1307 0
-1306 -1308 0
-1307 -1308 0
-1309 -1310 0
-1309 -1311 0
-1310 -1311 0
-1312 -1313 0
-1312 -1314 0
-1313 -1314 0
-1315 -1316 0
-1315 -1317 0
-1316 -1317 0
-1318 -1319 0
-1318 -1320 0
-1319 -1320 0
-1321 -1322 0
-1321 -1323 0
-1322 -1323 0
-1324 -1325 0
-1324 -1326 0
-1325 -1326 0
-1327 -1328 0
-1327 -1329 0
-1328 -1329 0
-1330 -1331 0
-1330 -1332 0
-1331 -1332 0
-1333 -1334 0
-1333 -1335 0
-1334 -1335 0
-1336 -1337 0
-1336 -1338 0
-1337 -1338 0
-1339 -1340 0
-1339 -1341 0
-1340 -1341 0
-1342 -1343 0
-1342 -1344 0
-1343 -1344 0
-1345 -1346 0
-1345 -1347 0
-1346 -1347 0
-1348 -1349 0
-1348 -1350 0
-1349 -1350 0
-1351 -1352 0
-1351 -1353 0
-1352 -1353 0
-1354 -1355 0
-1354 -1356 0
-1355 -1356 0
-1357 -1358 0
-1357 -1359 0
-1358 -1359 0
-1360 -1361 0
-1360 -1362 0
-1361 -1362 0
-1363 -1364 0
-1363 -1365 0
-1364 -1365 0
-1366 -1367 0
-1366 -1368 0
-1367 -1368 0
-1369 -1370 0
-1369 -1371 0
-1370 -1371 0
-1372 -1373 0
-1372 -1374 0
-1373 -1374 0
-1375 -1376 0
-1375 -1377 0
-1376 -1377 0
-1378 -1379 0
-1378 -1380 0
-1379 -1380 0
-1381 -1382 0
-1381 -1383 0
-1382 -1383 0
-1384 -1385 0
-1384 -1386 0
-1385 -1386 0
-1387 -1388 0
-1387 -1389 0
-1388 -1389 0
-1390 -1391 0
-1390 -1392 0
-1391 -1392 0
-1393 -1394 0
-1393 -1395 0
-1394 -1395 0
-1396 -1397 0
-1396 -1398 0
-1397 -1398 0
-1399 -1400 0
-1399 -1401 0
-1400 -1401 0
-1402 -1403 0
-1402 -1404 0
-1403 -1404 0
-1405 -1406 0
-1405 -1407 0
-1406 -1407 0
-1408 -1409 0
-1408 -1410 0
-1409 -1410 0
-1411 -1412 0
-1411 -1413 0
-1412 -1413 0
-1414 -1415 0
-1414 -1416 0
-1415 -1416 0
-1417 -1418 0
-1417 -1419 0
-1418 -1419 0
-1420 -1421 0
-1420 -1422 0
-1421 -1422 0
-1423 -1424 0
-1423 -1425 0
-1424 -1425 0
-1426 -1427 0
-1426 -1428 0
-1427 -1428 0
-1429 -1430 0
-1429 -1431 0
-1430 -1431 0
-1432 -1433 0
-1432 -1434 0
-1433 -1434 0
-1435 -1436 0
-1435 -1437 0
-1436 -1437 0
-1438 -1439 0
-1438 -1440 0
-1439 -1440 0
-1441 -1442 0
-1441 -1443 0
-1442 -1443 0
-1444 -1445 0
-1444 -1446 0
-1445 -1446 0
-1447 -1448 0
-1447 -1449 0
-1448 -1449 0
-1450 -1451 0
-1450 -1452 0
-1451 -1452 0
-1453 -1454 0
-1453 -1455 0
-1454 -1455 0
-1456 -1457 0
-1456 -1458 0
-1457 -1458 0
-1459 -1460 0
-1459 -1461 0
-1460 -1461 0
-1462 -1463 0
-1462 -1464 0
-1463 -1464 0
-1465 -1466 0
-1465 -1467 0
-1466 -1467 0
-1468 -1469 0
-1468 -1470 0
-1469 -1470 0
-1471 -1472 0
-1471 -1473 0
-1472 -1473 0
-1474 -1475 0
-1474 -1476 0
-1475 -1476 0
-1477 -1478 0
-1477 -1479 0
-1478 -1479 0
-1480 -1481 0
-1480 -1482 0
-1481 -1482 0
-1483 -1484 0
-1483 -1485 0
-1484 -1485 0
-1486 -1487 0
-1486 -1488 0
-1487 -1488 0
-1489 -1490 0
-1489 -1491 0
-1490 -1491 0
-1492 -1493 0
-1492 -1494 0
-1493 -1494 0
-1495 -1496 0
-1495 -1497 0
-1496 -1497 0
-1498 -1499 0
-1498 -1500 0
-1499 -1500 0
-1 -43 0
-2 -44 0
-3 -45 0
-1 -100 0
-2 -101 0
-3 -102 0
-1 -175 0
-2 -176 0
-3 -177 0
-1 -340 0
-2 -341 0
-3 -342 0
-1 -415 0
-2 -416 0
-3 -417 0
-1 -427 0
-2 -428 0
-3 -429 0
-1 -439 0
-2 -440 0
-3 -441 0
-1 -826 0
-2 -827 0
-3 -828 0
-1 -907 0
-2 -908 0
-3 -909 0
-1 -1024 0
-2 -1025 0
-3 -1026 0
-1 -1081 0
-2 -1082 0
-3 -1083 0
-1 -1474 0
-2 -1475 0
-3 -1476 0
-4 -97 0
-5 -98 0
-6 -99 0
-4 -892 0
-5 -893 0
-6 -894 0
-4 -1060 0
-5 -1061 0
-6 -1062 0
-7 -367 0
-8 -368 0
-9 -369 0
-7 -1210 0
-8 -1211 0
-9 -1212 0
-10 -316 0
-11 -317 0
-12 -318 0
-13 -52 0
-14 -53 0
-15 -54 0
-13 -199 0
-14 -200 0
-15 -201 0
-13 -214 0
-14 -215 0
-15 -216 0
-13 -1480 0
-14 -1481 0
-15 -1482 0
-16 -40 0
-17 -41 0
-18 -42 0
-16 -379 0
-17 -380 0
-18 -381 0
-16 -508 0
-17 -509 0
-18 -510 0
-16 -562 0
-17 -563 0
-18 -564 0
-16 -1147 0
-17 -1148 0
-18 -1149 0
-19 -91 0
-20 -92 0
-21 -93 0
-19 -127 0
-20 -128 0
-21 -129 0
-19 -130 0
-20 -131 0
-21 -132 0
-19 -172 0
-20 -173 0
-21 -174 0
-19 -310 0
-20 -311 0
-21 -312 0
-19 -562 0
-20 -563 0
-21 -564 0
-19 -724 0
-20 -725 0
-21 -726 0
-22 -637 0
-23 -638 0
-24 -639 0
-22 -763 0
-23 -764 0
-24 -765 0
-22 -802 0
-23 -803 0
-24 -804 0
-22 -1264 0
-23 -1265 0
-24 -1266 0
-22 -1270 0
-23 -1271 0
-24 -1272 0
-22 -1336 0
-23 -1337 0
-24 -1338 0
-25 -487 0
-26 -488 0
-27 -489 0
-25 -1186 0
-26 -1187 0
-27 -1188 0
-25 -1249 0
-26 -1250 0
-27 -1251 0
-25 -1483 0
-26 -1484 0
-27 -1485 0
-28 -73 0
-29 -74 0
-30 -75 0
-28 -169 0
-29 -170 0
-30 -171 0
-28 -310 0
-29 -311 0
-30 -312 0
-28 -631 0
-29 -632 0
-30 -633 0
-28 -673 0
-29 -674 0
-30 -675 0
-28 -895 0
-29 -896 0
-30 -897 0
-28 -973 0
-29 -974 0
-30 -975 0
-28 -1126 0
-29 -1127 0
-30 -1128 0
-28 -1477 0
-29 -1478 0
-30 -1479 0
-31 -232 0
-32 -233 0
-33 -234 0
-31 -439 0
-32 -440 0
-33 -441 0
-31 -826 0
-32 -827 0
-33 -828 0
-31 -991 0
-32 -992 0
-33 -993 0
-31 -994 0
-32 -995 0
-33 -996 0
-31 -1258 0
-32 -1259 0
-33 -1260 0
-31 -1426 0
-32 -1427 0
-33 -1428 0
-34 -370 0
-35 -371 0
-36 -372 0
-34 -1078 0
-35 -1079 0
-36 -1080 0
-37 -241 0
-38 -242 0
-39 -243 0
-37 -559 0
-38 -560 0
-39 -561 0
-37 -592 0
-38 -593 0
-39 -594 0
-37 -1270 0
-38 -1271 0
-39 -1272 0
-37 -1294 0
-38 -1295 0
-39 -1296 0
-40 -538 0
-41 -539 0
-42 -540 0
-40 -994 0
-41 -995 0
-42 -996 0
-43 -1159 0
-44 -1160 0
-45 -1161 0
-46 -109 0
-47 -110 0
-48 -111 0
-46 -148 0
-47 -149 0
-48 -150 0
-46 -418 0
-47 -419 0
-48 -420 0
-46 -430 0
-47 -431 0
-48 -432 0
-46 -454 0
-47 -455 0
-48 -456 0
-46 -622 0
-47 -623 0
-48 -624 0
-46 -883 0
-47 -884 0
-48 -885 0
-46 -1201 0
-47 -1202 0
-48 -1203 0
-49 -574 0
-50 -575 0
-51 -576 0
-49 -775 0
-50 -776 0
-51 -777 0
-49 -1099 0
-50 -1100 0
-51 -1101 0
-49 -1147 0
-50 -1148 0
-51 -1149 0
-52 -334 0
-53 -335 0
-54 -336 0
-52 -787 0
-53 -788 0
-54 -789 0
-52 -946 0
-53 -947 0
-54 -948 0
-52 -961 0
-53 -962 0
-54 -963 0
-52 -1456 0
-53 -1457 0
-54 -1458 0
-55 -100 0
-56 -101 0
-57 -102 0
-55 -532 0
-56 -533 0
-57 -534 0
-55 -1117 0
-56 -1118 0
-57 -1119 0
-55 -1312 0
-56 -1313 0
-57 -1314 0
-55 -1339 0
-56 -1340 0
-57 -1341 0
-58 -274 0
-59 -275 0
-60 -276 0
-58 -358 0
-59 -359 0
-60 -360 0
-58 -562 0
-59 -563 0
-60 -564 0
-58 -757 0
-59 -758 0
-60 -759 0
-58 -949 0
-59 -950 0
-60 -951 0
-58 -1213 0
-59 -1214 0
-60 -1215 0
-58 -1462 0
-59 -1463 0
-60 -1464 0
-61 -136 0
-62 -137 0
-63 -138 0
-61 -466 0
-62 -467 0
-63 -468 0
-61 -532 0
-62 -533 0
-63 -534 0
-61 -877 0
-62 -878 0
-63 -879 0
-64 -1018 0
-65 -1019 0
-66 -1020 0
-64 -1321 0
-65 -1322 0
-66 -1323 0
-67 -169 0
-68 -170 0
-69 -171 0
-67 -397 0
-68 -398 0
-69 -399 0
-67 -490 0
-68 -491 0
-69 -492 0
-67 -556 0
-68 -557 0
-69 -558 0
-67 -901 0
-68 -902 0
-69 -903 0
-67 -1084 0
-68 -1085 0
-69 -1086 0
-70 -208 0
-71 -209 0
-72 -210 0
-70 -373 0
-71 -374 0
-72 -375 0
-70 -592 0
-71 -593 0
-72 -594 0
-70 -772 0
-71 -773 0
-72 -774 0
-70 -1342 0
-71 -1343 0
-72 -1344 0
-73 -259 0
-74 -260 0
-75 -261 0
-73 -454 0
-74 -455 0
-75 -456 0
-73 -481 0
-74 -482 0
-75 -483 0
-73 -793 0
-74 -794 0
-75 -795 0
-73 -898 0
-74 -899 0
-75 -900 0
-73 -967 0
-74 -968 0
-75 -969 0
-73 -979 0
-74 -980 0
-75 -981 0
-73 -1249 0
-74 -1250 0
-75 -1251 0
-73 -1447 0
-74 -1448 0
-75 -1449 0
-76 -679 0
-77 -680 0
-78 -681 0
-76 -1252 0
-77 -1253 0
-78 -1254 0
-79 -337 0
-80 -338 0
-81 -339 0
-79 -526 0
-80 -527 0
-81 -528 0
-79 -619 0
-80 -620 0
-81 -621 0
-79 -1126 0
-80 -1127 0
-81 -1128 0
-79 -1396 0
-80 -1397 0
-81 -1398 0
-79 -1444 0
-80 -1445 0
-81 -1446 0
-79 -1447 0
-80 -1448 0
-81 -1449 0
-79 -1489 0
-80 -1490 0
-81 -1491 0
-82 -430 0
-83 -431 0
-84 -432 0
-82 -436 0
-83 -437 0
-84 -438 0
-82 -628 0
-83 -629 0
-84 -630 0
-82 -1186 0
-83 -1187 0
-84 -1188 0
-85 -430 0
-86 -431 0
-87 -432 0
-85 -1255 0
-86 -1256 0
-87 -1257 0
-85 -1300 0
-86 -1301 0
-87 -1302 0
-88 -811 0
-89 -812 0
-90 -813 0
-88 -1114 0
-89 -1115 0
-90 -1116 0
-88 -1243 0
-89 -1244 0
-90 -1245 0
-91 -223 0
-92 -224 0
-93 -225 0
-91 -229 0
-92 -230 0
-93 -231 0
-91 -244 0
-92 -245 0
-93 -246 0
-91 -676 0
-92 -677 0
-93 -678 0
-91 -1099 0
-92 -1100 0
-93 -1101 0
-91 -1201 0
-92 -1202 0
-93 -1203 0
-94 -292 0
-95 -293 0
-96 -294 0
-94 -466 0
-95 -467 0
-96 -468 0
-94 -637 0
-95 -638 0
-96 -639 0
-94 -1243 0
-95 -1244 0
-96 -1245 0
-97 -457 0
-98 -458 0
-99 -459 0
-97 -979 0
-98 -980 0
-99 -981 0
-97 -985 0
-98 -986 0
-99 -987 0
-97 -1312 0
-98 -1313 0
-99 -1314 0
-100 -316 0
-101 -317 0
-102 -318 0
-100 -628 0
-101 -629 0
-102 -630 0
-100 -1000 0
-101 -1001 0
-102 -1002 0
-100 -1285 0
-101 -1286 0
-102 -1287 0
-100 -1303 0
-101 -1304 0
-102 -1305 0
-100 -1447 0
-101 -1448 0
-102 -1449 0
-103 -148 0
-104 -149 0
-105 -150 0
-103 -874 0
-104 -875 0
-105 -876 0
-103 -1252 0
-104 -1253 0
-105 -1254 0
-103 -1267 0
-104 -1268 0
-105 -1269 0
-103 -1471 0
-104 -1472 0
-105 -1473 0
-106 -703 0
-107 -704 0
-108 -705 0
-106 -724 0
-107 -725 0
-108 -726 0
-106 -934 0
-107 -935 0
-108 -936 0
-106 -1465 0
-107 -1466 0
-108 -1467 0
-109 -703 0
-110 -704 0
-111 -705 0
-109 -793 0
-110 -794 0
-111 -795 0
-109 -946 0
-110 -947 0
-111 -948 0
-109 -1078 0
-110 -1079 0
-111 -1080 0
-109 -1303 0
-110 -1304 0
-111 -1305 0
-109 -1492 0
-110 -1493 0
-111 -1494 0
-112 -571 0
-113 -572 0
-114 -573 0
-112 -751 0
-113 -752 0
-114 -753 0
-112 -1333 0
-113 -1334 0
-114 -1335 0
-112 -1405 0
-113 -1406 0
-114 -1407 0
-112 -1498 0
-113 -1499 0
-114 -1500 0
-115 -205 0
-116 -206 0
-117 -207 0
-115 -658 0
-116 -659 0
-117 -660 0
-115 -670 0
-116 -671 0
-117 -672 0
-115 -1150 0
-116 -1151 0
-117 -1152 0
-115 -1156 0
-116 -1157 0
-117 -1158 0
-115 -1435 0
-116 -1436 0
-117 -1437 0
-118 -538 0
-119 -539 0
-120 -540 0
-118 -847 0
-119 -848 0
-120 -849 0
-118 -1258 0
-119 -1259 0
-120 -1260 0
-118 -1369 0
-119 -1370 0
-120 -1371 0
-121 -319 0
-122 -320 0
-123 -321 0
-121 -886 0
-122 -887 0
-123 -888 0
-121 -1486 0
-122 -1487 0
-123 -1488 0
-124 -733 0
-125 -734 0
-126 -735 0
-124 -787 0
-125 -788 0
-126 -789 0
-124 -955 0
-125 -956 0
-126 -957 0
-124 -1018 0
-125 -1019 0
-126 -1020 0
-124 -1072 0
-125 -1073 0
-126 -1074 0
-124 -1489 0
-125 -1490 0
-126 -1491 0
-127 -604 0
-128 -605 0
-129 -606 0
-127 -1105 0
-128 -1106 0
-129 -1107 0
-127 -1198 0
-128 -1199 0
-129 -1200 0
-130 -1342 0
-131 -1343 0
-132 -1344 0
-133 -937 0
-134 -938 0
-135 -939 0
-136 -508 0
-137 -509 0
-138 -510 0
-136 -592 0
-137 -593 0
-138 -594 0
-136 -676 0
-137 -677 0
-138 -678 0
-136 -934 0
-137 -935 0
-138 -936 0
-136 -1135 0
-137 -1136 0
-138 -1137 0
-136 -1363 0
-137 -1364 0
-138 -1365 0
-136 -1441 0
-137 -1442 0
-138 -1443 0
-136 -1462 0
-137 -1463 0
-138 -1464 0
-139 -853 0
-140 -854 0
-141 -855 0
-139 -1132 0
-140 -1133 0
-141 -1134 0
-139 -1291 0
-140 -1292 0
-141 -1293 0
-142 -796 0
-143 -797 0
-144 -798 0
-142 -1021 0
-143 -1022 0
-144 -1023 0
-142 -1096 0
-143 -1097 0
-144 -1098 0
-142 -1303 0
-143 -1304 0
-144 -1305 0
-145 -208 0
-146 -209 0
-147 -210 0
-145 -1024 0
-146 -1025 0
-147 -1026 0
-148 -274 0
-149 -275 0
-150 -276 0
-148 -472 0
-149 -473 0
-150 -474 0
-148 -541 0
-149 -542 0
-150 -543 0
-148 -1339 0
-149 -1340 0
-150 -1341 0
-148 -1498 0
-149 -1499 0
-150 -1500 0
-151 -301 0
-152 -302 0
-153 -303 0
-151 -541 0
-152 -542 0
-153 -543 0
-151 -829 0
-152 -830 0
-153 -831 0
-151 -856 0
-152 -857 0
-153 -858 0
-151 -1222 0
-152 -1223 0
-153 -1224 0
-151 -1480 0
-152 -1481 0
-153 -1482 0
-154 -1333 0
-155 -1334 0
-156 -1335 0
-157 -445 0
-158 -446 0
-159 -447 0
-157 -745 0
-158 -746 0
-159 -747 0
-157 -901 0
-158 -902 0
-159 -903 0
-157 -1225 0
-158 -1226 0
-159 -1227 0
-157 -1456 0
-158 -1457 0
-159 -1458 0
-160 -505 0
-161 -506 0
-162 -507 0
-160 -1006 0
-161 -1007 0
-162 -1008 0
-160 -1042 0
-161 -1043 0
-162 -1044 0
-160 -1258 0
-161 -1259 0
-162 -1260 0
-160 -1345 0
-161 -1346 0
-162 -1347 0
-160 -1381 0
-161 -1382 0
-162 -1383 0
-166 -238 0
-167 -239 0
-168 -240 0
-166 -271 0
-167 -272 0
-168 -273 0
-166 -787 0
-167 -788 0
-168 -789 0
-166 -916 0
-167 -917 0
-168 -918 0
-166 -1258 0
-167 -1259 0
-168 -1260 0
-169 -1333 0
-170 -1334 0
-171 -1335 0
-169 -1459 0
-170 -1460 0
-171 -1461 0
-172 -205 0
-173 -206 0
-174 -207 0
-172 -484 0
-173 -485 0
-174 -486 0
-172 -715 0
-173 -716 0
-174 -717 0
-172 -982 0
-173 -983 0
-174 -984 0
-172 -1066 0
-173 -1067 0
-174 -1068 0
-175 -337 0
-176 -338 0
-177 -339 0
-175 -502 0
-176 -503 0
-177 -504 0
-175 -838 0
-176 -839 0
-177 -840 0
-175 -1087 0
-176 -1088 0
-177 -1089 0
-175 -1204 0
-176 -1205 0
-177 -1206 0
-175 -1231 0
-176 -1232 0
-177 -1233 0
-175 -1318 0
-176 -1319 0
-177 -1320 0
-175 -1336 0
-176 -1337 0
-177 -1338 0
-175 -1447 0
-176 -1448 0
-177 -1449 0
-178 -217 0
-179 -218 0
-180 -219 0
-178 -640 0
-179 -641 0
-180 -642 0
-178 -910 0
-179 -911 0
-180 -912 0
-178 -1123 0
-179 -1124 0
-180 -1125 0
-178 -1144 0
-179 -1145 0
-180 -1146 0
-178 -1180 0
-179 -1181 0
-180 -1182 0
-178 -1345 0
-179 -1346 0
-180 -1347 0
-178 -1354 0
-179 -1355 0
-180 -1356 0
-178 -1480 0
-179 -1481 0
-180 -1482 0
-181 -184 0
-182 -185 0
-183 -186 0
-181 -445 0
-182 -446 0
-183 -447 0
-181 -1072 0
-182 -1073 0
-183 -1074 0
-181 -1483 0
-182 -1484 0
-183 -1485 0
-184 -595 0
-185 -596 0
-186 -597 0
-184 -940 0
-185 -941 0
-186 -942 0
-184 -1057 0
-185 -1058 0
-186 -1059 0
-184 -1234 0
-185 -1235 0
-186 -1236 0
-184 -1309 0
-185 -1310 0
-186 -1311 0
-184 -1384 0
-185 -1385 0
-186 -1386 0
-187 -832 0
-188 -833 0
-189 -834 0
-190 -304 0
-191 -305 0
-192 -306 0
-190 -403 0
-191 -404 0
-192 -405 0
-190 -685 0
-191 -686 0
-192 -687 0
-190 -961 0
-191 -962 0
-192 -963 0
-190 -1309 0
-191 -1310 0
-192 -1311 0
-193 -910 0
-194 -911 0
-195 -912 0
-193 -1009 0
-194 -1010 0
-195 -1011 0
-193 -1039 0
-194 -1040 0
-195 -1041 0
-193 -1069 0
-194 -1070 0
-195 -1071 0
-196 -448 0
-197 -449 0
-198 -450 0
-196 -823 0
-197 -824 0
-198 -825 0
-196 -1381 0
-197 -1382 0
-198 -1383 0
-196 -1405 0
-197 -1406 0
-198 -1407 0
-199 -337 0
-200 -338 0
-201 -339 0
-199 -1171 0
-200 -1172 0
-201 -1173 0
-199 -1462 0
-200 -1463 0
-201 -1464 0
-202 -322 0
-203 -323 0
-204 -324 0
-202 -478 0
-203 -479 0
-204 -480 0
-202 -541 0
-203 -542 0
-204 -543 0
-202 -622 0
-203 -623 0
-204 -624 0
-202 -1354 0
-203 -1355 0
-204 -1356 0
-205 -337 0
-206 -338 0
-207 -339 0
-205 -784 0
-206 -785 0
-207 -786 0
-208 -301 0
-209 -302 0
-210 -303 0
-208 -451 0
-209 -452 0
-210 -453 0
-208 -487 0
-209 -488 0
-210 -489 0
-208 -673 0
-209 -674 0
-210 -675 0
-208 -700 0
-209 -701 0
-210 -702 0
-208 -754 0
-209 -755 0
-210 -756 0
-208 -760 0
-209 -761 0
-210 -762 0
-208 -970 0
-209 -971 0
-210 -972 0
-208 -1216 0
-209 -1217 0
-210 -1218 0
-208 -1225 0
-209 -1226 0
-210 -1227 0
-208 -1357 0
-209 -1358 0
-210 -1359 0
-211 -307 0
-212 -308 0
-213 -309 0
-211 -427 0
-212 -428 0
-213 -429 0
-211 -580 0
-212 -581 0
-213 -582 0
-211 -589 0
-212 -590 0
-213 -591 0
-211 -730 0
-212 -731 0
-213 -732 0
-211 -1153 0
-212 -1154 0
-213 -1155 0
-211 -1225 0
-212 -1226 0
-213 -1227 0
-211 -1345 0
-212 -1346 0
-213 -1347 0
-214 -1300 0
-215 -1301 0
-216 -1302 0
-217 -652 0
-218 -653 0
-219 -654 0
-217 -763 0
-218 -764 0
-219 -765 0
-217 -1255 0
-218 -1256 0
-219 -1257 0
-217 -1288 0
-218 -1289 0
-219 -1290 0
-217 -1441 0
-218 -1442 0
-219 -1443 0
-220 -472 0
-221 -473 0
-222 -474 0
-220 -544 0
-221 -545 0
-222 -546 0
-220 -832 0
-221 -833 0
-222 -834 0
-223 -484 0
-224 -485 0
-225 -486 0
-223 -1099 0
-224 -1100 0
-225 -1101 0
-223 -1402 0
-224 -1403 0
-225 -1404 0
-229 -247 0
-230 -248 0
-231 -249 0
-229 -1075 0
-230 -1076 0
-231 -1077 0
-229 -1237 0
-230 -1238 0
-231 -1239 0
-229 -1366 0
-230 -1367 0
-231 -1368 0
-229 -1426 0
-230 -1427 0
-231 -1428 0
-232 -430 0
-233 -431 0
-234 -432 0
-232 -1216 0
-233 -1217 0
-234 -1218 0
-232 -1483 0
-233 -1484 0
-234 -1485 0
-232 -1495 0
-233 -1496 0
-234 -1497 0
-235 -244 0
-236 -245 0
-237 -246 0
-235 -520 0
-236 -521 0
-237 -522 0
-235 -889 0
-236 -890 0
-237 -891 0
-235 -1003 0
-236 -1004 0
-237 -1005 0
-235 -1456 0
-236 -1457 0
-237 -1458 0
-238 -505 0
-239 -506 0
-240 -507 0
-238 -613 0
-239 -614 0
-240 -615 0
-241 -340 0
-242 -341 0
-243 -342 0
-241 -373 0
-242 -374 0
-243 -375 0
-241 -502 0
-242 -503 0
-243 -504 0
-244 -271 0
-245 -272 0
-246 -273 0
-244 -397 0
-245 -398 0
-246 -399 0
-244 -448 0
-245 -449 0
-246 -450 0
-244 -508 0
-245 -509 0
-246 -510 0
-244 -529 0
-245 -530 0
-246 -531 0
-244 -832 0
-245 -833 0
-246 -834 0
-244 -1081 0
-245 -1082 0
-246 -1083 0
-247 -454 0
-248 -455 0
-249 -456 0
-247 -604 0
-248 -605 0
-249 -606 0
-247 -757 0
-248 -758 0
-249 -759 0
-247 -847 0
-248 -848 0
-249 -849 0
-247 -1384 0
-248 -1385 0
-249 -1386 0
-250 -376 0
-251 -377 0
-252 -378 0
-250 -607 0
-251 -608 0
-252 -609 0
-250 -958 0
-251 -959 0
-252 -960 0
-250 -1498 0
-251 -1499 0
-252 -1500 0
-253 -376 0
-254 -377 0
-255 -378 0
-253 -817 0
-254 -818 0
-255 -819 0
-253 -1237 0
-254 -1238 0
-255 -1239 0
-253 -1405 0
-254 -1406 0
-255 -1407 0
-256 -349 0
-257 -350 0
-258 -351 0
-256 -1006 0
-257 -1007 0
-258 -1008 0
-256 -1105 0
-257 -1106 0
-258 -1107 0
-256 -1141 0
-257 -1142 0
-258 -1143 0
-256 -1225 0
-257 -1226 0
-258 -1227 0
-259 -274 0
-260 -275 0
-261 -276 0
-259 -517 0
-260 -518 0
-261 -519 0
-259 -766 0
-260 -767 0
-261 -768 0
-259 -880 0
-260 -881 0
-261 -882 0
-259 -1222 0
-260 -1223 0
-261 -1224 0
-259 -1279 0
-260 -1280 0
-261 -1281 0
-259 -1315 0
-260 -1316 0
-261 -1317 0
-262 -319 0
-263 -320 0
-264 -321 0
-262 -1222 0
-263 -1223 0
-264 -1224 0
-265 -274 0
-266 -275 0
-267 -276 0
-265 -781 0
-266 -782 0
-267 -783 0
-265 -1369 0
-266 -1370 0
-267 -1371 0
-268 -472 0
-269 -473 0
-270 -474 0
-268 -697 0
-269 -698 0
-270 -699 0
-268 -823 0
-269 -824 0
-270 -825 0
-268 -1261 0
-269 -1262 0
-270 -1263 0
-268 -1441 0
-269 -1442 0
-270 -1443 0
-271 -472 0
-272 -473 0
-273 -474 0
-271 -550 0
-272 -551 0
-273 -552 0
-271 -766 0
-272 -767 0
-273 -768 0
-271 -1456 0
-272 -1457 0
-273 -1458 0
-271 -1480 0
-272 -1481 0
-273 -1482 0
-274 -415 0
-275 -416 0
-276 -417 0
-274 -481 0
-275 -482 0
-276 -483 0
-274 -772 0
-275 -773 0
-276 -774 0
-277 -493 0
-278 -494 0
-279 -495 0
-277 -922 0
-278 -923 0
-279 -924 0
-277 -1243 0
-278 -1244 0
-279 -1245 0
-277 -1291 0
-278 -1292 0
-279 -1293 0
-277 -1300 0
-278 -1301 0
-279 -1302 0
-280 -748 0
-281 -749 0
-282 -750 0
-280 -1414 0
-281 -1415 0
-282 -1416 0
-280 -1441 0
-281 -1442 0
-282 -1443 0
-280 -1492 0
-281 -1493 0
-282 -1494 0
-283 -517 0
-284 -518 0
-285 -519 0
-283 -562 0
-284 -563 0
-285 -564 0
-286 -295 0
-287 -296 0
-288 -297 0
-286 -382 0
-287 -383 0
-288 -384 0
-286 -442 0
-287 -443 0
-288 -444 0
-286 -1420 0
-287 -1421 0
-288 -1422 0
-289 -442 0
-290 -443 0
-291 -444 0
-289 -649 0
-290 -650 0
-291 -651 0
-289 -1174 0
-290 -1175 0
-291 -1176 0
-289 -1441 0
-290 -1442 0
-291 -1443 0
-292 -385 0
-293 -386 0
-294 -387 0
-292 -913 0
-293 -914 0
-294 -915 0
-292 -1144 0
-293 -1145 0
-294 -1146 0
-292 -1462 0
-293 -1463 0
-294 -1464 0
-295 -655 0
-296 -656 0
-297 -657 0
-295 -1153 0
-296 -1154 0
-297 -1155 0
-295 -1420 0
-296 -1421 0
-297 -1422 0
-295 -1480 0
-296 -1481 0
-297 -1482 0
-298 -628 0
-299 -629 0
-300 -630 0
-298 -682 0
-299 -683 0
-300 -684 0
-298 -694 0
-299 -695 0
-300 -696 0
-298 -883 0
-299 -884 0
-300 -885 0
-298 -1438 0
-299 -1439 0
-300 -1440 0
-301 -529 0
-302 -530 0
-303 -531 0
-301 -751 0
-302 -752 0
-303 -753 0
-301 -802 0
-302 -803 0
-303 -804 0
-301 -1033 0
-302 -1034 0
-303 -1035 0
-301 -1273 0
-302 -1274 0
-303 -1275 0
-301 -1288 0
-302 -1289 0
-303 -1290 0
-301 -1378 0
-302 -1379 0
-303 -1380 0
-304 -550 0
-305 -551 0
-306 -552 0
-304 -1105 0
-305 -1106 0
-306 -1107 0
-307 -964 0
-308 -965 0
-309 -966 0
-307 -1003 0
-308 -1004 0
-309 -1005 0
-307 -1081 0
-308 -1082 0
-309 -1083 0
-307 -1282 0
-308 -1283 0
-309 -1284 0
-307 -1375 0
-308 -1376 0
-309 -1377 0
-307 -1396 0
-308 -1397 0
-309 -1398 0
-307 -1462 0
-308 -1463 0
-309 -1464 0
-307 -1471 0
-308 -1472 0
-309 -1473 0
-310 -754 0
-311 -755 0
-312 -756 0
-310 -814 0
-311 -815 0
-312 -816 0
-313 -349 0
-314 -350 0
-315 -351 0
-313 -886 0
-314 -887 0
-315 -888 0
-313 -904 0
-314 -905 0
-315 -906 0
-313 -1030 0
-314 -1031 0
-315 -1032 0
-313 -1297 0
-314 -1298 0
-315 -1299 0
-316 -463 0
-317 -464 0
-318 -465 0
-316 -808 0
-317 -809 0
-318 -810 0
-319 -421 0
-320 -422 0
-321 -423 0
-319 -913 0
-320 -914 0
-321 -915 0
-322 -652 0
-323 -653 0
-324 -654 0
-322 -985 0
-323 -986 0
-324 -987 0
-322 -1114 0
-323 -1115 0
-324 -1116 0
-325 -706 0
-326 -707 0
-327 -708 0
-325 -1009 0
-326 -1010 0
-327 -1011 0
-328 -478 0
-329 -479 0
-330 -480 0
-328 -709 0
-329 -710 0
-330 -711 0
-328 -1114 0
-329 -1115 0
-330 -1116 0
-328 -1300 0
-329 -1301 0
-330 -1302 0
-331 -358 0
-332 -359 0
-333 -360 0
-331 -568 0
-332 -569 0
-333 -570 0
-331 -598 0
-332 -599 0
-333 -600 0
-331 -976 0
-332 -977 0
-333 -978 0
-331 -1171 0
-332 -1172 0
-333 -1173 0
-334 -424 0
-335 -425 0
-336 -426 0
-334 -544 0
-335 -545 0
-336 -546 0
-334 -970 0
-335 -971 0
-336 -972 0
-334 -1294 0
-335 -1295 0
-336 -1296 0
-337 -604 0
-338 -605 0
-339 -606 0
-337 -841 0
-338 -842 0
-339 -843 0
-340 -430 0
-341 -431 0
-342 -432 0
-340 -721 0
-341 -722 0
-342 -723 0
-340 -964 0
-341 -965 0
-342 -966 0
-343 -1159 0
-344 -1160 0
-345 -1161 0
-343 -1441 0
-344 -1442 0
-345 -1443 0
-346 -397 0
-347 -398 0
-348 -399 0
-346 -655 0
-347 -656 0
-348 -657 0
-346 -697 0
-347 -698 0
-348 -699 0
-349 -619 0
-350 -620 0
-351 -621 0
-349 -784 0
-350 -785 0
-351 -786 0
-352 -634 0
-353 -635 0
-354 -636 0
-352 -1042 0
-353 -1043 0
-354 -1044 0
-352 -1183 0
-353 -1184 0
-354 -1185 0
-352 -1477 0
-353 -1478 0
-354 -1479 0
-355 -499 0
-356 -500 0
-357 -501 0
-355 -946 0
-356 -947 0
-357 -948 0
-355 -1024 0
-356 -1025 0
-357 -1026 0
-355 -1039 0
-356 -1040 0
-357 -1041 0
-355 -1348 0
-356 -1349 0
-357 -1350 0
-358 -556 0
-359 -557 0
-360 -558 0
-358 -616 0
-359 -617 0
-360 -618 0
-358 -640 0
-359 -641 0
-360 -642 0
-358 -742 0
-359 -743 0
-360 -744 0
-358 -772 0
-359 -773 0
-360 -774 0
-358 -1183 0
-359 -1184 0
-360 -1185 0
-358 -1417 0
-359 -1418 0
-360 -1419 0
-361 -559 0
-362 -560 0
-363 -561 0
-361 -1066 0
-362 -1067 0
-363 -1068 0
-364 -523 0
-365 -524 0
-366 -525 0
-364 -1114 0
-365 -1115 0
-366 -1116 0
-367 -418 0
-368 -419 0
-369 -420 0
-367 -523 0
-368 -524 0
-369 -525 0
-367 -847 0
-368 -848 0
-369 -849 0
-367 -1447 0
-368 -1448 0
-369 -1449 0
-370 -655 0
-371 -656 0
-372 -657 0
-370 -925 0
-371 -926 0
-372 -927 0
-370 -1165 0
-371 -1166 0
-372 -1167 0
-373 -850 0
-374 -851 0
-375 -852 0
-373 -919 0
-374 -920 0
-375 -921 0
-373 -970 0
-374 -971 0
-375 -972 0
-373 -1450 0
-374 -1451 0
-375 -1452 0
-376 -466 0
-377 -467 0
-378 -468 0
-376 -1114 0
-377 -1115 0
-378 -1116 0
-376 -1129 0
-377 -1130 0
-378 -1131 0
-376 -1177 0
-377 -1178 0
-378 -1179 0
-376 -1366 0
-377 -1367 0
-378 -1368 0
-379 -514 0
-380 -515 0
-381 -516 0
-379 -703 0
-380 -704 0
-381 -705 0
-379 -787 0
-380 -788 0
-381 -789 0
-379 -1306 0
-380 -1307 0
-381 -1308 0
-382 -514 0
-383 -515 0
-384 -516 0
-382 -550 0
-383 -551 0
-384 -552 0
-382 -973 0
-383 -974 0
-384 -975 0
-382 -1327 0
-383 -1328 0
-384 -1329 0
-385 -436 0
-386 -437 0
-387 -438 0
-385 -490 0
-386 -491 0
-387 -492 0
-385 -730 0
-386 -731 0
-387 -732 0
-385 -1177 0
-386 -1178 0
-387 -1179 0
-385 -1354 0
-386 -1355 0
-387 -1356 0
-385 -1366 0
-386 -1367 0
-387 -1368 0
-388 -451 0
-389 -452 0
-390 -453 0
-388 -619 0
-389 -620 0
-390 -621 0
-388 -910 0
-389 -911 0
-390 -912 0
-388 -1039 0
-389 -1040 0
-390 -1041 0
-388 -1123 0
-389 -1124 0
-390 -1125 0
-388 -1423 0
-389 -1424 0
-390 -1425 0
-388 -1474 0
-389 -1475 0
-390 -1476 0
-391 -754 0
-392 -755 0
-393 -756 0
-391 -907 0
-392 -908 0
-393 -909 0
-394 -397 0
-395 -398 0
-396 -399 0
-394 -823 0
-395 -824 0
-396 -825 0
-394 -898 0
-395 -899 0
-396 -900 0
-394 -1075 0
-395 -1076 0
-396 -1077 0
-397 -418 0
-398 -419 0
-399 -420 0
-397 -598 0
-398 -599 0
-399 -600 0
-397 -601 0
-398 -602 0
-399 -603 0
-397 -679 0
-398 -680 0
-399 -681 0
-400 -859 0
-401 -860 0
-402 -861 0
-400 -901 0
-401 -902 0
-402 -903 0
-400 -1036 0
-401 -1037 0
-402 -1038 0
-403 -658 0
-404 -659 0
-405 -660 0
-403 -1021 0
-404 -1022 0
-405 -1023 0
-403 -1144 0
-404 -1145 0
-405 -1146 0
-403 -1405 0
-404 -1406 0
-405 -1407 0
-406 -991 0
-407 -992 0
-408 -993 0
-409 -520 0
-410 -521 0
-411 -522 0
-409 -622 0
-410 -623 0
-411 -624 0
-409 -730 0
-410 -731 0
-411 -732 0
-409 -1042 0
-410 -1043 0
-411 -1044 0
-412 -499 0
-413 -500 0
-414 -501 0
-412 -886 0
-413 -887 0
-414 -888 0
-412 -1168 0
-413 -1169 0
-414 -1170 0
-415 -511 0
-416 -512 0
-417 -513 0
-415 -937 0
-416 -938 0
-417 -939 0
-415 -988 0
-416 -989 0
-417 -990 0
-415 -1009 0
-416 -1010 0
-417 -1011 0
-415 -1342 0
-416 -1343 0
-417 -1344 0
-415 -1426 0
-416 -1427 0
-417 -1428 0
-418 -547 0
-419 -548 0
-420 -549 0
-418 -595 0
-419 -596 0
-420 -597 0
-418 -748 0
-419 -749 0
-420 -750 0
-418 -838 0
-419 -839 0
-420 -840 0
-421 -619 0
-422 -620 0
-423 -621 0
-421 -1249 0
-422 -1250 0
-423 -1251 0
-421 -1486 0
-422 -1487 0
-423 -1488 0
-424 -970 0
-425 -971 0
-426 -972 0
-424 -1225 0
-425 -1226 0
-426 -1227 0
-424 -1285 0
-425 -1286 0
-426 -1287 0
-424 -1426 0
-425 -1427 0
-426 -1428 0
-424 -1480 0
-425 -1481 0
-426 -1482 0
-427 -514 0
-428 -515 0
-429 -516 0
-427 -1411 0
-428 -1412 0
-429 -1413 0
-430 -508 0
-431 -509 0
-432 -510 0
-430 -667 0
-431 -668 0
-432 -669 0
-430 -1012 0
-431 -1013 0
-432 -1014 0
-433 -1129 0
-434 -1130 0
-435 -1131 0
-433 -1366 0
-434 -1367 0
-435 -1368 0
-436 -784 0
-437 -785 0
-438 -786 0
-436 -1135 0
-437 -1136 0
-438 -1137 0
-436 -1402 0
-437 -1403 0
-438 -1404 0
-439 -883 0
-440 -884 0
-441 -885 0
-439 -886 0
-440 -887 0
-441 -888 0
-439 -1285 0
-440 -1286 0
-441 -1287 0
-439 -1396 0
-440 -1397 0
-441 -1398 0
-442 -493 0
-443 -494 0
-444 -495 0
-442 -523 0
-443 -524 0
-444 -525 0
-442 -754 0
-443 -755 0
-444 -756 0
-442 -835 0
-443 -836 0
-444 -837 0
-442 -1189 0
-443 -1190 0
-444 -1191 0
-445 -1063 0
-446 -1064 0
-447 -1065 0
-445 -1174 0
-446 -1175 0
-447 -1176 0
-448 -568 0
-449 -569 0
-450 -570 0
-448 -574 0
-449 -575 0
-450 -576 0
-448 -802 0
-449 -803 0
-450 -804 0
-448 -958 0
-449 -959 0
-450 -960 0
-448 -1336 0
-449 -1337 0
-450 -1338 0
-451 -520 0
-452 -521 0
-453 -522 0
-451 -1033 0
-452 -1034 0
-453 -1035 0
-451 -1072 0
-452 -1073 0
-453 -1074 0
-451 -1090 0
-452 -1091 0
-453 -1092 0
-451 -1384 0
-452 -1385 0
-453 -1386 0
-454 -1141 0
-455 -1142 0
-456 -1143 0
-454 -1174 0
-455 -1175 0
-456 -1176 0
-457 -595 0
-458 -596 0
-459 -597 0
-457 -919 0
-458 -920 0
-459 -921 0
-460 -751 0
-461 -752 0
-462 -753 0
-460 -979 0
-461 -980 0
-462 -981 0
-460 -1342 0
-461 -1343 0
-462 -1344 0
-463 -1093 0
-464 -1094 0
-465 -1095 0
-463 -1141 0
-464 -1142 0
-465 -1143 0
-463 -1471 0
-464 -1472 0
-465 -1473 0
-466 -748 0
-467 -749 0
-468 -750 0
-466 -1117 0
-467 -1118 0
-468 -1119 0
-466 -1150 0
-467 -1151 0
-468 -1152 0
-469 -880 0
-470 -881 0
-471 -882 0
-469 -1096 0
-470 -1097 0
-471 -1098 0
-469 -1138 0
-470 -1139 0
-471 -1140 0
-469 -1447 0
-470 -1448 0
-471 -1449 0
-469 -1489 0
-470 -1490 0
-471 -1491 0
-472 -529 0
-473 -530 0
-474 -531 0
-472 -640 0
-473 -641 0
-474 -642 0
-472 -994 0
-473 -995 0
-474 -996 0
-472 -1123 0
-473 -1124 0
-474 -1125 0
-472 -1336 0
-473 -1337 0
-474 -1338 0
-475 -847 0
-476 -848 0
-477 -849 0
-475 -1048 0
-476 -1049 0
-477 -1050 0
-475 -1489 0
-476 -1490 0
-477 -1491 0
-478 -544 0
-479 -545 0
-480 -546 0
-478 -586 0
-479 -587 0
-480 -588 0
-478 -787 0
-479 -788 0
-480 -789 0
-478 -985 0
-479 -986 0
-480 -987 0
-478 -1189 0
-479 -1190 0
-480 -1191 0
-481 -637 0
-482 -638 0
-483 -639 0
-481 -727 0
-482 -728 0
-483 -729 0
-481 -1198 0
-482 -1199 0
-483 -1200 0
-481 -1267 0
-482 -1268 0
-483 -1269 0
-481 -1468 0
-482 -1469 0
-483 -1470 0
-484 -796 0
-485 -797 0
-486 -798 0
-484 -1030 0
-485 -1031 0
-486 -1032 0
-484 -1234 0
-485 -1235 0
-486 -1236 0
-490 -604 0
-491 -605 0
-492 -606 0
-490 -1204 0
-491 -1205 0
-492 -1206 0
-493 -553 0
-494 -554 0
-495 -555 0
-493 -565 0
-494 -566 0
-495 -567 0
-493 -718 0
-494 -719 0
-495 -720 0
-493 -1072 0
-494 -1073 0
-495 -1074 0
-493 -1231 0
-494 -1232 0
-495 -1233 0
-496 -736 0
-497 -737 0
-498 -738 0
-496 -1426 0
-497 -1427 0
-498 -1428 0
-499 -691 0
-500 -692 0
-501 -693 0
-499 -802 0
-500 -803 0
-501 -804 0
-499 -892 0
-500 -893 0
-501 -894 0
-499 -1138 0
-500 -1139 0
-501 -1140 0
-502 -619 0
-503 -620 0
-504 -621 0
-502 -733 0
-503 -734 0
-504 -735 0
-502 -1489 0
-503 -1490 0
-504 -1491 0
-505 -556 0
-506 -557 0
-507 -558 0
-505 -1273 0
-506 -1274 0
-507 -1275 0
-505 -1441 0
-506 -1442 0
-507 -1443 0
-508 -523 0
-509 -524 0
-510 -525 0
-508 -979 0
-509 -980 0
-510 -981 0
-508 -1282 0
-509 -1283 0
-510 -1284 0
-508 -1483 0
-509 -1484 0
-510 -1485 0
-508 -1498 0
-509 -1499 0
-510 -1500 0
-511 -985 0
-512 -986 0
-513 -987 0
-511 -1255 0
-512 -1256 0
-513 -1257 0
-514 -526 0
-515 -527 0
-516 -528 0
-514 -688 0
-515 -689 0
-516 -690 0
-514 -817 0
-515 -818 0
-516 -819 0
-517 -910 0
-518 -911 0
-519 -912 0
-517 -1123 0
-518 -1124 0
-519 -1125 0
-517 -1162 0
-518 -1163 0
-519 -1164 0
-517 -1198 0
-518 -1199 0
-519 -1200 0
-520 -616 0
-521 -617 0
-522 -618 0
-520 -679 0
-521 -680 0
-522 -681 0
-520 -805 0
-521 -806 0
-522 -807 0
-520 -937 0
-521 -938 0
-522 -939 0
-520 -973 0
-521 -974 0
-522 -975 0
-520 -1144 0
-521 -1145 0
-522 -1146 0
-520 -1150 0
-521 -1151 0
-522 -1152 0
-523 -892 0
-524 -893 0
-525 -894 0
-523 -1084 0
-524 -1085 0
-525 -1086 0
-523 -1099 0
-524 -1100 0
-525 -1101 0
-523 -1270 0
-524 -1271 0
-525 -1272 0
-526 -826 0
-527 -827 0
-528 -828 0
-526 -1114 0
-527 -1115 0
-528 -1116 0
-526 -1324 0
-527 -1325 0
-528 -1326 0
-529 -880 0
-530 -881 0
-531 -882 0
-529 -907 0
-530 -908 0
-531 -909 0
-529 -1240 0
-530 -1241 0
-531 -1242 0
-529 -1402 0
-530 -1403 0
-531 -1404 0
-529 -1465 0
-530 -1466 0
-531 -1467 0
-532 -625 0
-533 -626 0
-534 -627 0
-532 -1342 0
-533 -1343 0
-534 -1344 0
-535 -580 0
-536 -581 0
-537 -582 0
-535 -901 0
-536 -902 0
-537 -903 0
-535 -997 0
-536 -998 0
-537 -999 0
-538 -928 0
-539 -929 0
-540 -930 0
-538 -1201 0
-539 -1202 0
-540 -1203 0
-541 -1138 0
-542 -1139 0
-543 -1140 0
-541 -1276 0
-542 -1277 0
-543 -1278 0
-541 -1354 0
-542 -1355 0
-543 -1356 0
-541 -1399 0
-542 -1400 0
-543 -1401 0
-544 -742 0
-545 -743 0
-546 -744 0
-544 -919 0
-545 -920 0
-546 -921 0
-544 -1066 0
-545 -1067 0
-546 -1068 0
-544 -1189 0
-545 -1190 0
-546 -1191 0
-544 -1399 0
-545 -1400 0
-546 -1401 0
-547 -751 0
-548 -752 0
-549 -753 0
-547 -979 0
-548 -980 0
-549 -981 0
-547 -1216 0
-548 -1217 0
-549 -1218 0
-550 -601 0
-551 -602 0
-552 -603 0
-550 -754 0
-551 -755 0
-552 -756 0
-550 -868 0
-551 -869 0
-552 -870 0
-550 -922 0
-551 -923 0
-552 -924 0
-553 -733 0
-554 -734 0
-555 -735 0
-553 -1048 0
-554 -1049 0
-555 -1050 0
-553 -1411 0
-554 -1412 0
-555 -1413 0
-556 -697 0
-557 -698 0
-558 -699 0
-559 -598 0
-560 -599 0
-561 -600 0
-559 -1333 0
-560 -1334 0
-561 -1335 0
-559 -1462 0
-560 -1463 0
-561 -1464 0
-562 -601 0
-563 -602 0
-564 -603 0
-562 -607 0
-563 -608 0
-564 -609 0
-562 -1024 0
-563 -1025 0
-564 -1026 0
-562 -1228 0
-563 -1229 0
-564 -1230 0
-565 -574 0
-566 -575 0
-567 -576 0
-565 -604 0
-566 -605 0
-567 -606 0
-568 -739 0
-569 -740 0
-570 -741 0
-568 -823 0
-569 -824 0
-570 -825 0
-568 -880 0
-569 -881 0
-570 -882 0
-568 -1453 0
-569 -1454 0
-570 -1455 0
-571 -1252 0
-572 -1253 0
-573 -1254 0
-571 -1423 0
-572 -1424 0
-573 -1425 0
-574 -1186 0
-575 -1187 0
-576 -1188 0
-574 -1267 0
-575 -1268 0
-576 -1269 0
-577 -787 0
-578 -788 0
-579 -789 0
-580 -1054 0
-581 -1055 0
-582 -1056 0
-583 -1420 0
-584 -1421 0
-585 -1422 0
-586 -682 0
-587 -683 0
-588 -684 0
-586 -862 0
-587 -863 0
-588 -864 0
-586 -910 0
-587 -911 0
-588 -912 0
-586 -988 0
-587 -989 0
-588 -990 0
-586 -1333 0
-587 -1334 0
-588 -1335 0
-589 -925 0
-590 -926 0
-591 -927 0
-589 -1246 0
-590 -1247 0
-591 -1248 0
-592 -655 0
-593 -656 0
-594 -657 0
-592 -685 0
-593 -686 0
-594 -687 0
-592 -817 0
-593 -818 0
-594 -819 0
-592 -1129 0
-593 -1130 0
-594 -1131 0
-592 -1156 0
-593 -1157 0
-594 -1158 0
-595 -778 0
-596 -779 0
-597 -780 0
-595 -1390 0
-596 -1391 0
-597 -1392 0
-595 -1492 0
-596 -1493 0
-597 -1494 0
-598 -610 0
-599 -611 0
-600 -612 0
-598 -1168 0
-599 -1169 0
-600 -1170 0
-601 -706 0
-602 -707 0
-603 -708 0
-601 -715 0
-602 -716 0
-603 -717 0
-601 -832 0
-602 -833 0
-603 -834 0
-601 -1060 0
-602 -1061 0
-603 -1062 0
-601 -1063 0
-602 -1064 0
-603 -1065 0
-601 -1195 0
-602 -1196 0
-603 -1197 0
-601 -1459 0
-602 -1460 0
-603 -1461 0
-604 -676 0
-605 -677 0
-606 -678 0
-604 -901 0
-605 -902 0
-606 -903 0
-607 -760 0
-608 -761 0
-609 -762 0
-607 -1078 0
-608 -1079 0
-609 -1080 0
-607 -1378 0
-608 -1379 0
-609 -1380 0
-610 -853 0
-611 -854 0
-612 -855 0
-610 -1063 0
-611 -1064 0
-612 -1065 0
-610 -1276 0
-611 -1277 0
-612 -1278 0
-610 -1279 0
-611 -1280 0
-612 -1281 0
-613 -1027 0
-614 -1028 0
-615 -1029 0
-613 -1324 0
-614 -1325 0
-615 -1326 0
-619 -676 0
-620 -677 0
-621 -678 0
-619 -1027 0
-620 -1028 0
-621 -1029 0
-619 -1270 0
-620 -1271 0
-621 -1272 0
-619 -1306 0
-620 -1307 0
-621 -1308 0
-622 -835 0
-623 -836 0
-624 -837 0
-622 -1090 0
-623 -1091 0
-624 -1092 0
-622 -1120 0
-623 -1121 0
-624 -1122 0
-622 -1132 0
-623 -1133 0
-624 -1134 0
-625 -952 0
-626 -953 0
-627 -954 0
-625 -1033 0
-626 -1034 0
-627 -1035 0
-625 -1093 0
-626 -1094 0
-627 -1095 0
-625 -1159 0
-626 -1160 0
-627 -1161 0
-625 -1462 0
-626 -1463 0
-627 -1464 0
-628 -808 0
-629 -809 0
-630 -810 0
-628 -928 0
-629 -929 0
-630 -930 0
-631 -667 0
-632 -668 0
-633 -669 0
-631 -760 0
-632 -761 0
-633 -762 0
-631 -793 0
-632 -794 0
-633 -795 0
-631 -862 0
-632 -863 0
-633 -864 0
-631 -1330 0
-632 -1331 0
-633 -1332 0
-631 -1456 0
-632 -1457 0
-633 -1458 0
-631 -1483 0
-632 -1484 0
-633 -1485 0
-634 -772 0
-635 -773 0
-636 -774 0
-634 -1180 0
-635 -1181 0
-636 -1182 0
-634 -1183 0
-635 -1184 0
-636 -1185 0
-634 -1327 0
-635 -1328 0
-636 -1329 0
-637 -922 0
-638 -923 0
-639 -924 0
-637 -952 0
-638 -953 0
-639 -954 0
-637 -1069 0
-638 -1070 0
-639 -1071 0
-637 -1159 0
-638 -1160 0
-639 -1161 0
-637 -1282 0
-638 -1283 0
-639 -1284 0
-637 -1351 0
-638 -1352 0
-639 -1353 0
-640 -943 0
-641 -944 0
-642 -945 0
-640 -1321 0
-641 -1322 0
-642 -1323 0
-640 -1471 0
-641 -1472 0
-642 -1473 0
-643 -1093 0
-644 -1094 0
-645 -1095 0
-643 -1141 0
-644 -1142 0
-645 -1143 0
-643 -1240 0
-644 -1241 0
-645 -1242 0
-646 -1390 0
-647 -1391 0
-648 -1392 0
-646 -1426 0
-647 -1427 0
-648 -1428 0
-649 -937 0
-650 -938 0
-651 -939 0
-649 -1246 0
-650 -1247 0
-651 -1248 0
-649 -1264 0
-650 -1265 0
-651 -1266 0
-649 -1498 0
-650 -1499 0
-651 -1500 0
-652 -706 0
-653 -707 0
-654 -708 0
-652 -1225 0
-653 -1226 0
-654 -1227 0
-652 -1375 0
-653 -1376 0
-654 -1377 0
-652 -1450 0
-653 -1451 0
-654 -1452 0
-655 -1465 0
-656 -1466 0
-657 -1467 0
-658 -1147 0
-659 -1148 0
-660 -1149 0
-658 -1303 0
-659 -1304 0
-660 -1305 0
-661 -829 0
-662 -830 0
-663 -831 0
-661 -889 0
-662 -890 0
-663 -891 0
-664 -844 0
-665 -845 0
-666 -846 0
-664 -1060 0
-665 -1061 0
-666 -1062 0
-664 -1327 0
-665 -1328 0
-666 -1329 0
-664 -1357 0
-665 -1358 0
-666 -1359 0
-667 -772 0
-668 -773 0
-669 -774 0
-667 -1105 0
-668 -1106 0
-669 -1107 0
-670 -766 0
-671 -767 0
-672 -768 0
-673 -1015 0
-674 -1016 0
-675 -1017 0
-673 -1078 0
-674 -1079 0
-675 -1080 0
-676 -724 0
-677 -725 0
-678 -726 0
-679 -700 0
-680 -701 0
-681 -702 0
-679 -1096 0
-680 -1097 0
-681 -1098 0
-682 -874 0
-683 -875 0
-684 -876 0
-682 -910 0
-683 -911 0
-684 -912 0
-685 -964 0
-686 -965 0
-687 -966 0
-688 -787 0
-689 -788 0
-690 -789 0
-688 -964 0
-689 -965 0
-690 -966 0
-688 -1369 0
-689 -1370 0
-690 -1371 0
-691 -1090 0
-692 -1091 0
-693 -1092 0
-691 -1279 0
-692 -1280 0
-693 -1281 0
-694 -844 0
-695 -845 0
-696 -846 0
-694 -1306 0
-695 -1307 0
-696 -1308 0
-694 -1450 0
-695 -1451 0
-696 -1452 0
-697 -1207 0
-698 -1208 0
-699 -1209 0
-700 -1153 0
-701 -1154 0
-702 -1155 0
-700 -1249 0
-701 -1250 0
-702 -1251 0
-700 -1267 0
-701 -1268 0
-702 -1269 0
-700 -1342 0
-701 -1343 0
-702 -1344 0
-703 -1330 0
-704 -1331 0
-705 -1332 0
-706 -880 0
-707 -881 0
-708 -882 0
-706 -1351 0
-707 -1352 0
-708 -1353 0
-709 -931 0
-710 -932 0
-711 -933 0
-712 -967 0
-713 -968 0
-714 -969 0
-712 -1018 0
-713 -1019 0
-714 -1020 0
-715 -949 0
-716 -950 0
-717 -951 0
-715 -952 0
-716 -953 0
-717 -954 0
-715 -1366 0
-716 -1367 0
-717 -1368 0
-718 -937 0
-719 -938 0
-720 -939 0
-718 -991 0
-719 -992 0
-720 -993 0
-718 -1003 0
-719 -1004 0
-720 -1005 0
-718 -1111 0
-719 -1112 0
-720 -1113 0
-718 -1333 0
-719 -1334 0
-720 -1335 0
-721 -970 0
-722 -971 0
-723 -972 0
-721 -1072 0
-722 -1073 0
-723 -1074 0
-721 -1438 0
-722 -1439 0
-723 -1440 0
-724 -982 0
-725 -983 0
-726 -984 0
-727 -847 0
-728 -848 0
-729 -849 0
-727 -1315 0
-728 -1316 0
-729 -1317 0
-727 -1411 0
-728 -1412 0
-729 -1413 0
-730 -1168 0
-731 -1169 0
-732 -1170 0
-733 -880 0
-734 -881 0
-735 -882 0
-733 -1039 0
-734 -1040 0
-735 -1041 0
-733 -1342 0
-734 -1343 0
-735 -1344 0
-736 -1201 0
-737 -1202 0
-738 -1203 0
-739 -925 0
-740 -926 0
-741 -927 0
-739 -1240 0
-740 -1241 0
-741 -1242 0
-739 -1339 0
-740 -1340 0
-741 -1341 0
-739 -1426 0
-740 -1427 0
-741 -1428 0
-742 -1063 0
-743 -1064 0
-744 -1065 0
-745 -1042 0
-746 -1043 0
-747 -1044 0
-745 -1207 0
-746 -1208 0
-747 -1209 0
-745 -1423 0
-746 -1424 0
-747 -1425 0
-748 -1468 0
-749 -1469 0
-750 -1470 0
-748 -1483 0
-749 -1484 0
-750 -1485 0
-751 -928 0
-752 -929 0
-753 -930 0
-751 -1159 0
-752 -1160 0
-753 -1161 0
-754 -808 0
-755 -809 0
-756 -810 0
-754 -967 0
-755 -968 0
-756 -969 0
-757 -811 0
-758 -812 0
-759 -813 0
-757 -829 0
-758 -830 0
-759 -831 0
-757 -895 0
-758 -896 0
-759 -897 0
-760 -1189 0
-761 -1190 0
-762 -1191 0
-760 -1354 0
-761 -1355 0
-762 -1356 0
-760 -1483 0
-761 -1484 0
-762 -1485 0
-763 -916 0
-764 -917 0
-765 -918 0
-763 -1213 0
-764 -1214 0
-765 -1215 0
-766 -982 0
-767 -983 0
-768 -984 0
-769 -895 0
-770 -896 0
-771 -897 0
-769 -1387 0
-770 -1388 0
-771 -1389 0
-772 -802 0
-773 -803 0
-774 -804 0
-772 -910 0
-773 -911 0
-774 -912 0
-772 -913 0
-773 -914 0
-774 -915 0
-772 -970 0
-773 -971 0
-774 -972 0
-772 -1393 0
-773 -1394 0
-774 -1395 0
-775 -862 0
-776 -863 0
-777 -864 0
-775 -1324 0
-776 -1325 0
-777 -1326 0
-775 -1420 0
-776 -1421 0
-777 -1422 0
-778 -1090 0
-779 -1091 0
-780 -1092 0
-778 -1132 0
-779 -1133 0
-780 -1134 0
-778 -1381 0
-779 -1382 0
-780 -1383 0
-781 -916 0
-782 -917 0
-783 -918 0
-784 -832 0
-785 -833 0
-786 -834 0
-784 -1021 0
-785 -1022 0
-786 -1023 0
-787 -847 0
-788 -848 0
-789 -849 0
-787 -958 0
-788 -959 0
-789 -960 0
-787 -1432 0
-788 -1433 0
-789 -1434 0
-790 -979 0
-791 -980 0
-792 -981 0
-790 -1084 0
-791 -1085 0
-792 -1086 0
-793 -880 0
-794 -881 0
-795 -882 0
-793 -1228 0
-794 -1229 0
-795 -1230 0
-793 -1384 0
-794 -1385 0
-795 -1386 0
-796 -820 0
-797 -821 0
-798 -822 0
-796 -826 0
-797 -827 0
-798 -828 0
-799 -823 0
-800 -824 0
-801 -825 0
-799 -1222 0
-800 -1223 0
-801 -1224 0
-799 -1267 0
-800 -1268 0
-801 -1269 0
-799 -1270 0
-800 -1271 0
-801 -1272 0
-799 -1297 0
-800 -1298 0
-801 -1299 0
-802 -883 0
-803 -884 0
-804 -885 0
-802 -973 0
-803 -974 0
-804 -975 0
-802 -1453 0
-803 -1454 0
-804 -1455 0
-805 -820 0
-806 -821 0
-807 -822 0
-805 -949 0
-806 -950 0
-807 -951 0
-805 -991 0
-806 -992 0
-807 -993 0
-805 -1285 0
-806 -1286 0
-807 -1287 0
-805 -1423 0
-806 -1424 0
-807 -1425 0
-808 -907 0
-809 -908 0
-810 -909 0
-808 -1078 0
-809 -1079 0
-810 -1080 0
-808 -1105 0
-809 -1106 0
-810 -1107 0
-808 -1294 0
-809 -1295 0
-810 -1296 0
-811 -1138 0
-812 -1139 0
-813 -1140 0
-811 -1327 0
-812 -1328 0
-813 -1329 0
-814 -892 0
-815 -893 0
-816 -894 0
-814 -1012 0
-815 -1013 0
-816 -1014 0
-814 -1231 0
-815 -1232 0
-816 -1233 0
-814 -1291 0
-815 -1292 0
-816 -1293 0
-817 -1294 0
-818 -1295 0
-819 -1296 0
-817 -1297 0
-818 -1298 0
-819 -1299 0
-817 -1483 0
-818 -1484 0
-819 -1485 0
-820 -1033 0
-821 -1034 0
-822 -1035 0
-820 -1210 0
-821 -1211 0
-822 -1212 0
-820 -1354 0
-821 -1355 0
-822 -1356 0
-823 -1003 0
-824 -1004 0
-825 -1005 0
-823 -1351 0
-824 -1352 0
-825 -1353 0
-823 -1375 0
-824 -1376 0
-825 -1377 0
-826 -1234 0
-827 -1235 0
-828 -1236 0
-826 -1387 0
-827 -1388 0
-828 -1389 0
-829 -916 0
-830 -917 0
-831 -918 0
-829 -1222 0
-830 -1223 0
-831 -1224 0
-835 -937 0
-836 -938 0
-837 -939 0
-841 -1342 0
-842 -1343 0
-843 -1344 0
-841 -1381 0
-842 -1382 0
-843 -1383 0
-844 -859 0
-845 -860 0
-846 -861 0
-844 -1192 0
-845 -1193 0
-846 -1194 0
-850 -1066 0
-851 -1067 0
-852 -1068 0
-850 -1360 0
-851 -1361 0
-852 -1362 0
-853 -1168 0
-854 -1169 0
-855 -1170 0
-856 -1141 0
-857 -1142 0
-858 -1143 0
-856 -1255 0
-857 -1256 0
-858 -1257 0
-856 -1498 0
-857 -1499 0
-858 -1500 0
-859 -1033 0
-860 -1034 0
-861 -1035 0
-859 -1099 0
-860 -1100 0
-861 -1101 0
-859 -1186 0
-860 -1187 0
-861 -1188 0
-859 -1195 0
-860 -1196 0
-861 -1197 0
-859 -1420 0
-860 -1421 0
-861 -1422 0
-862 -1327 0
-863 -1328 0
-864 -1329 0
-865 -934 0
-866 -935 0
-867 -936 0
-868 -1372 0
-869 -1373 0
-870 -1374 0
-871 -1006 0
-872 -1007 0
-873 -1008 0
-877 -940 0
-878 -941 0
-879 -942 0
-877 -1102 0
-878 -1103 0
-879 -1104 0
-877 -1354 0
-878 -1355 0
-879 -1356 0
-877 -1429 0
-878 -1430 0
-879 -1431 0
-883 -1012 0
-884 -1013 0
-885 -1014 0
-883 -1303 0
-884 -1304 0
-885 -1305 0
-886 -1273 0
-887 -1274 0
-888 -1275 0
-889 -1045 0
-890 -1046 0
-891 -1047 0
-889 -1225 0
-890 -1226 0
-891 -1227 0
-889 -1453 0
-890 -1454 0
-891 -1455 0
-892 -1174 0
-893 -1175 0
-894 -1176 0
-895 -1417 0
-896 -1418 0
-897 -1419 0
-898 -1270 0
-899 -1271 0
-900 -1272 0
-898 -1339 0
-899 -1340 0
-900 -1341 0
-901 -1243 0
-902 -1244 0
-903 -1245 0
-904 -967 0
-905 -968 0
-906 -969 0
-904 -1006 0
-905 -1007 0
-906 -1008 0
-904 -1168 0
-905 -1169 0
-906 -1170 0
-907 -1144 0
-908 -1145 0
-909 -1146 0
-910 -1429 0
-911 -1430 0
-912 -1431 0
-910 -1483 0
-911 -1484 0
-912 -1485 0
-916 -997 0
-917 -998 0
-918 -999 0
-916 -1228 0
-917 -1229 0
-918 -1230 0
-916 -1327 0
-917 -1328 0
-918 -1329 0
-919 -985 0
-920 -986 0
-921 -987 0
-919 -1090 0
-920 -1091 0
-921 -1092 0
-922 -1189 0
-923 -1190 0
-924 -1191 0
-922 -1282 0
-923 -1283 0
-924 -1284 0
-925 -1024 0
-926 -1025 0
-927 -1026 0
-925 -1171 0
-926 -1172 0
-927 -1173 0
-931 -1120 0
-932 -1121 0
-933 -1122 0
-931 -1183 0
-932 -1184 0
-933 -1185 0
-931 -1198 0
-932 -1199 0
-933 -1200 0
-937 -1345 0
-938 -1346 0
-939 -1347 0
-937 -1414 0
-938 -1415 0
-939 -1416 0
-940 -1162 0
-941 -1163 0
-942 -1164 0
-940 -1201 0
-941 -1202 0
-942 -1203 0
-940 -1459 0
-941 -1460 0
-942 -1461 0
-943 -1126 0
-944 -1127 0
-945 -1128 0
-943 -1153 0
-944 -1154 0
-945 -1155 0
-943 -1249 0
-944 -1250 0
-945 -1251 0
-943 -1351 0
-944 -1352 0
-945 -1353 0
-943 -1456 0
-944 -1457 0
-945 -1458 0
-946 -1114 0
-947 -1115 0
-948 -1116 0
-946 -1222 0
-947 -1223 0
-948 -1224 0
-952 -1159 0
-953 -1160 0
-954 -1161 0
-952 -1438 0
-953 -1439 0
-954 -1440 0
-958 -961 0
-959 -962 0
-960 -963 0
-958 -973 0
-959 -974 0
-960 -975 0
-958 -1345 0
-959 -1346 0
-960 -1347 0
-958 -1483 0
-959 -1484 0
-960 -1485 0
-961 -991 0
-962 -992 0
-963 -993 0
-964 -1489 0
-965 -1490 0
-966 -1491 0
-970 -985 0
-971 -986 0
-972 -987 0
-970 -1069 0
-971 -1070 0
-972 -1071 0
-970 -1162 0
-971 -1163 0
-972 -1164 0
-970 -1336 0
-971 -1337 0
-972 -1338 0
-970 -1393 0
-971 -1394 0
-972 -1395 0
-970 -1426 0
-971 -1427 0
-972 -1428 0
-973 -1135 0
-974 -1136 0
-975 -1137 0
-973 -1363 0
-974 -1364 0
-975 -1365 0
-976 -1309 0
-977 -1310 0
-978 -1311 0
-976 -1330 0
-977 -1331 0
-978 -1332 0
-976 -1486 0
-977 -1487 0
-978 -1488 0
-979 -1438 0
-980 -1439 0
-981 -1440 0
-985 -1267 0
-986 -1268 0
-987 -1269 0
-988 -1042 0
-989 -1043 0
-990 -1044 0
-988 -1204 0
-989 -1205 0
-990 -1206 0
-991 -1045 0
-992 -1046 0
-993 -1047 0
-991 -1198 0
-992 -1199 0
-993 -1200 0
-991 -1339 0
-992 -1340 0
-993 -1341 0
-994 -1171 0
-995 -1172 0
-996 -1173 0
-994 -1186 0
-995 -1187 0
-996 -1188 0
-1000 -1279 0
-1001 -1280 0
-1002 -1281 0
-1003 -1378 0
-1004 -1379 0
-1005 -1380 0
-1006 -1474 0
-1007 -1475 0
-1008 -1476 0
-1009 -1141 0
-1010 -1142 0
-1011 -1143 0
-1009 -1168 0
-1010 -1169 0
-1011 -1170 0
-1012 -1045 0
-1013 -1046 0
-1014 -1047 0
-1012 -1162 0
-1013 -1163 0
-1014 -1164 0
-1012 -1192 0
-1013 -1193 0
-1014 -1194 0
-1015 -1237 0
-1016 -1238 0
-1017 -1239 0
-1018 -1360 0
-1019 -1361 0
-1020 -1362 0
-1021 -1045 0
-1022 -1046 0
-1023 -1047 0
-1021 -1417 0
-1022 -1418 0
-1023 -1419 0
-1021 -1474 0
-1022 -1475 0
-1023 -1476 0
-1024 -1069 0
-1025 -1070 0
-1026 -1071 0
-1024 -1495 0
-1025 -1496 0
-1026 -1497 0
-1027 -1264 0
-1028 -1265 0
-1029 -1266 0
-1027 -1348 0
-1028 -1349 0
-1029 -1350 0
-1030 -1189 0
-1031 -1190 0
-1032 -1191 0
-1030 -1330 0
-1031 -1331 0
-1032 -1332 0
-1030 -1393 0
-1031 -1394 0
-1032 -1395 0
-1030 -1492 0
-1031 -1493 0
-1032 -1494 0
-1033 -1372 0
-1034 -1373 0
-1035 -1374 0
-1036 -1171 0
-1037 -1172 0
-1038 -1173 0
-1036 -1357 0
-1037 -1358 0
-1038 -1359 0
-1036 -1480 0
-1037 -1481 0
-1038 -1482 0
-1039 -1144 0
-1040 -1145 0
-1041 -1146 0
-1039 -1402 0
-1040 -1403 0
-1041 -1404 0
-1042 -1438 0
-1043 -1439 0
-1044 -1440 0
-1045 -1276 0
-1046 -1277 0
-1047 -1278 0
-1045 -1297 0
-1046 -1298 0
-1047 -1299 0
-1048 -1249 0
-1049 -1250 0
-1050 -1251 0
-1057 -1432 0
-1058 -1433 0
-1059 -1434 0
-1060 -1159 0
-1061 -1160 0
-1062 -1161 0
-1063 -1255 0
-1064 -1256 0
-1065 -1257 0
-1063 -1345 0
-1064 -1346 0
-1065 -1347 0
-1066 -1180 0
-1067 -1181 0
-1068 -1182 0
-1069 -1162 0
-1070 -1163 0
-1071 -1164 0
-1069 -1213 0
-1070 -1214 0
-1071 -1215 0
-1069 -1225 0
-1070 -1226 0
-1071 -1227 0
-1072 -1276 0
-1073 -1277 0
-1074 -1278 0
-1075 -1198 0
-1076 -1199 0
-1077 -1200 0
-1078 -1309 0
-1079 -1310 0
-1080 -1311 0
-1081 -1237 0
-1082 -1238 0
-1083 -1239 0
-1081 -1285 0
-1082 -1286 0
-1083 -1287 0
-1084 -1138 0
-1085 -1139 0
-1086 -1140 0
-1084 -1222 0
-1085 -1223 0
-1086 -1224 0
-1087 -1105 0
-1088 -1106 0
-1089 -1107 0
-1090 -1318 0
-1091 -1319 0
-1092 -1320 0
-1093 -1171 0
-1094 -1172 0
-1095 -1173 0
-1096 -1327 0
-1097 -1328 0
-1098 -1329 0
-1105 -1210 0
-1106 -1211 0
-1107 -1212 0
-1105 -1303 0
-1106 -1304 0
-1107 -1305 0
-1108 -1168 0
-1109 -1169 0
-1110 -1170 0
-1114 -1360 0
-1115 -1361 0
-1116 -1362 0
-1117 -1423 0
-1118 -1424 0
-1119 -1425 0
-1120 -1372 0
-1121 -1373 0
-1122 -1374 0
-1123 -1210 0
-1124 -1211 0
-1125 -1212 0
-1123 -1315 0
-1124 -1316 0
-1125 -1317 0
-1126 -1135 0
-1127 -1136 0
-1128 -1137 0
-1126 -1351 0
-1127 -1352 0
-1128 -1353 0
-1138 -1204 0
-1139 -1205 0
-1140 -1206 0
-1138 -1297 0
-1139 -1298 0
-1140 -1299 0
-1141 -1333 0
-1142 -1334 0
-1143 -1335 0
-1141 -1447 0
-1142 -1448 0
-1143 -1449 0
-1144 -1417 0
-1145 -1418 0
-1146 -1419 0
-1153 -1387 0
-1154 -1388 0
-1155 -1389 0
-1162 -1342 0
-1163 -1343 0
-1164 -1344 0
-1162 -1351 0
-1163 -1352 0
-1164 -1353 0
-1165 -1342 0
-1166 -1343 0
-1167 -1344 0
-1168 -1270 0
-1169 -1271 0
-1170 -1272 0
-1171 -1192 0
-1172 -1193 0
-1173 -1194 0
-1177 -1345 0
-1178 -1346 0
-1179 -1347 0
-1183 -1282 0
-1184 -1283 0
-1185 -1284 0
-1186 -1378 0
-1187 -1379 0
-1188 -1380 0
-1189 -1219 0
-1190 -1220 0
-1191 -1221 0
-1201 -1408 0
-1202 -1409 0
-1203 -1410 0
-1204 -1357 0
-1205 -1358 0
-1206 -1359 0
-1204 -1444 0
-1205 -1445 0
-1206 -1446 0
-1210 -1321 0
-1211 -1322 0
-1212 -1323 0
-1219 -1357 0
-1220 -1358 0
-1221 -1359 0
-1219 -1432 0
-1220 -1433 0
-1221 -1434 0
-1222 -1237 0
-1223 -1238 0
-1224 -1239 0
-1222 -1282 0
-1223 -1283 0
-1224 -1284 0
-1222 -1321 0
-1223 -1322 0
-1224 -1323 0
-1222 -1360 0
-1223 -1361 0
-1224 -1362 0
-1225 -1396 0
-1226 -1397 0
-1227 -1398 0
-1231 -1345 0
-1232 -1346 0
-1233 -1347 0
-1231 -1354 0
-1232 -1355 0
-1233 -1356 0
-1234 -1393 0
-1235 -1394 0
-1236 -1395 0
-1237 -1255 0
-1238 -1256 0
-1239 -1257 0
-1240 -1336 0
-1241 -1337 0
-1242 -1338 0
-1240 -1384 0
-1241 -1385 0
-1242 -1386 0
-1243 -1318 0
-1244 -1319 0
-1245 -1320 0
-1243 -1453 0
-1244 -1454 0
-1245 -1455 0
-1252 -1255 0
-1253 -1256 0
-1254 -1257 0
-1255 -1348 0
-1256 -1349 0
-1257 -1350 0
-1255 -1363 0
-1256 -1364 0
-1257 -1365 0
-1258 -1327 0
-1259 -1328 0
-1260 -1329 0
-1261 -1447 0
-1262 -1448 0
-1263 -1449 0
-1264 -1330 0
-1265 -1331 0
-1266 -1332 0
-1264 -1471 0
-1265 -1472 0
-1266 -1473 0
-1273 -1393 0
-1274 -1394 0
-1275 -1395 0
-1273 -1465 0
-1274 -1466 0
-1275 -1467 0
-1279 -1453 0
-1280 -1454 0
-1281 -1455 0
-1300 -1321 0
-1301 -1322 0
-1302 -1323 0
-1306 -1402 0
-1307 -1403 0
-1308 -1404 0
-1306 -1411 0
-1307 -1412 0
-1308 -1413 0
-1306 -1417 0
-1307 -1418 0
-1308 -1419 0
-1309 -1369 0
-1310 -1370 0
-1311 -1371 0
-1315 -1372 0
-1316 -1373 0
-1317 -1374 0
-1315 -1405 0
-1316 -1406 0
-1317 -1407 0
-1318 -1339 0
-1319 -1340 0
-1320 -1341 0
-1318 -1372 0
-1319 -1373 0
-1320 -1374 0
-1321 -1372 0
-1322 -1373 0
-1323 -1374 0
-1327 -1435 0
-1328 -1436 0
-1329 -1437 0
-1327 -1483 0
-1328 -1484 0
-1329 -1485 0
-1330 -1471 0
-1331 -1472 0
-1332 -1473 0
-1339 -1495 0
-1340 -1496 0
-1341 -1497 0
-1360 -1369 0
-1361 -1370 0
-1362 -1371 0
-1360 -1372 0
-1361 -1373 0
-1362 -1374 0
-1360 -1420 0
-1361 -1421 0
-1362 -1422 0
-1363 -1384 0
-1364 -1385 0
-1365 -1386 0
-1369 -1453 0
-1370 -1454 0
-1371 -1455 0
-1375 -1444 0
-1376 -1445 0
-1377 -1446 0
-1381 -1483 0
-1382 -1484 0
-1383 -1485 0
-1384 -1444 0
-1385 -1445 0
-1386 -1446 0
-1399 -1492 0
-1400 -1493 0
-1401 -1494 0
-1405 -1480 0
-1406 -1481 0
-1407 -1482 0
-1435 -1453 0
-1436 -1454 0
-1437 -1455 0
-1483 -1489 0
-1484 -1490 0
-1485 -1491 0
