p cnf 1500 5552
1 2 3 0
4 5 6 0
7 8 9 0
10 11 12 0
13 14 15 0
16 17 18 0
19 20 21 0
22 23 24 0
25 26 27 0
28 29 30 0
31 32 33 0
34 35 36 0
37 38 39 0
40 41 42 0
43 44 45 0
46 47 48 0
49 50 51 0
52 53 54 0
55 56 57 0
58 59 60 0
61 62 63 0
64 65 66 0
67 68 69 0
70 71 72 0
73 74 75 0
76 77 78 0
79 80 81 0
82 83 84 0
85 86 87 0
88 89 90 0
91 92 93 0
94 95 96 0
97 98 99 0
100 101 102 0
103 104 105 0
106 107 108 0
109 110 111 0
112 113 114 0
115 116 117 0
118 119 120 0
121 122 123 0
124 125 126 0
127 128 129 0
130 131 132 0
133 134 135 0
136 137 138 0
139 140 141 0
142 143 144 0
145 146 147 0
148 149 150 0
151 152 153 0
154 155 156 0
157 158 159 0
160 161 162 0
163 164 165 0
166 167 168 0
169 170 171 0
172 173 174 0
175 176 177 0
178 179 180 0
181 182 183 0
184 185 186 0
187 188 189 0
190 191 192 0
193 194 195 0
196 197 198 0
199 200 201 0
202 203 204 0
205 206 207 0
208 209 210 0
211 212 213 0
214 215 216 0
217 218 219 0
220 221 222 0
223 224 225 0
226 227 228 0
229 230 231 0
232 233 234 0
235 236 237 0
238 239 240 0
241 242 243 0
244 245 246 0
247 248 249 0
250 251 252 0
253 254 255 0
256 257 258 0
259 260 261 0
262 263 264 0
265 266 267 0
268 269 270 0
271 272 273 0
274 275 276 0
277 278 279 0
280 281 282 0
283 284 285 0
286 287 288 0
289 290 291 0
292 293 294 0
295 296 297 0
298 299 300 0
301 302 303 0
304 305 306 0
307 308 309 0
310 311 312 0
313 314 315 0
316 317 318 0
319 320 321 0
322 323 324 0
325 326 327 0
328 329 330 0
331 332 333 0
334 335 336 0
337 338 339 0
340 341 342 0
343 344 345 0
346 347 348 0
349 350 351 0
352 353 354 0
355 356 357 0
358 359 360 0
361 362 363 0
364 365 366 0
367 368 369 0
370 371 372 0
373 374 375 0
376 377 378 0
379 380 381 0
382 383 384 0
385 386 387 0
388 389 390 0
391 392 393 0
394 395 396 0
397 398 399 0
400 401 402 0
403 404 405 0
406 407 408 0
409 410 411 0
412 413 414 0
415 416 417 0
418 419 420 0
421 422 423 0
424 425 426 0
427 428 429 0
430 431 432 0
433 434 435 0
436 437 438 0
439 440 441 0
442 443 444 0
445 446 447 0
448 449 450 0
451 452 453 0
454 455 456 0
457 458 459 0
460 461 462 0
463 464 465 0
466 467 468 0
469 470 471 0
472 473 474 0
475 476 477 0
478 479 480 0
481 482 483 0
484 485 486 0
487 488 489 0
490 491 492 0
493 494 495 0
496 497 498 0
499 500 501 0
502 503 504 0
505 506 507 0
508 509 510 0
511 512 513 0
514 515 516 0
517 518 519 0
520 521 522 0
523 524 525 0
526 527 528 0
529 530 531 0
532 533 534 0
535 536 537 0
538 539 540 0
541 542 543 0
544 545 546 0
547 548 549 0
550 551 552 0
553 554 555 0
556 557 558 0
559 560 561 0
562 563 564 0
565 566 567 0
568 569 570 0
571 572 573 0
574 575 576 0
577 578 579 0
580 581 582 0
583 584 585 0
586 587 588 0
589 590 591 0
592 593 594 0
595 596 597 0
598 599 600 0
601 602 603 0
604 605 606 0
607 608 609 0
610 611 612 0
613 614 615 0
616 617 618 0
619 620 621 0
622 623 624 0
625 626 627 0
628 629 630 0
631 632 633 0
634 635 636 0
637 638 639 0
640 641 642 0
643 644 645 0
646 647 648 0
649 650 651 0
652 653 654 0
655 656 657 0
658 659 660 0
661 662 663 0
664 665 666 0
667 668 669 0
670 671 672 0
673 674 675 0
676 677 678 0
679 680 681 0
682 683 684 0
685 686 687 0
688 689 690 0
691 692 693 0
694 695 696 0
697 698 699 0
700 701 702 0
703 704 705 0
706 707 708 0
709 710 711 0
712 713 714 0
715 716 717 0
718 719 720 0
721 722 723 0
724 725 726 0
727 728 729 0
730 731 732 0
733 734 735 0
736 737 738 0
739 740 741 0
742 743 744 0
745 746 747 0
748 749 750 0
751 752 753 0
754 755 756 0
757 758 759 0
760 761 762 0
763 764 765 0
766 767 768 0
769 770 771 0
772 773 774 0
775 776 777 0
778 779 780 0
781 782 783 0
784 785 786 0
787 788 789 0
790 791 792 0
793 794 795 0
796 797 798 0
799 800 801 0
802 803 804 0
805 806 807 0
808 809 810 0
811 812 813 0
814 815 816 0
817 818 819 0
820 821 822 0
823 824 825 0
826 827 828 0
829 830 831 0
832 833 834 0
835 836 837 0
838 839 840 0
841 842 843 0
844 845 846 0
847 848 849 0
850 851 852 0
853 854 855 0
856 857 858 0
859 860 861 0
862 863 864 0
865 866 867 0
868 869 870 0
871 872 873 0
874 875 876 0
877 878 879 0
880 881 882 0
883 884 885 0
886 887 888 0
889 890 891 0
892 893 894 0
895 896 897 0
898 899 900 0
901 902 903 0
904 905 906 0
907 908 909 0
910 911 912 0
913 914 915 0
916 917 918 0
919 920 921 0
922 923 924 0
925 926 927 0
928 929 930 0
931 932 933 0
934 935 936 0
937 938 939 0
940 941 942 0
943 944 945 0
946 947 948 0
949 950 951 0
952 953 954 0
955 956 957 0
958 959 960 0
961 962 963 0
964 965 966 0
967 968 969 0
970 971 972 0
973 974 975 0
976 977 978 0
979 980 981 0
982 983 984 0
985 986 987 0
988 989 990 0
991 992 993 0
994 995 996 0
997 998 999 0
1000 1001 1002 0
1003 1004 1005 0
1006 1007 1008 0
1009 1010 1011 0
1012 1013 1014 0
1015 1016 1017 0
1018 1019 1020 0
1021 1022 1023 0
1024 1025 1026 0
1027 1028 1029 0
1030 1031 1032 0
1033 1034 1035 0
1036 1037 1038 0
1039 1040 1041 0
1042 1043 1044 0
1045 1046 1047 0
1048 1049 1050 0
1051 1052 1053 0
1054 1055 1056 0
1057 1058 1059 0
1060 1061 1062 0
1063 1064 1065 0
1066 1067 1068 0
1069 1070 1071 0
1072 1073 1074 0
1075 1076 1077 0
1078 1079 1080 0
1081 1082 1083 0
1084 1085 1086 0
1087 1088 1089 0
1090 1091 1092 0
1093 1094 1095 0
1096 1097 1098 0
1099 1100 1101 0
1102 1103 1104 0
1105 1106 1107 0
1108 1109 1110 0
1111 1112 1113 0
1114 1115 1116 0
1117 1118 1119 0
1120 1121 1122 0
1123 1124 1125 0
1126 1127 1128 0
1129 1130 1131 0
1132 1133 1134 0
1135 1136 1137 0
1138 1139 1140 0
1141 1142 1143 0
1144 1145 1146 0
1147 1148 1149 0
1150 1151 1152 0
1153 1154 1155 0
1156 1157 1158 0
1159 1160 1161 0
1162 1163 1164 0
1165 1166 1167 0
1168 1169 1170 0
1171 1172 1173 0
1174 1175 1176 0
1177 1178 1179 0
1180 1181 1182 0
1183 1184 1185 0
1186 1187 1188 0
1189 1190 1191 0
1192 1193 1194 0
1195 1196 1197 0
1198 1199 1200 0
1201 1202 1203 0
1204 1205 1206 0
1207 1208 1209 0
1210 1211 1212 0
1213 1214 1215 0
1216 1217 1218 0
1219 1220 1221 0
1222 1223 1224 0
1225 1226 1227 0
1228 1229 1230 0
1231 1232 1233 0
1234 1235 1236 0
1237 1238 1239 0
1240 1241 1242 0
1243 1244 1245 0
1246 1247 1248 0
1249 1250 1251 0
1252 1253 1254 0
1255 1256 1257 0
1258 1259 1260 0
1261 1262 1263 0
1264 1265 1266 0
1267 1268 1269 0
1270 1271 1272 0
1273 1274 1275 0
1276 1277 1278 0
1279 1280 1281 0
1282 1283 1284 0
1285 1286 1287 0
1288 1289 1290 0
1291 1292 1293 0
1294 1295 1296 0
1297 1298 1299 0
1300 1301 1302 0
1303 1304 1305 0
1306 1307 1308 0
1309 1310 1311 0
1312 1313 1314 0
1315 1316 1317 0
1318 1319 1320 0
1321 1322 1323 0
1324 1325 1326 0
1327 1328 1329 0
1330 1331 1332 0
1333 1334 1335 0
1336 1337 1338 0
1339 1340 1341 0
1342 1343 1344 0
1345 1346 1347 0
1348 1349 1350 0
1351 1352 1353 0
1354 1355 1356 0
1357 1358 1359 0
1360 1361 1362 0
1363 1364 1365 0
1366 1367 1368 0
1369 1370 1371 0
1372 1373 1374 0
1375 1376 1377 0
1378 1379 1380 0
1381 1382 1383 0
1384 1385 1386 0
1387 1388 1389 0
1390 1391 1392 0
1393 1394 1395 0
1396 1397 1398 0
1399 1400 1401 0
1402 1403 1404 0
1405 1406 1407 0
1408 1409 1410 0
1411 1412 1413 0
1414 1415 1416 0
1417 1418 1419 0
1420 1421 1422 0
1423 1424 1425 0
1426 1427 1428 0
1429 1430 1431 0
1432 1433 1434 0
1435 1436 1437 0
1438 1439 1440 0
1441 1442 1443 0
1444 1445 1446 0
1447 1448 1449 0
1450 1451 1452 0
1453 1454 1455 0
1456 1457 1458 0
1459 1460 1461 0
1462 1463 1464 0
1465 1466 1467 0
1468 1469 1470 0
1471 1472 1473 0
1474 1475 1476 0
1477 1478 1479 0
1480 1481 1482 0
1483 1484 1485 0
1486 1487 1488 0
1489 1490 1491 0
1492 1493 1494 0
1495 1496 1497 0
1498 1499 1500 0
-1 -2 0
-1 -3 0
-2 -3 0
-4 -5 0
-4 -6 0
-5 -6 0
-7 -8 0
-7 -9 0
-8 -9 0
-10 -11 0
-10 -12 0
-11 -12 0
-13 -14 0
-13 -15 0
-14 -15 0
-16 -17 0
-16 -18 0
-17 -18 0
-19 -20 0
-19 -21 0
-20 -21 0
-22 -23 0
-22 -24 0
-23 -24 0
-25 -26 0
-25 -27 0
-26 -27 0
-28 -29 0
-28 -30 0
-29 -30 0
-31 -32 0
-31 -33 0
-32 -33 0
-34 -35 0
-34 -36 0
-35 -36 0
-37 -38 0
-37 -39 0
-38 -39 0
-40 -41 0
-40 -42 0
-41 -42 0
-43 -44 0
-43 -45 0
-44 -45 0
-46 -47 0
-46 -48 0
-47 -48 0
-49 -50 0
-49 -51 0
-50 -51 0
-52 -53 0
-52 -54 0
-53 -54 0
-55 -56 0
-55 -57 0
-56 -57 0
-58 -59 0
-58 -60 0
-59 -60 0
-61 -62 0
-61 -63 0
-62 -63 0
-64 -65 0
-64 -66 0
-65 -66 0
-67 -68 0
-67 -69 0
-68 -69 0
-70 -71 0
-70 -72 0
-71 -72 0
-73 -74 0
-73 -75 0
-74 -75 0
-76 -77 0
-76 -78 0
-77 -78 0
-79 -80 0
-79 -81 0
-80 -81 0
-82 -83 0
-82 -84 0
-83 -84 0
-85 -86 0
-85 -87 0
-86 -87 0
-88 -89 0
-88 -90 0
-89 -90 0
-91 -92 0
-91 -93 0
-92 -93 0
-94 -95 0
-94 -96 0
-95 -96 0
-97 -98 0
-97 -99 0
-98 -99 0
-100 -101 0
-100 -102 0
-101 -102 0
-103 -104 0
-103 -105 0
-104 -105 0
-106 -107 0
-106 -108 0
-107 -108 0
-109 -110 0
-109 -111 0
-110 -111 0
-112 -113 0
-112 -114 0
-113 -114 0
-115 -116 0
-115 -117 0
-116 -117 0
-118 -119 0
-118 -120 0
-119 -120 0
-121 -122 0
-121 -123 0
-122 -123 0
-124 -125 0
-124 -126 0
-125 -126 0
-127 -128 0
-127 -129 0
-128 -129 0
-130 -131 0
-130 -132 0
-131 -132 0
-133 -134 0
-133 -135 0
-134 -135 0
-136 -137 0
-136 -138 0
-137 -138 0
-139 -140 0
-139 -141 0
-140 -141 0
-142 -143 0
-142 -144 0
-143 -144 0
-145 -146 0
-145 -147 0
-146 -147 0
-148 -149 0
-148 -150 0
-149 -150 0
-151 -152 0
-151 -153 0
-152 -153 0
-154 -155 0
-154 -156 0
-155 -156 0
-157 -158 0
-157 -159 0
-158 -159 0
-160 -161 0
-160 -162 0
-161 -162 0
-163 -164 0
-163 -165 0
-164 -165 0
-166 -167 0
-166 -168 0
-167 -168 0
-169 -170 0
-169 -171 0
-170 -171 0
-172 -173 0
-172 -174 0
-173 -174 0
-175 -176 0
-175 -177 0
-176 -177 0
-178 -179 0
-178 -180 0
-179 -180 0
-181 -182 0
-181 -183 0
-182 -183 0
-184 -185 0
-184 -186 0
-185 -186 0
-187 -188 0
-187 -189 0
-188 -189 0
-190 -191 0
-190 -192 0
-191 -192 0
-193 -194 0
-193 -195 0
-194 -195 0
-196 -197 0
-196 -198 0
-197 -198 0
-199 -200 0
-199 -201 0
-200 -201 0
-202 -203 0
-202 -204 0
-203 -204 0
-205 -206 0
-205 -207 0
-206 -207 0
-208 -209 0
-208 -210 0
-209 -210 0
-211 -212 0
-211 -213 0
-212 -213 0
-214 -215 0
-214 -216 0
-215 -216 0
-217 -218 0
-217 -219 0
-218 -219 0
-220 -221 0
-220 -222 0
-221 -222 0
-223 -224 0
-223 -225 0
-224 -225 0
-226 -227 0
-226 -228 0
-227 -228 0
-229 -230 0
-229 -231 0
-230 -231 0
-232 -233 0
-232 -234 0
-233 -234 0
-235 -236 0
-235 -237 0
-236 -237 0
-238 -239 0
-238 -240 0
-239 -240 0
-241 -242 0
-241 -243 0
-242 -243 0
-244 -245 0
-244 -246 0
-245 -246 0
-247 -248 0
-247 -249 0
-248 -249 0
-250 -251 0
-250 -252 0
-251 -252 0
-253 -254 0
-253 -255 0
-254 -255 0
-256 -257 0
-256 -258 0
-257 -258 0
-259 -260 0
-259 -261 0
-260 -261 0
-262 -263 0
-262 -264 0
-263 -264 0
-265 -266 0
-265 -267 0
-266 -267 0
-268 -269 0
-268 -270 0
-269 -270 0
-271 -272 0
-271 -273 0
-272 -273 0
-274 -275 0
-274 -276 0
-275 -276 0
-277 -278 0
-277 -279 0
-278 -279 0
-280 -281 0
-280 -282 0
-281 -282 0
-283 -284 0
-283 -285 0
-284 -285 0
-286 -287 0
-286 -288 0
-287 -288 0
-289 -290 0
-289 -291 0
-290 -291 0
-292 -293 0
-292 -294 0
-293 -294 0
-295 -296 0
-295 -297 0
-296 -297 0
-298 -299 0
-298 -300 0
-299 -300 0
-301 -302 0
-301 -303 0
-302 -303 0
-304 -305 0
-304 -306 0
-305 -306 0
-307 -308 0
-307 -309 0
-308 -309 0
-310 -311 0
-310 -312 0
-311 -312 0
-313 -314 0
-313 -315 0
-314 -315 0
-316 -317 0
-316 -318 0
-317 -318 0
-319 -320 0
-319 -321 0
-320 -321 0
-322 -323 0
-322 -324 0
-323 -324 0
-325 -326 0
-325 -327 0
-326 -327 0
-328 -329 0
-328 -330 0
-329 -330 0
-331 -332 0
-331 -333 0
-332 -333 0
-334 -335 0
-334 -336 0
-335 -336 0
-337 -338 0
-337 -339 0
-338 -339 0
-340 -341 0
-340 -342 0
-341 -342 0
-343 -344 0
-343 -345 0
-344 -345 0
-346 -347 0
-346 -348 0
-347 -348 0
-349 -350 0
-349 -351 0
-350 -351 0
-352 -353 0
-352 -354 0
-353 -354 0
-355 -356 0
-355 -357 0
-356 -357 0
-358 -359 0
-358 -360 0
-359 -360 0
-361 -362 0
-361 -363 0
-362 -363 0
-364 -365 0
-364 -366 0
-365 -366 0
-367 -368 0
-367 -369 0
-368 -369 0
-370 -371 0
-370 -372 0
-371 -372 0
-373 -374 0
-373 -375 0
-374 -375 0
-376 -377 0
-376 -378 0
-377 -378 0
-379 -380 0
-379 -381 0
-380 -381 0
-382 -383 0
-382 -384 0
-383 -384 0
-385 -386 0
-385 -387 0
-386 -387 0
-388 -389 0
-388 -390 0
-389 -390 0
-391 -392 0
-391 -393 0
-392 -393 0
-394 -395 0
-394 -396 0
-395 -396 0
-397 -398 0
-397 -399 0
-398 -399 0
-400 -401 0
-400 -402 0
-401 -402 0
-403 -404 0
-403 -405 0
-404 -405 0
-406 -407 0
-406 -408 0
-407 -408 0
-409 -410 0
-409 -411 0
-410 -411 0
-412 -413 0
-412 -414 0
-413 -414 0
-415 -416 0
-415 -417 0
-416 -417 0
-418 -419 0
-418 -420 0
-419 -420 0
-421 -422 0
-421 -423 0
-422 -423 0
-424 -425 0
-424 -426 0
-425 -426 0
-427 -428 0
-427 -429 0
-428 -429 0
-430 -431 0
-430 -432 0
-431 -432 0
-433 -434 0
-433 -435 0
-434 -435 0
-436 -437 0
-436 -438 0
-437 -438 0
-439 -440 0
-439 -441 0
-440 -441 0
-442 -443 0
-442 -444 0
-443 -444 0
-445 -446 0
-445 -447 0
-446 -447 0
-448 -449 0
-448 -450 0
-449 -450 0
-451 -452 0
-451 -453 0
-452 -453 0
-454 -455 0
-454 -456 0
-455 -456 0
-457 -458 0
-457 -459 0
-458 -459 0
-460 -461 0
-460 -462 0
-461 -462 0
-463 -464 0
-463 -465 0
-464 -465 0
-466 -467 0
-466 -468 0
-467 -468 0
-469 -470 0
-469 -471 0
-470 -471 0
-472 -473 0
-472 -474 0
-473 -474 0
-475 -476 0
-475 -477 0
-476 -477 0
-478 -479 0
-478 -480 0
-479 -480 0
-481 -482 0
-481 -483 0
-482 -483 0
-484 -485 0
-484 -486 0
-485 -486 0
-487 -488 0
-487 -489 0
-488 -489 0
-490 -491 0
-490 -492 0
-491 -492 0
-493 -494 0
-493 -495 0
-494 -495 0
-496 -497 0
-496 -498 0
-497 -498 0
-499 -500 0
-499 -501 0
-500 -501 0
-502 -503 0
-502 -504 0
-503 -504 0
-505 -506 0
-505 -507 0
-506 -507 0
-508 -509 0
-508 -510 0
-509 -510 0
-511 -512 0
-511 -513 0
-512 -513 0
-514 -515 0
-514 -516 0
-515 -516 0
-517 -518 0
-517 -519 0
-518 -519 0
-520 -521 0
-520 -522 0
-521 -522 0
-523 -524 0
-523 -525 0
-524 -525 0
-526 -527 0
-526 -528 0
-527 -528 0
-529 -530 0
-529 -531 0
-530 -531 0
-532 -533 0
-532 -534 0
-533 -534 0
-535 -536 0
-535 -537 0
-536 -537 0
-538 -539 0
-538 -540 0
-539 -540 0
-541 -542 0
-541 -543 0
-542 -543 0
-544 -545 0
-544 -546 0
-545 -546 0
-547 -548 0
-547 -549 0
-548 -549 0
-550 -551 0
-550 -552 0
-551 -552 0
-553 -554 0
-553 -555 0
-554 -555 0
-556 -557 0
-556 -558 0
-557 -558 0
-559 -560 0
-559 -561 0
-560 -561 0
-562 -563 0
-562 -564 0
-563 -564 0
-565 -566 0
-565 -567 0
-566 -567 0
-568 -569 0
-568 -570 0
-569 -570 0
-571 -572 0
-571 -573 0
-572 -573 0
-574 -575 0
-574 -576 0
-575 -576 0
-577 -578 0
-577 -579 0
-578 -579 0
-580 -581 0
-580 -582 0
-581 -582 0
-583 -584 0
-583 -585 0
-584 -585 0
-586 -587 0
-586 -588 0
-587 -588 0
-589 -590 0
-589 -591 0
-590 -591 0
-592 -593 0
-592 -594 0
-593 -594 0
-595 -596 0
-595 -597 0
-596 -597 0
-598 -599 0
-598 -600 0
-599 -600 0
-601 -602 0
-601 -603 0
-602 -603 0
-604 -605 0
-604 -606 0
-605 -606 0
-607 -608 0
-607 -609 0
-608 -609 0
-610 -611 0
-610 -612 0
-611 -612 0
-613 -614 0
-613 -615 0
-614 -615 0
-616 -617 0
-616 -618 0
-617 -618 0
-619 -620 0
-619 -621 0
-620 -621 0
-622 -623 0
-622 -624 0
-623 -624 0
-625 -626 0
-625 -627 0
-626 -627 0
-628 -629 0
-628 -630 0
-629 -630 0
-631 -632 0
-631 -633 0
-632 -633 0
-634 -635 0
-634 -636 0
-635 -636 0
-637 -638 0
-637 -639 0
-638 -639 0
-640 -641 0
-640 -642 0
-641 -642 0
-643 -644 0
-643 -645 0
-644 -645 0
-646 -647 0
-646 -648 0
-647 -648 0
-649 -650 0
-649 -651 0
-650 -651 0
-652 -653 0
-652 -654 0
-653 -654 0
-655 -656 0
-655 -657 0
-656 -657 0
-658 -659 0
-658 -660 0
-659 -660 0
-661 -662 0
-661 -663 0
-662 -663 0
-664 -665 0
-664 -666 0
-665 -666 0
-667 -668 0
-667 -669 0
-668 -669 0
-670 -671 0
-670 -672 0
-671 -672 0
-673 -674 0
-673 -675 0
-674 -675 0
-676 -677 0
-676 -678 0
-677 -678 0
-679 -680 0
-679 -681 0
-680 -681 0
-682 -683 0
-682 -684 0
-683 -684 0
-685 -686 0
-685 -687 0
-686 -687 0
-688 -689 0
-688 -690 0
-689 -690 0
-691 -692 0
-691 -693 0
-692 -693 0
-694 -695 0
-694 -696 0
-695 -696 0
-697 -698 0
-697 -699 0
-698 -699 0
-700 -701 0
-700 -702 0
-701 -702 0
-703 -704 0
-703 -705 0
-704 -705 0
-706 -707 0
-706 -708 0
-707 -708 0
-709 -710 0
-709 -711 0
-710 -711 0
-712 -713 0
-712 -714 0
-713 -714 0
-715 -716 0
-715 -717 0
-716 -717 0
-718 -719 0
-718 -720 0
-719 -720 0
-721 -722 0
-721 -723 0
-722 -723 0
-724 -725 0
-724 -726 0
-725 -726 0
-727 -728 0
-727 -729 0
-728 -729 0
-730 -731 0
-730 -732 0
-731 -732 0
-733 -734 0
-733 -735 0
-734 -735 0
-736 -737 0
-736 -738 0
-737 -738 0
-739 -740 0
-739 -741 0
-740 -741 0
-742 -743 0
-742 -744 0
-743 -744 0
-745 -746 0
-745 -747 0
-746 -747 0
-748 -749 0
-748 -750 0
-749 -750 0
-751 -752 0
-751 -753 0
-752 -753 0
-754 -755 0
-754 -756 0
-755 -756 0
-757 -758 0
-757 -759 0
-758 -759 0
-760 -761 0
-760 -762 0
-761 -762 0
-763 -764 0
-763 -765 0
-764 -765 0
-766 -767 0
-766 -768 0
-767 -768 0
-769 -770 0
-769 -771 0
-770 -771 0
-772 -773 0
-772 -774 0
-773 -774 0
-775 -776 0
-775 -777 0
-776 -777 0
-778 -779 0
-778 -780 0
-779 -780 0
-781 -782 0
-781 -783 0
-782 -783 0
-784 -785 0
-784 -786 0
-785 -786 0
-787 -788 0
-787 -789 0
-788 -789 0
-790 -791 0
-790 -792 0
-791 -792 0
-793 -794 0
-793 -795 0
-794 -795 0
-796 -797 0
-796 -798 0
-797 -798 0
-799 -800 0
-799 -801 0
-800 -801 0
-802 -803 0
-802 -804 0
-803 -804 0
-805 -806 0
-805 -807 0
-806 -807 0
-808 -809 0
-808 -810 0
-809 -810 0
-811 -812 0
-811 -813 0
-812 -813 0
-814 -815 0
-814 -816 0
-815 -816 0
-817 -818 0
-817 -819 0
-818 -819 0
-820 -821 0
-820 -822 0
-821 -822 0
-823 -824 0
-823 -825 0
-824 -825 0
-826 -827 0
-826 -828 0
-827 -828 0
-829 -830 0
-829 -831 0
-830 -831 0
-832 -833 0
-832 -834 0
-833 -834 0
-835 -836 0
-835 -837 0
-836 -837 0
-838 -839 0
-838 -840 0
-839 -840 0
-841 -842 0
-841 -843 0
-842 -843 0
-844 -845 0
-844 -846 0
-845 -846 0
-847 -848 0
-847 -849 0
-848 -849 0
-850 -851 0
-850 -852 0
-851 -852 0
-853 -854 0
-853 -855 0
-854 -855 0
-856 -857 0
-856 -858 0
-857 -858 0
-859 -860 0
-859 -861 0
-860 -861 0
-862 -863 0
-862 -864 0
-863 -864 0
-865 -866 0
-865 -867 0
-866 -867 0
-868 -869 0
-868 -870 0
-869 -870 0
-871 -872 0
-871 -873 0
-872 -873 0
-874 -875 0
-874 -876 0
-875 -876 0
-877 -878 0
-877 -879 0
-878 -879 0
-880 -881 0
-880 -882 0
-881 -882 0
-883 -884 0
-883 -885 0
-884 -885 0
-886 -887 0
-886 -888 0
-887 -888 0
-889 -890 0
-889 -891 0
-890 -891 0
-892 -893 0
-892 -894 0
-893 -894 0
-895 -896 0
-895 -897 0
-896 -897 0
-898 -899 0
-898 -900 0
-899 -900 0
-901 -902 0
-901 -903 0
-902 -903 0
-904 -905 0
-904 -906 0
-905 -906 0
-907 -908 0
-907 -909 0
-908 -909 0
-910 -911 0
-910 -912 0
-911 -912 0
-913 -914 0
-913 -915 0
-914 -915 0
-916 -917 0
-916 -918 0
-917 -918 0
-919 -920 0
-919 -921 0
-920 -921 0
-922 -923 0
-922 -924 0
-923 -924 0
-925 -926 0
-925 -927 0
-926 -927 0
-928 -929 0
-928 -930 0
-929 -930 0
-931 -932 0
-931 -933 0
-932 -933 0
-934 -935 0
-934 -936 0
-935 -936 0
-937 -938 0
-937 -939 0
-938 -939 0
-940 -941 0
-940 -942 0
-941 -942 0
-943 -944 0
-943 -945 0
-944 -945 0
-946 -947 0
-946 -948 0
-947 -948 0
-949 -950 0
-949 -951 0
-950 -951 0
-952 -953 0
-952 -954 0
-953 -954 0
-955 -956 0
-955 -957 0
-956 -957 0
-958 -959 0
-958 -960 0
-959 -960 0
-961 -962 0
-961 -963 0
-962 -963 0
-964 -965 0
-964 -966 0
-965 -966 0
-967 -968 0
-967 -969 0
-968 -969 0
-970 -971 0
-970 -972 0
-971 -972 0
-973 -974 0
-973 -975 0
-974 -975 0
-976 -977 0
-976 -978 0
-977 -978 0
-979 -980 0
-979 -981 0
-980 -981 0
-982 -983 0
-982 -984 0
-983 -984 0
-985 -986 0
-985 -987 0
-986 -987 0
-988 -989 0
-988 -990 0
-989 -990 0
-991 -992 0
-991 -993 0
-992 -993 0
-994 -995 0
-994 -996 0
-995 -996 0
-997 -998 0
-997 -999 0
-998 -999 0
-1000 -1001 0
-1000 -1002 0
-1001 -1002 0
-1003 -1004 0
-1003 -1005 0
-1004 -1005 0
-1006 -1007 0
-1006 -1008 0
-1007 -1008 0
-1009 -1010 0
-1009 -1011 0
-1010 -1011 0
-1012 -1013 0
-1012 -1014 0
-1013 -1014 0
-1015 -1016 0
-1015 -1017 0
-1016 -1017 0
-1018 -1019 0
-1018 -1020 0
-1019 -1020 0
-1021 -1022 0
-1021 -1023 0
-1022 -1023 0
-1024 -1025 0
-1024 -1026 0
-1025 -1026 0
-1027 -1028 0
-1027 -1029 0
-1028 -1029 0
-1030 -1031 0
-1030 -1032 0
-1031 -1032 0
-1033 -1034 0
-1033 -1035 0
-1034 -1035 0
-1036 -1037 0
-1036 -1038 0
-1037 -1038 0
-1039 -1040 0
-1039 -1041 0
-1040 -1041 0
-1042 -1043 0
-1042 -1044 0
-1043 -1044 0
-1045 -1046 0
-1045 -1047 0
-1046 -1047 0
-1048 -1049 0
-1048 -1050 0
-1049 -1050 0
-1051 -1052 0
-1051 -1053 0
-1052 -1053 0
-1054 -1055 0
-1054 -1056 0
-1055 -1056 0
-1057 -1058 0
-1057 -1059 0
-1058 -1059 0
-1060 -1061 0
-1060 -1062 0
-1061 -1062 0
-1063 -1064 0
-1063 -1065 0
-1064 -1065 0
-1066 -1067 0
-1066 -1068 0
-1067 -1068 0
-1069 -1070 0
-1069 -1071 0
-1070 -1071 0
-1072 -1073 0
-1072 -1074 0
-1073 -1074 0
-1075 -1076 0
-1075 -1077 0
-1076 -1077 0
-1078 -1079 0
-1078 -1080 0
-1079 -1080 0
-1081 -1082 0
-1081 -1083 0
-1082 -1083 0
-1084 -1085 0
-1084 -1086 0
-1085 -1086 0
-1087 -1088 0
-1087 -1089 0
-1088 -1089 0
-1090 -1091 0
-1090 -1092 0
-1091 -1092 0
-1093 -1094 0
-1093 -1095 0
-1094 -1095 0
-1096 -1097 0
-1096 -1098 0
-1097 -1098 0
-1099 -1100 0
-1099 -1101 0
-1100 -1101 0
-1102 -1103 0
-1102 -1104 0
-1103 -1104 0
-1105 -1106 0
-1105 -1107 0
-1106 -1107 0
-1108 -1109 0
-1108 -1110 0
-1109 -1110 0
-1111 -1112 0
-1111 -1113 0
-1112 -1113 0
-1114 -1115 0
-1114 -1116 0
-1115 -1116 0
-1117 -1118 0
-1117 -1119 0
-1118 -1119 0
-1120 -1121 0
-1120 -1122 0
-1121 -1122 0
-1123 -1124 0
-1123 -1125 0
-1124 -1125 0
-1126 -1127 0
-1126 -1128 0
-1127 -1128 0
-1129 -1130 0
-1129 -1131 0
-1130 -1131 0
-1132 -1133 0
-1132 -1134 0
-1133 -1134 0
-1135 -1136 0
-1135 -1137 0
-1136 -1137 0
-1138 -1139 0
-1138 -1140 0
-1139 -1140 0
-1141 -1142 0
-1141 -1143 0
-1142 -1143 0
-1144 -1145 0
-1144 -1146 0
-1145 -1146 0
-1147 -1148 0
-1147 -1149 0
-1148 -1149 0
-1150 -1151 0
-1150 -1152 0
-1151 -1152 0
-1153 -1154 0
-1153 -1155 0
-1154 -1155 0
-1156 -1157 0
-1156 -1158 0
-1157 -1158 0
-1159 -1160 0
-1159 -1161 0
-1160 -1161 0
-1162 -1163 0
-1162 -1164 0
-1163 -1164 0
-1165 -1166 0
-1165 -1167 0
-1166 -1167 0
-1168 -1169 0
-1168 -1170 0
-1169 -1170 0
-1171 -1172 0
-1171 -1173 0
-1172 -1173 0
-1174 -1175 0
-1174 -1176 0
-1175 -1176 0
-1177 -1178 0
-1177 -1179 0
-1178 -1179 0
-1180 -1181 0
-1180 -1182 0
-1181 -1182 0
-1183 -1184 0
-1183 -1185 0
-1184 -1185 0
-1186 -1187 0
-1186 -1188 0
-1187 -1188 0
-1189 -1190 0
-1189 -1191 0
-1190 -1191 0
-1192 -1193 0
-1192 -1194 0
-1193 -1194 0
-1195 -1196 0
-1195 -1197 0
-1196 -1197 0
-1198 -1199 0
-1198 -1200 0
-1199 -1200 0
-1201 -1202 0
-1201 -1203 0
-1202 -1203 0
-1204 -1205 0
-1204 -1206 0
-1205 -1206 0
-1207 -1208 0
-1207 -1209 0
-1208 -1209 0
-1210 -1211 0
-1210 -1212 0
-1211 -1212 0
-1213 -1214 0
-1213 -1215 0
-1214 -1215 0
-1216 -1217 0
-1216 -1218 0
-1217 -1218 0
-1219 -1220 0
-1219 -1221 0
-1220 -1221 0
-1222 -1223 0
-1222 -1224 0
-1223 -1224 0
-1225 -1226 0
-1225 -1227 0
-1226 -1227 0
-1228 -1229 0
-1228 -1230 0
-1229 -1230 0
-1231 -1232 0
-1231 -1233 0
-1232 -1233 0
-1234 -1235 0
-1234 -1236 0
-1235 -1236 0
-1237 -1238 0
-1237 -1239 0
-1238 -1239 0
-1240 -1241 0
-1240 -1242 0
-1241 -1242 0
-1243 -1244 0
-1243 -1245 0
-1244 -1245 0
-1246 -1247 0
-1246 -1248 0
-1247 -1248 0
-1249 -1250 0
-1249 -1251 0
-1250 -1251 0
-1252 -1253 0
-1252 -1254 0
-1253 -1254 0
-1255 -1256 0
-1255 -1257 0
-1256 -1257 0
-1258 -1259 0
-1258 -1260 0
-1259 -1260 0
-1261 -1262 0
-1261 -1263 0
-1262 -1263 0
-1264 -1265 0
-1264 -1266 0
-1265 -1266 0
-1267 -1268 0
-1267 -1269 0
-1268 -1269 0
-1270 -1271 0
-1270 -1272 0
-1271 -1272 0
-1273 -1274 0
-1273 -1275 0
-1274 -1275 0
-1276 -1277 0
-1276 -1278 0
-1277 -1278 0
-1279 -1280 0
-1279 -1281 0
-1280 -1281 0
-1282 -1283 0
-1282 -1284 0
-1283 -1284 0
-1285 -1286 0
-1285 -1287 0
-1286 -1287 0
-1288 -1289 0
-1288 -1290 0
-1289 -1290 0
-1291 -1292 0
-1291 -1293 0
-1292 -1293 0
-1294 -1295 0
-1294 -1296 0
-1295 -1296 0
-1297 -1298 0
-1297 -1299 0
-1298 -1299 0
-1300 -1301 0
-1300 -1302 0
-1301 -1302 0
-1303 -1304 0
-1303 -1305 0
-1304 -1305 0
-1306 -1307 0
-1306 -1308 0
-1307 -1308 0
-1309 -1310 0
-1309 -1311 0
-1310 -1311 0
-1312 -1313 0
-1312 -1314 0
-1313 -1314 0
-1315 -1316 0
-1315 -1317 0
-1316 -1317 0
-1318 -1319 0
-1318 -1320 0
-1319 -1320 0
-1321 -1322 0
-1321 -1323 0
-1322 -1323 0
-1324 -1325 0
-1324 -1326 0
-1325 -1326 0
-1327 -1328 0
-1327 -1329 0
-1328 -1329 0
-1330 -1331 0
-1330 -1332 0
-1331 -1332 0
-1333 -1334 0
-1333 -1335 0
-1334 -1335 0
-1336 -1337 0
-1336 -1338 0
-1337 -1338 0
-1339 -1340 0
-1339 -1341 0
-1340 -1341 0
-1342 -1343 0
-1342 -1344 0
-1343 -1344 0
-1345 -1346 0
-1345 -1347 0
-1346 -1347 0
-1348 -1349 0
-1348 -1350 0
-1349 -1350 0
-1351 -1352 0
-1351 -1353 0
-1352 -1353 0
-1354 -1355 0
-1354 -1356 0
-1355 -1356 0
-1357 -1358 0
-1357 -1359 0
-1358 -1359 0
-1360 -1361 0
-1360 -1362 0
-1361 -1362 0
-1363 -1364 0
-1363 -1365 0
-1364 -1365 0
-1366 -1367 0
-1366 -1368 0
-1367 -1368 0
-1369 -1370 0
-1369 -1371 0
-1370 -1371 0
-1372 -1373 0
-1372 -1374 0
-1373 -1374 0
-1375 -1376 0
-1375 -1377 0
-1376 -1377 0
-1378 -1379 0
-1378 -1380 0
-1379 -1380 0
-1381 -1382 0
-1381 -1383 0
-1382 -1383 0
-1384 -1385 0
-1384 -1386 0
-1385 -1386 0
-1387 -1388 0
-1387 -1389 0
-1388 -1389 0
-1390 -1391 0
-1390 -1392 0
-1391 -1392 0
-1393 -1394 0
-1393 -1395 0
-1394 -1395 0
-1396 -1397 0
-1396 -1398 0
-1397 -1398 0
-1399 -1400 0
-1399 -1401 0
-1400 -1401 0
-1402 -1403 0
-1402 -1404 0
-1403 -1404 0
-1405 -1406 0
-1405 -1407 0
-1406 -1407 0
-1408 -1409 0
-1408 -1410 0
-1409 -1410 0
-1411 -1412 0
-1411 -1413 0
-1412 -1413 0
-1414 -1415 0
-1414 -1416 0
-1415 -1416 0
-1417 -1418 0
-1417 -1419 0
-1418 -1419 0
-1420 -1421 0
-1420 -1422 0
-1421 -1422 0
-1423 -1424 0
-1423 -1425 0
-1424 -1425 0
-1426 -1427 0
-1426 -1428 0
-1427 -1428 0
-1429 -1430 0
-1429 -1431 0
-1430 -1431 0
-1432 -1433 0
-1432 -1434 0
-1433 -1434 0
-1435 -1436 0
-1435 -1437 0
-1436 -1437 0
-1438 -1439 0
-1438 -1440 0
-1439 -1440 0
-1441 -1442 0
-1441 -1443 0
-1442 -1443 0
-1444 -1445 0
-1444 -1446 0
-1445 -1446 0
-1447 -1448 0
-1447 -1449 0
-1448 -1449 0
-1450 -1451 0
-1450 -1452 0
-1451 -1452 0
-1453 -1454 0
-1453 -1455 0
-1454 -1455 0
-1456 -1457 0
-1456 -1458 0
-1457 -1458 0
-1459 -1460 0
-1459 -1461 0
-1460 -1461 0
-1462 -1463 0
-1462 -1464 0
-1463 -1464 0
-1465 -1466 0
-1465 -1467 0
-1466 -1467 0
-1468 -1469 0
-1468 -1470 0
-1469 -1470 0
-1471 -1472 0
-1471 -1473 0
-1472 -1473 0
-1474 -1475 0
-1474 -1476 0
-1475 -1476 0
-1477 -1478 0
-1477 -1479 0
-1478 -1479 0
-1480 -1481 0
-1480 -1482 0
-1481 -1482 0
-1483 -1484 0
-1483 -1485 0
-1484 -1485 0
-1486 -1487 0
-1486 -1488 0
-1487 -1488 0
-1489 -1490 0
-1489 -1491 0
-1490 -1491 0
-1492 -1493 0
-1492 -1494 0
-1493 -1494 0
-1495 -1496 0
-1495 -1497 0
-1496 -1497 0
-1498 -1499 0
-1498 -1500 0
-1499 -1500 0
-1 -418 0
-2 -419 0
-3 -420 0
-1 -496 0
-2 -497 0
-3 -498 0
-1 -1057 0
-2 -1058 0
-3 -1059 0
-1 -1282 0
-2 -1283 0
-3 -1284 0
-1 -1432 0
-2 -1433 0
-3 -1434 0
-1 -1471 0
-2 -1472 0
-3 -1473 0
-4 -73 0
-5 -74 0
-6 -75 0
-4 -130 0
-5 -131 0
-6 -132 0
-4 -211 0
-5 -212 0
-6 -213 0
-4 -334 0
-5 -335 0
-6 -336 0
-4 -517 0
-5 -518 0
-6 -519 0
-4 -1306 0
-5 -1307 0
-6 -1308 0
-7 -76 0
-8 -77 0
-9 -78 0
-7 -601 0
-8 -602 0
-9 -603 0
-7 -757 0
-8 -758 0
-9 -759 0
-7 -802 0
-8 -803 0
-9 -804 0
-7 -1060 0
-8 -1061 0
-9 -1062 0
-7 -1099 0
-8 -1100 0
-9 -1101 0
-10 -28 0
-11 -29 0
-12 -30 0
-10 -199 0
-11 -200 0
-12 -201 0
-10 -361 0
-11 -362 0
-12 -363 0
-10 -514 0
-11 -515 0
-12 -516 0
-10 -544 0
-11 -545 0
-12 -546 0
-10 -559 0
-11 -560 0
-12 -561 0
-10 -1294 0
-11 -1295 0
-12 -1296 0
-13 -157 0
-14 -158 0
-15 -159 0
-13 -199 0
-14 -200 0
-15 -201 0
-13 -301 0
-14 -302 0
-15 -303 0
-13 -1051 0
-14 -1052 0
-15 -1053 0
-13 -1081 0
-14 -1082 0
-15 -1083 0
-13 -1402 0
-14 -1403 0
-15 -1404 0
-16 -715 0
-17 -716 0
-18 -717 0
-16 -835 0
-17 -836 0
-18 -837 0
-16 -994 0
-17 -995 0
-18 -996 0
-16 -997 0
-17 -998 0
-18 -999 0
-16 -1153 0
-17 -1154 0
-18 -1155 0
-19 -397 0
-20 -398 0
-21 -399 0
-19 -598 0
-20 -599 0
-21 -600 0
-19 -721 0
-20 -722 0
-21 -723 0
-22 -31 0
-23 -32 0
-24 -33 0
-22 -277 0
-23 -278 0
-24 -279 0
-22 -937 0
-23 -938 0
-24 -939 0
-22 -1372 0
-23 -1373 0
-24 -1374 0
-22 -1444 0
-23 -1445 0
-24 -1446 0
-25 -304 0
-26 -305 0
-27 -306 0
-25 -382 0
-26 -383 0
-27 -384 0
-25 -1207 0
-26 -1208 0
-27 -1209 0
-25 -1216 0
-26 -1217 0
-27 -1218 0
-25 -1249 0
-26 -1250 0
-27 -1251 0
-25 -1402 0
-26 -1403 0
-27 -1404 0
-28 -70 0
-29 -71 0
-30 -72 0
-28 -76 0
-29 -77 0
-30 -78 0
-28 -592 0
-29 -593 0
-30 -594 0
-28 -979 0
-29 -980 0
-30 -981 0
-28 -1333 0
-29 -1334 0
-30 -1335 0
-28 -1459 0
-29 -1460 0
-30 -1461 0
-31 -685 0
-32 -686 0
-33 -687 0
-31 -811 0
-32 -812 0
-33 -813 0
-31 -1291 0
-32 -1292 0
-33 -1293 0
-31 -1312 0
-32 -1313 0
-33 -1314 0
-34 -193 0
-35 -194 0
-36 -195 0
-34 -280 0
-35 -281 0
-36 -282 0
-34 -322 0
-35 -323 0
-36 -324 0
-34 -595 0
-35 -596 0
-36 -597 0
-37 -70 0
-38 -71 0
-39 -72 0
-37 -991 0
-38 -992 0
-39 -993 0
-37 -1024 0
-38 -1025 0
-39 -1026 0
-37 -1291 0
-38 -1292 0
-39 -1293 0
-37 -1336 0
-38 -1337 0
-39 -1338 0
-40 -46 0
-41 -47 0
-42 -48 0
-40 -142 0
-41 -143 0
-42 -144 0
-40 -553 0
-41 -554 0
-42 -555 0
-40 -1075 0
-41 -1076 0
-42 -1077 0
-43 -328 0
-44 -329 0
-45 -330 0
-43 -436 0
-44 -437 0
-45 -438 0
-43 -556 0
-44 -557 0
-45 -558 0
-43 -1114 0
-44 -1115 0
-45 -1116 0
-46 -325 0
-47 -326 0
-48 -327 0
-46 -472 0
-47 -473 0
-48 -474 0
-46 -583 0
-47 -584 0
-48 -585 0
-46 -823 0
-47 -824 0
-48 -825 0
-46 -1318 0
-47 -1319 0
-48 -1320 0
-46 -1390 0
-47 -1391 0
-48 -1392 0
-46 -1429 0
-47 -1430 0
-48 -1431 0
-46 -1456 0
-47 -1457 0
-48 -1458 0
-49 -553 0
-50 -554 0
-51 -555 0
-49 -748 0
-50 -749 0
-51 -750 0
-49 -1186 0
-50 -1187 0
-51 -1188 0
-52 -73 0
-53 -74 0
-54 -75 0
-52 -124 0
-53 -125 0
-54 -126 0
-52 -130 0
-53 -131 0
-54 -132 0
-52 -358 0
-53 -359 0
-54 -360 0
-52 -697 0
-53 -698 0
-54 -699 0
-52 -802 0
-53 -803 0
-54 -804 0
-52 -892 0
-53 -893 0
-54 -894 0
-55 -127 0
-56 -128 0
-57 -129 0
-55 -454 0
-56 -455 0
-57 -456 0
-55 -613 0
-56 -614 0
-57 -615 0
-55 -1138 0
-56 -1139 0
-57 -1140 0
-58 -238 0
-59 -239 0
-60 -240 0
-58 -430 0
-59 -431 0
-60 -432 0
-58 -472 0
-59 -473 0
-60 -474 0
-58 -871 0
-59 -872 0
-60 -873 0
-58 -1108 0
-59 -1109 0
-60 -1110 0
-58 -1291 0
-59 -1292 0
-60 -1293 0
-61 -649 0
-62 -650 0
-63 -651 0
-61 -1384 0
-62 -1385 0
-63 -1386 0
-64 -796 0
-65 -797 0
-66 -798 0
-64 -928 0
-65 -929 0
-66 -930 0
-64 -1147 0
-65 -1148 0
-66 -1149 0
-67 -82 0
-68 -83 0
-69 -84 0
-67 -151 0
-68 -152 0
-69 -153 0
-67 -388 0
-68 -389 0
-69 -390 0
-67 -637 0
-68 -638 0
-69 -639 0
-67 -715 0
-68 -716 0
-69 -717 0
-67 -892 0
-68 -893 0
-69 -894 0
-67 -1021 0
-68 -1022 0
-69 -1023 0
-67 -1183 0
-68 -1184 0
-69 -1185 0
-67 -1258 0
-68 -1259 0
-69 -1260 0
-70 -175 0
-71 -176 0
-72 -177 0
-70 -817 0
-71 -818 0
-72 -819 0
-70 -967 0
-71 -968 0
-72 -969 0
-73 -115 0
-74 -116 0
-75 -117 0
-73 -133 0
-74 -134 0
-75 -135 0
-73 -367 0
-74 -368 0
-75 -369 0
-73 -751 0
-74 -752 0
-75 -753 0
-73 -958 0
-74 -959 0
-75 -960 0
-73 -973 0
-74 -974 0
-75 -975 0
-73 -1375 0
-74 -1376 0
-75 -1377 0
-76 -118 0
-77 -119 0
-78 -120 0
-76 -1420 0
-77 -1421 0
-78 -1422 0
-79 -574 0
-80 -575 0
-81 -576 0
-79 -589 0
-80 -590 0
-81 -591 0
-79 -784 0
-80 -785 0
-81 -786 0
-79 -889 0
-80 -890 0
-81 -891 0
-79 -967 0
-80 -968 0
-81 -969 0
-79 -1078 0
-80 -1079 0
-81 -1080 0
-79 -1279 0
-80 -1280 0
-81 -1281 0
-79 -1324 0
-80 -1325 0
-81 -1326 0
-82 -106 0
-83 -107 0
-84 -108 0
-82 -370 0
-83 -371 0
-84 -372 0
-82 -916 0
-83 -917 0
-84 -918 0
-82 -922 0
-83 -923 0
-84 -924 0
-82 -1051 0
-83 -1052 0
-84 -1053 0
-82 -1258 0
-83 -1259 0
-84 -1260 0
-82 -1273 0
-83 -1274 0
-84 -1275 0
-82 -1399 0
-83 -1400 0
-84 -1401 0
-85 -187 0
-86 -188 0
-87 -189 0
-85 -373 0
-86 -374 0
-87 -375 0
-85 -1399 0
-86 -1400 0
-87 -1401 0
-85 -1432 0
-86 -1433 0
-87 -1434 0
-88 -658 0
-89 -659 0
-90 -660 0
-91 -451 0
-92 -452 0
-93 -453 0
-91 -622 0
-92 -623 0
-93 -624 0
-91 -697 0
-92 -698 0
-93 -699 0
-91 -1102 0
-92 -1103 0
-93 -1104 0
-91 -1384 0
-92 -1385 0
-93 -1386 0
-94 -148 0
-95 -149 0
-96 -150 0
-94 -301 0
-95 -302 0
-96 -303 0
-94 -343 0
-95 -344 0
-96 -345 0
-94 -409 0
-95 -410 0
-96 -411 0
-94 -625 0
-95 -626 0
-96 -627 0
-94 -706 0
-95 -707 0
-96 -708 0
-94 -871 0
-95 -872 0
-96 -873 0
-97 -796 0
-98 -797 0
-99 -798 0
-97 -967 0
-98 -968 0
-99 -969 0
-97 -1069 0
-98 -1070 0
-99 -1071 0
-97 -1207 0
-98 -1208 0
-99 -1209 0
-97 -1270 0
-98 -1271 0
-99 -1272 0
-100 -304 0
-101 -305 0
-102 -306 0
-100 -583 0
-101 -584 0
-102 -585 0
-100 -1093 0
-101 -1094 0
-102 -1095 0
-103 -289 0
-104 -290 0
-105 -291 0
-103 -373 0
-104 -374 0
-105 -375 0
-103 -415 0
-104 -416 0
-105 -417 0
-103 -1237 0
-104 -1238 0
-105 -1239 0
-106 -286 0
-107 -287 0
-108 -288 0
-106 -307 0
-107 -308 0
-108 -309 0
-106 -871 0
-107 -872 0
-108 -873 0
-106 -1339 0
-107 -1340 0
-108 -1341 0
-109 -409 0
-110 -410 0
-111 -411 0
-109 -586 0
-110 -587 0
-111 -588 0
-109 -1012 0
-110 -1013 0
-111 -1014 0
-109 -1333 0
-110 -1334 0
-111 -1335 0
-109 -1498 0
-110 -1499 0
-111 -1500 0
-112 -220 0
-113 -221 0
-114 -222 0
-112 -247 0
-113 -248 0
-114 -249 0
-112 -775 0
-113 -776 0
-114 -777 0
-112 -790 0
-113 -791 0
-114 -792 0
-112 -1324 0
-113 -1325 0
-114 -1326 0
-112 -1327 0
-113 -1328 0
-114 -1329 0
-112 -1363 0
-113 -1364 0
-114 -1365 0
-115 -910 0
-116 -911 0
-117 -912 0
-115 -1024 0
-116 -1025 0
-117 -1026 0
-115 -1033 0
-116 -1034 0
-117 -1035 0
-115 -1363 0
-116 -1364 0
-117 -1365 0
-118 -226 0
-119 -227 0
-120 -228 0
-118 -457 0
-119 -458 0
-120 -459 0
-118 -640 0
-119 -641 0
-120 -642 0
-118 -790 0
-119 -791 0
-120 -792 0
-118 -1231 0
-119 -1232 0
-120 -1233 0
-121 -370 0
-122 -371 0
-123 -372 0
-124 -385 0
-125 -386 0
-126 -387 0
-124 -415 0
-125 -416 0
-126 -417 0
-124 -1258 0
-125 -1259 0
-126 -1260 0
-124 -1462 0
-125 -1463 0
-126 -1464 0
-127 -178 0
-128 -179 0
-129 -180 0
-127 -484 0
-128 -485 0
-129 -486 0
-127 -712 0
-128 -713 0
-129 -714 0
-127 -1096 0
-128 -1097 0
-129 -1098 0
-127 -1342 0
-128 -1343 0
-129 -1344 0
-127 -1474 0
-128 -1475 0
-129 -1476 0
-130 -790 0
-131 -791 0
-132 -792 0
-130 -1000 0
-131 -1001 0
-132 -1002 0
-130 -1321 0
-131 -1322 0
-132 -1323 0
-130 -1384 0
-131 -1385 0
-132 -1386 0
-130 -1429 0
-131 -1430 0
-132 -1431 0
-133 -283 0
-134 -284 0
-135 -285 0
-133 -946 0
-134 -947 0
-135 -948 0
-133 -967 0
-134 -968 0
-135 -969 0
-133 -1072 0
-134 -1073 0
-135 -1074 0
-133 -1090 0
-134 -1091 0
-135 -1092 0
-133 -1465 0
-134 -1466 0
-135 -1467 0
-136 -520 0
-137 -521 0
-138 -522 0
-136 -565 0
-137 -566 0
-138 -567 0
-136 -853 0
-137 -854 0
-138 -855 0
-136 -1066 0
-137 -1067 0
-138 -1068 0
-136 -1114 0
-137 -1115 0
-138 -1116 0
-139 -460 0
-140 -461 0
-141 -462 0
-139 -550 0
-140 -551 0
-141 -552 0
-139 -697 0
-140 -698 0
-141 -699 0
-139 -700 0
-140 -701 0
-141 -702 0
-142 -190 0
-143 -191 0
-144 -192 0
-142 -211 0
-143 -212 0
-144 -213 0
-142 -808 0
-143 -809 0
-144 -810 0
-142 -1351 0
-143 -1352 0
-144 -1353 0
-145 -340 0
-146 -341 0
-147 -342 0
-145 -709 0
-146 -710 0
-147 -711 0
-145 -718 0
-146 -719 0
-147 -720 0
-145 -970 0
-146 -971 0
-147 -972 0
-148 -277 0
-149 -278 0
-150 -279 0
-148 -1315 0
-149 -1316 0
-150 -1317 0
-148 -1330 0
-149 -1331 0
-150 -1332 0
-148 -1426 0
-149 -1427 0
-150 -1428 0
-148 -1429 0
-149 -1430 0
-150 -1431 0
-151 -184 0
-152 -185 0
-153 -186 0
-151 -232 0
-152 -233 0
-153 -234 0
-151 -484 0
-152 -485 0
-153 -486 0
-151 -583 0
-152 -584 0
-153 -585 0
-151 -667 0
-152 -668 0
-153 -669 0
-151 -799 0
-152 -800 0
-153 -801 0
-151 -913 0
-152 -914 0
-153 -915 0
-151 -1099 0
-152 -1100 0
-153 -1101 0
-151 -1300 0
-152 -1301 0
-153 -1302 0
-154 -397 0
-155 -398 0
-156 -399 0
-154 -538 0
-155 -539 0
-156 -540 0
-154 -730 0
-155 -731 0
-156 -732 0
-154 -748 0
-155 -749 0
-156 -750 0
-157 -262 0
-158 -263 0
-159 -264 0
-157 -355 0
-158 -356 0
-159 -357 0
-157 -400 0
-158 -401 0
-159 -402 0
-157 -466 0
-158 -467 0
-159 -468 0
-157 -493 0
-158 -494 0
-159 -495 0
-157 -601 0
-158 -602 0
-159 -603 0
-157 -871 0
-158 -872 0
-159 -873 0
-157 -1102 0
-158 -1103 0
-159 -1104 0
-157 -1132 0
-158 -1133 0
-159 -1134 0
-157 -1378 0
-158 -1379 0
-159 -1380 0
-160 -616 0
-161 -617 0
-162 -618 0
-160 -1039 0
-161 -1040 0
-162 -1041 0
-160 -1135 0
-161 -1136 0
-162 -1137 0
-163 -547 0
-164 -548 0
-165 -549 0
-163 -706 0
-164 -707 0
-165 -708 0
-163 -1204 0
-164 -1205 0
-165 -1206 0
-163 -1378 0
-164 -1379 0
-165 -1380 0
-166 -607 0
-167 -608 0
-168 -609 0
-166 -706 0
-167 -707 0
-168 -708 0
-166 -1078 0
-167 -1079 0
-168 -1080 0
-166 -1390 0
-167 -1391 0
-168 -1392 0
-166 -1471 0
-167 -1472 0
-168 -1473 0
-169 -718 0
-170 -719 0
-171 -720 0
-169 -1498 0
-170 -1499 0
-171 -1500 0
-172 -292 0
-173 -293 0
-174 -294 0
-172 -592 0
-173 -593 0
-174 -594 0
-172 -700 0
-173 -701 0
-174 -702 0
-175 -178 0
-176 -179 0
-177 -180 0
-175 -562 0
-176 -563 0
-177 -564 0
-175 -571 0
-176 -572 0
-177 -573 0
-175 -727 0
-176 -728 0
-177 -729 0
-175 -970 0
-176 -971 0
-177 -972 0
-175 -1336 0
-176 -1337 0
-177 -1338 0
-178 -286 0
-179 -287 0
-180 -288 0
-178 -487 0
-179 -488 0
-180 -489 0
-178 -640 0
-179 -641 0
-180 -642 0
-178 -649 0
-179 -650 0
-180 -651 0
-178 -1384 0
-179 -1385 0
-180 -1386 0
-178 -1432 0
-179 -1433 0
-180 -1434 0
-181 -778 0
-182 -779 0
-183 -780 0
-181 -871 0
-182 -872 0
-183 -873 0
-181 -1189 0
-182 -1190 0
-183 -1191 0
-184 -352 0
-185 -353 0
-186 -354 0
-184 -370 0
-185 -371 0
-186 -372 0
-184 -502 0
-185 -503 0
-186 -504 0
-184 -1066 0
-185 -1067 0
-186 -1068 0
-187 -436 0
-188 -437 0
-189 -438 0
-187 -1174 0
-188 -1175 0
-189 -1176 0
-190 -622 0
-191 -623 0
-192 -624 0
-190 -955 0
-191 -956 0
-192 -957 0
-190 -1204 0
-191 -1205 0
-192 -1206 0
-190 -1234 0
-191 -1235 0
-192 -1236 0
-190 -1345 0
-191 -1346 0
-192 -1347 0
-193 -385 0
-194 -386 0
-195 -387 0
-193 -466 0
-194 -467 0
-195 -468 0
-193 -685 0
-194 -686 0
-195 -687 0
-193 -943 0
-194 -944 0
-195 -945 0
-193 -1066 0
-194 -1067 0
-195 -1068 0
-193 -1171 0
-194 -1172 0
-195 -1173 0
-193 -1327 0
-194 -1328 0
-195 -1329 0
-193 -1411 0
-194 -1412 0
-195 -1413 0
-196 -355 0
-197 -356 0
-198 -357 0
-196 -754 0
-197 -755 0
-198 -756 0
-196 -907 0
-197 -908 0
-198 -909 0
-196 -1234 0
-197 -1235 0
-198 -1236 0
-196 -1447 0
-197 -1448 0
-198 -1449 0
-199 -418 0
-200 -419 0
-201 -420 0
-199 -718 0
-200 -719 0
-201 -720 0
-199 -1204 0
-200 -1205 0
-201 -1206 0
-202 -403 0
-203 -404 0
-204 -405 0
-202 -637 0
-203 -638 0
-204 -639 0
-202 -1297 0
-203 -1298 0
-204 -1299 0
-205 -289 0
-206 -290 0
-207 -291 0
-205 -511 0
-206 -512 0
-207 -513 0
-205 -562 0
-206 -563 0
-207 -564 0
-205 -688 0
-206 -689 0
-207 -690 0
-205 -805 0
-206 -806 0
-207 -807 0
-205 -1054 0
-206 -1055 0
-207 -1056 0
-205 -1333 0
-206 -1334 0
-207 -1335 0
-208 -352 0
-209 -353 0
-210 -354 0
-208 -619 0
-209 -620 0
-210 -621 0
-208 -853 0
-209 -854 0
-210 -855 0
-208 -964 0
-209 -965 0
-210 -966 0
-208 -1351 0
-209 -1352 0
-210 -1353 0
-208 -1402 0
-209 -1403 0
-210 -1404 0
-208 -1492 0
-209 -1493 0
-210 -1494 0
-211 -445 0
-212 -446 0
-213 -447 0
-211 -760 0
-212 -761 0
-213 -762 0
-211 -1348 0
-212 -1349 0
-213 -1350 0
-211 -1483 0
-212 -1484 0
-213 -1485 0
-214 -301 0
-215 -302 0
-216 -303 0
-214 -652 0
-215 -653 0
-216 -654 0
-214 -1135 0
-215 -1136 0
-216 -1137 0
-217 -526 0
-218 -527 0
-219 -528 0
-217 -739 0
-218 -740 0
-219 -741 0
-217 -748 0
-218 -749 0
-219 -750 0
-217 -943 0
-218 -944 0
-219 -945 0
-220 -397 0
-221 -398 0
-222 -399 0
-220 -721 0
-221 -722 0
-222 -723 0
-220 -913 0
-221 -914 0
-222 -915 0
-220 -973 0
-221 -974 0
-222 -975 0
-223 -319 0
-224 -320 0
-225 -321 0
-223 -847 0
-224 -848 0
-225 -849 0
-223 -1234 0
-224 -1235 0
-225 -1236 0
-226 -280 0
-227 -281 0
-228 -282 0
-226 -496 0
-227 -497 0
-228 -498 0
-226 -1147 0
-227 -1148 0
-228 -1149 0
-226 -1429 0
-227 -1430 0
-228 -1431 0
-226 -1498 0
-227 -1499 0
-228 -1500 0
-229 -367 0
-230 -368 0
-231 -369 0
-229 -862 0
-230 -863 0
-231 -864 0
-229 -1198 0
-230 -1199 0
-231 -1200 0
-229 -1471 0
-230 -1472 0
-231 -1473 0
-232 -253 0
-233 -254 0
-234 -255 0
-232 -421 0
-233 -422 0
-234 -423 0
-232 -727 0
-233 -728 0
-234 -729 0
-232 -1144 0
-233 -1145 0
-234 -1146 0
-232 -1240 0
-233 -1241 0
-234 -1242 0
-232 -1393 0
-233 -1394 0
-234 -1395 0
-235 -484 0
-236 -485 0
-237 -486 0
-235 -754 0
-236 -755 0
-237 -756 0
-235 -871 0
-236 -872 0
-237 -873 0
-235 -988 0
-236 -989 0
-237 -990 0
-235 -1156 0
-236 -1157 0
-237 -1158 0
-235 -1174 0
-236 -1175 0
-237 -1176 0
-235 -1228 0
-236 -1229 0
-237 -1230 0
-235 -1231 0
-236 -1232 0
-237 -1233 0
-238 -373 0
-239 -374 0
-240 -375 0
-238 -844 0
-239 -845 0
-240 -846 0
-238 -1066 0
-239 -1067 0
-240 -1068 0
-238 -1129 0
-239 -1130 0
-240 -1131 0
-238 -1135 0
-239 -1136 0
-240 -1137 0
-241 -388 0
-242 -389 0
-243 -390 0
-241 -670 0
-242 -671 0
-243 -672 0
-241 -700 0
-242 -701 0
-243 -702 0
-241 -988 0
-242 -989 0
-243 -990 0
-241 -1222 0
-242 -1223 0
-243 -1224 0
-241 -1273 0
-242 -1274 0
-243 -1275 0
-241 -1315 0
-242 -1316 0
-243 -1317 0
-241 -1486 0
-242 -1487 0
-243 -1488 0
-244 -466 0
-245 -467 0
-246 -468 0
-244 -574 0
-245 -575 0
-246 -576 0
-244 -790 0
-245 -791 0
-246 -792 0
-244 -1093 0
-245 -1094 0
-246 -1095 0
-247 -1120 0
-248 -1121 0
-249 -1122 0
-247 -1438 0
-248 -1439 0
-249 -1440 0
-250 -271 0
-251 -272 0
-252 -273 0
-250 -1288 0
-251 -1289 0
-252 -1290 0
-253 -511 0
-254 -512 0
-255 -513 0
-256 -292 0
-257 -293 0
-258 -294 0
-256 -352 0
-257 -353 0
-258 -354 0
-256 -664 0
-257 -665 0
-258 -666 0
-256 -1261 0
-257 -1262 0
-258 -1263 0
-256 -1339 0
-257 -1340 0
-258 -1341 0
-256 -1492 0
-257 -1493 0
-258 -1494 0
-259 -1105 0
-260 -1106 0
-261 -1107 0
-259 -1372 0
-260 -1373 0
-261 -1374 0
-262 -589 0
-263 -590 0
-264 -591 0
-262 -1012 0
-263 -1013 0
-264 -1014 0
-262 -1339 0
-263 -1340 0
-264 -1341 0
-265 -499 0
-266 -500 0
-267 -501 0
-265 -775 0
-266 -776 0
-267 -777 0
-265 -913 0
-266 -914 0
-267 -915 0
-265 -1372 0
-266 -1373 0
-267 -1374 0
-268 -301 0
-269 -302 0
-270 -303 0
-268 -508 0
-269 -509 0
-270 -510 0
-268 -652 0
-269 -653 0
-270 -654 0
-268 -1006 0
-269 -1007 0
-270 -1008 0
-268 -1171 0
-269 -1172 0
-270 -1173 0
-268 -1285 0
-269 -1286 0
-270 -1287 0
-271 -583 0
-272 -584 0
-273 -585 0
-271 -949 0
-272 -950 0
-273 -951 0
-271 -1498 0
-272 -1499 0
-273 -1500 0
-274 -1402 0
-275 -1403 0
-276 -1404 0
-277 -412 0
-278 -413 0
-279 -414 0
-277 -1204 0
-278 -1205 0
-279 -1206 0
-277 -1327 0
-278 -1328 0
-279 -1329 0
-280 -466 0
-281 -467 0
-282 -468 0
-280 -547 0
-281 -548 0
-282 -549 0
-280 -562 0
-281 -563 0
-282 -564 0
-280 -658 0
-281 -659 0
-282 -660 0
-280 -721 0
-281 -722 0
-282 -723 0
-280 -862 0
-281 -863 0
-282 -864 0
-280 -1072 0
-281 -1073 0
-282 -1074 0
-280 -1339 0
-281 -1340 0
-282 -1341 0
-280 -1474 0
-281 -1475 0
-282 -1476 0
-283 -847 0
-284 -848 0
-285 -849 0
-286 -640 0
-287 -641 0
-288 -642 0
-286 -1144 0
-287 -1145 0
-288 -1146 0
-286 -1183 0
-287 -1184 0
-288 -1185 0
-289 -991 0
-290 -992 0
-291 -993 0
-289 -1000 0
-290 -1001 0
-291 -1002 0
-289 -1087 0
-290 -1088 0
-291 -1089 0
-289 -1192 0
-290 -1193 0
-291 -1194 0
-289 -1432 0
-290 -1433 0
-291 -1434 0
-292 -457 0
-293 -458 0
-294 -459 0
-292 -604 0
-293 -605 0
-294 -606 0
-292 -682 0
-293 -683 0
-294 -684 0
-292 -958 0
-293 -959 0
-294 -960 0
-292 -1201 0
-293 -1202 0
-294 -1203 0
-295 -424 0
-296 -425 0
-297 -426 0
-295 -553 0
-296 -554 0
-297 -555 0
-295 -889 0
-296 -890 0
-297 -891 0
-295 -985 0
-296 -986 0
-297 -987 0
-295 -1306 0
-296 -1307 0
-297 -1308 0
-295 -1318 0
-296 -1319 0
-297 -1320 0
-295 -1489 0
-296 -1490 0
-297 -1491 0
-298 -1162 0
-299 -1163 0
-300 -1164 0
-298 -1297 0
-299 -1298 0
-300 -1299 0
-301 -787 0
-302 -788 0
-303 -789 0
-301 -910 0
-302 -911 0
-303 -912 0
-304 -478 0
-305 -479 0
-306 -480 0
-304 -847 0
-305 -848 0
-306 -849 0
-304 -943 0
-305 -944 0
-306 -945 0
-304 -988 0
-305 -989 0
-306 -990 0
-304 -1183 0
-305 -1184 0
-306 -1185 0
-307 -730 0
-308 -731 0
-309 -732 0
-307 -946 0
-308 -947 0
-309 -948 0
-307 -1060 0
-308 -1061 0
-309 -1062 0
-307 -1216 0
-308 -1217 0
-309 -1218 0
-310 -796 0
-311 -797 0
-312 -798 0
-310 -1348 0
-311 -1349 0
-312 -1350 0
-313 -340 0
-314 -341 0
-315 -342 0
-313 -676 0
-314 -677 0
-315 -678 0
-313 -784 0
-314 -785 0
-315 -786 0
-319 -1186 0
-320 -1187 0
-321 -1188 0
-319 -1360 0
-320 -1361 0
-321 -1362 0
-322 -595 0
-323 -596 0
-324 -597 0
-322 -679 0
-323 -680 0
-324 -681 0
-322 -739 0
-323 -740 0
-324 -741 0
-322 -817 0
-323 -818 0
-324 -819 0
-322 -1177 0
-323 -1178 0
-324 -1179 0
-322 -1273 0
-323 -1274 0
-324 -1275 0
-322 -1378 0
-323 -1379 0
-324 -1380 0
-328 -556 0
-329 -557 0
-330 -558 0
-328 -718 0
-329 -719 0
-330 -720 0
-331 -340 0
-332 -341 0
-333 -342 0
-331 -730 0
-332 -731 0
-333 -732 0
-331 -865 0
-332 -866 0
-333 -867 0
-331 -1270 0
-332 -1271 0
-333 -1272 0
-331 -1489 0
-332 -1490 0
-333 -1491 0
-334 -598 0
-335 -599 0
-336 -600 0
-337 -553 0
-338 -554 0
-339 -555 0
-337 -586 0
-338 -587 0
-339 -588 0
-340 -670 0
-341 -671 0
-342 -672 0
-340 -847 0
-341 -848 0
-342 -849 0
-340 -859 0
-341 -860 0
-342 -861 0
-340 -961 0
-341 -962 0
-342 -963 0
-340 -976 0
-341 -977 0
-342 -978 0
-340 -982 0
-341 -983 0
-342 -984 0
-340 -994 0
-341 -995 0
-342 -996 0
-340 -1093 0
-341 -1094 0
-342 -1095 0
-343 -391 0
-344 -392 0
-345 -393 0
-343 -418 0
-344 -419 0
-345 -420 0
-343 -529 0
-344 -530 0
-345 -531 0
-343 -907 0
-344 -908 0
-345 -909 0
-343 -1486 0
-344 -1487 0
-345 -1488 0
-346 -406 0
-347 -407 0
-348 -408 0
-346 -646 0
-347 -647 0
-348 -648 0
-346 -1264 0
-347 -1265 0
-348 -1266 0
-349 -361 0
-350 -362 0
-351 -363 0
-349 -415 0
-350 -416 0
-351 -417 0
-349 -622 0
-350 -623 0
-351 -624 0
-349 -721 0
-350 -722 0
-351 -723 0
-349 -829 0
-350 -830 0
-351 -831 0
-352 -823 0
-353 -824 0
-354 -825 0
-352 -1240 0
-353 -1241 0
-354 -1242 0
-352 -1411 0
-353 -1412 0
-354 -1413 0
-355 -712 0
-356 -713 0
-357 -714 0
-355 -1117 0
-356 -1118 0
-357 -1119 0
-355 -1231 0
-356 -1232 0
-357 -1233 0
-355 -1414 0
-356 -1415 0
-357 -1416 0
-358 -946 0
-359 -947 0
-360 -948 0
-358 -1120 0
-359 -1121 0
-360 -1122 0
-358 -1189 0
-359 -1190 0
-360 -1191 0
-361 -505 0
-362 -506 0
-363 -507 0
-361 -778 0
-362 -779 0
-363 -780 0
-361 -1141 0
-362 -1142 0
-363 -1143 0
-361 -1159 0
-362 -1160 0
-363 -1161 0
-361 -1405 0
-362 -1406 0
-363 -1407 0
-361 -1411 0
-362 -1412 0
-363 -1413 0
-364 -718 0
-365 -719 0
-366 -720 0
-364 -799 0
-365 -800 0
-366 -801 0
-367 -922 0
-368 -923 0
-369 -924 0
-370 -721 0
-371 -722 0
-372 -723 0
-370 -724 0
-371 -725 0
-372 -726 0
-370 -766 0
-371 -767 0
-372 -768 0
-370 -859 0
-371 -860 0
-372 -861 0
-373 -403 0
-374 -404 0
-375 -405 0
-373 -1213 0
-374 -1214 0
-375 -1215 0
-373 -1378 0
-374 -1379 0
-375 -1380 0
-376 -727 0
-377 -728 0
-378 -729 0
-376 -937 0
-377 -938 0
-378 -939 0
-379 -661 0
-380 -662 0
-381 -663 0
-379 -1015 0
-380 -1016 0
-381 -1017 0
-379 -1057 0
-380 -1058 0
-381 -1059 0
-379 -1078 0
-380 -1079 0
-381 -1080 0
-379 -1192 0
-380 -1193 0
-381 -1194 0
-379 -1327 0
-380 -1328 0
-381 -1329 0
-382 -586 0
-383 -587 0
-384 -588 0
-382 -973 0
-383 -974 0
-384 -975 0
-385 -526 0
-386 -527 0
-387 -528 0
-385 -1180 0
-386 -1181 0
-387 -1182 0
-388 -814 0
-389 -815 0
-390 -816 0
-388 -1135 0
-389 -1136 0
-390 -1137 0
-391 -1135 0
-392 -1136 0
-393 -1137 0
-391 -1150 0
-392 -1151 0
-393 -1152 0
-391 -1258 0
-392 -1259 0
-393 -1260 0
-394 -1453 0
-395 -1454 0
-396 -1455 0
-397 -793 0
-398 -794 0
-399 -795 0
-397 -964 0
-398 -965 0
-399 -966 0
-397 -1141 0
-398 -1142 0
-399 -1143 0
-400 -697 0
-401 -698 0
-402 -699 0
-400 -736 0
-401 -737 0
-402 -738 0
-400 -1192 0
-401 -1193 0
-402 -1194 0
-403 -625 0
-404 -626 0
-405 -627 0
-403 -1006 0
-404 -1007 0
-405 -1008 0
-403 -1231 0
-404 -1232 0
-405 -1233 0
-406 -862 0
-407 -863 0
-408 -864 0
-406 -1177 0
-407 -1178 0
-408 -1179 0
-406 -1330 0
-407 -1331 0
-408 -1332 0
-406 -1390 0
-407 -1391 0
-408 -1392 0
-409 -517 0
-410 -518 0
-411 -519 0
-409 -661 0
-410 -662 0
-411 -663 0
-409 -1159 0
-410 -1160 0
-411 -1161 0
-409 -1222 0
-410 -1223 0
-411 -1224 0
-409 -1468 0
-410 -1469 0
-411 -1470 0
-412 -634 0
-413 -635 0
-414 -636 0
-412 -691 0
-413 -692 0
-414 -693 0
-412 -736 0
-413 -737 0
-414 -738 0
-412 -919 0
-413 -920 0
-414 -921 0
-415 -457 0
-416 -458 0
-417 -459 0
-415 -862 0
-416 -863 0
-417 -864 0
-415 -880 0
-416 -881 0
-417 -882 0
-415 -1168 0
-416 -1169 0
-417 -1170 0
-415 -1183 0
-416 -1184 0
-417 -1185 0
-418 -487 0
-419 -488 0
-420 -489 0
-418 -664 0
-419 -665 0
-420 -666 0
-421 -490 0
-422 -491 0
-423 -492 0
-421 -637 0
-422 -638 0
-423 -639 0
-421 -664 0
-422 -665 0
-423 -666 0
-421 -1267 0
-422 -1268 0
-423 -1269 0
-424 -1186 0
-425 -1187 0
-426 -1188 0
-424 -1417 0
-425 -1418 0
-426 -1419 0
-427 -529 0
-428 -530 0
-429 -531 0
-427 -976 0
-428 -977 0
-429 -978 0
-427 -1261 0
-428 -1262 0
-429 -1263 0
-430 -829 0
-431 -830 0
-432 -831 0
-430 -1270 0
-431 -1271 0
-432 -1272 0
-433 -1174 0
-434 -1175 0
-435 -1176 0
-436 -562 0
-437 -563 0
-438 -564 0
-436 -601 0
-437 -602 0
-438 -603 0
-436 -1009 0
-437 -1010 0
-438 -1011 0
-436 -1258 0
-437 -1259 0
-438 -1260 0
-436 -1411 0
-437 -1412 0
-438 -1413 0
-439 -841 0
-440 -842 0
-441 -843 0
-439 -904 0
-440 -905 0
-441 -906 0
-439 -1063 0
-440 -1064 0
-441 -1065 0
-439 -1066 0
-440 -1067 0
-441 -1068 0
-439 -1435 0
-440 -1436 0
-441 -1437 0
-442 -589 0
-443 -590 0
-444 -591 0
-442 -1084 0
-443 -1085 0
-444 -1086 0
-442 -1222 0
-443 -1223 0
-444 -1224 0
-448 -580 0
-449 -581 0
-450 -582 0
-448 -979 0
-449 -980 0
-450 -981 0
-448 -1003 0
-449 -1004 0
-450 -1005 0
-448 -1231 0
-449 -1232 0
-450 -1233 0
-451 -568 0
-452 -569 0
-453 -570 0
-451 -1198 0
-452 -1199 0
-453 -1200 0
-454 -907 0
-455 -908 0
-456 -909 0
-454 -1051 0
-455 -1052 0
-456 -1053 0
-457 -883 0
-458 -884 0
-459 -885 0
-457 -1414 0
-458 -1415 0
-459 -1416 0
-460 -652 0
-461 -653 0
-462 -654 0
-460 -1024 0
-461 -1025 0
-462 -1026 0
-460 -1471 0
-461 -1472 0
-462 -1473 0
-463 -511 0
-464 -512 0
-465 -513 0
-463 -940 0
-464 -941 0
-465 -942 0
-463 -1408 0
-464 -1409 0
-465 -1410 0
-466 -517 0
-467 -518 0
-468 -519 0
-466 -622 0
-467 -623 0
-468 -624 0
-469 -553 0
-470 -554 0
-471 -555 0
-469 -775 0
-470 -776 0
-471 -777 0
-469 -838 0
-470 -839 0
-471 -840 0
-469 -1003 0
-470 -1004 0
-471 -1005 0
-469 -1474 0
-470 -1475 0
-471 -1476 0
-472 -1237 0
-473 -1238 0
-474 -1239 0
-475 -673 0
-476 -674 0
-477 -675 0
-475 -754 0
-476 -755 0
-477 -756 0
-475 -1477 0
-476 -1478 0
-477 -1479 0
-478 -520 0
-479 -521 0
-480 -522 0
-478 -769 0
-479 -770 0
-480 -771 0
-478 -781 0
-479 -782 0
-480 -783 0
-478 -910 0
-479 -911 0
-480 -912 0
-478 -1129 0
-479 -1130 0
-480 -1131 0
-478 -1144 0
-479 -1145 0
-480 -1146 0
-478 -1360 0
-479 -1361 0
-480 -1362 0
-481 -1093 0
-482 -1094 0
-483 -1095 0
-481 -1237 0
-482 -1238 0
-483 -1239 0
-487 -1216 0
-488 -1217 0
-489 -1218 0
-487 -1393 0
-488 -1394 0
-489 -1395 0
-490 -721 0
-491 -722 0
-492 -723 0
-490 -1468 0
-491 -1469 0
-492 -1470 0
-493 -619 0
-494 -620 0
-495 -621 0
-493 -748 0
-494 -749 0
-495 -750 0
-493 -883 0
-494 -884 0
-495 -885 0
-493 -1378 0
-494 -1379 0
-495 -1380 0
-496 -682 0
-497 -683 0
-498 -684 0
-496 -1336 0
-497 -1337 0
-498 -1338 0
-496 -1465 0
-497 -1466 0
-498 -1467 0
-499 -577 0
-500 -578 0
-501 -579 0
-499 -610 0
-500 -611 0
-501 -612 0
-499 -1126 0
-500 -1127 0
-501 -1128 0
-499 -1345 0
-500 -1346 0
-501 -1347 0
-502 -580 0
-503 -581 0
-504 -582 0
-502 -979 0
-503 -980 0
-504 -981 0
-502 -1003 0
-503 -1004 0
-504 -1005 0
-502 -1042 0
-503 -1043 0
-504 -1044 0
-502 -1105 0
-503 -1106 0
-504 -1107 0
-502 -1408 0
-503 -1409 0
-504 -1410 0
-505 -535 0
-506 -536 0
-507 -537 0
-505 -1045 0
-506 -1046 0
-507 -1047 0
-505 -1099 0
-506 -1100 0
-507 -1101 0
-508 -1288 0
-509 -1289 0
-510 -1290 0
-508 -1345 0
-509 -1346 0
-510 -1347 0
-508 -1423 0
-509 -1424 0
-510 -1425 0
-511 -523 0
-512 -524 0
-513 -525 0
-511 -727 0
-512 -728 0
-513 -729 0
-511 -919 0
-512 -920 0
-513 -921 0
-511 -988 0
-512 -989 0
-513 -990 0
-511 -1018 0
-512 -1019 0
-513 -1020 0
-511 -1093 0
-512 -1094 0
-513 -1095 0
-511 -1411 0
-512 -1412 0
-513 -1413 0
-514 -1072 0
-515 -1073 0
-516 -1074 0
-514 -1111 0
-515 -1112 0
-516 -1113 0
-514 -1351 0
-515 -1352 0
-516 -1353 0
-517 -925 0
-518 -926 0
-519 -927 0
-517 -988 0
-518 -989 0
-519 -990 0
-517 -1315 0
-518 -1316 0
-519 -1317 0
-520 -889 0
-521 -890 0
-522 -891 0
-520 -955 0
-521 -956 0
-522 -957 0
-523 -529 0
-524 -530 0
-525 -531 0
-523 -937 0
-524 -938 0
-525 -939 0
-523 -1495 0
-524 -1496 0
-525 -1497 0
-526 -568 0
-527 -569 0
-528 -570 0
-526 -991 0
-527 -992 0
-528 -993 0
-529 -667 0
-530 -668 0
-531 -669 0
-529 -907 0
-530 -908 0
-531 -909 0
-529 -1246 0
-530 -1247 0
-531 -1248 0
-529 -1255 0
-530 -1256 0
-531 -1257 0
-532 -700 0
-533 -701 0
-534 -702 0
-532 -883 0
-533 -884 0
-534 -885 0
-532 -1066 0
-533 -1067 0
-534 -1068 0
-532 -1486 0
-533 -1487 0
-534 -1488 0
-535 -769 0
-536 -770 0
-537 -771 0
-535 -1174 0
-536 -1175 0
-537 -1176 0
-538 -694 0
-539 -695 0
-540 -696 0
-538 -1165 0
-539 -1166 0
-540 -1167 0
-541 -559 0
-542 -560 0
-543 -561 0
-541 -565 0
-542 -566 0
-543 -567 0
-541 -868 0
-542 -869 0
-543 -870 0
-544 -985 0
-545 -986 0
-546 -987 0
-544 -1354 0
-545 -1355 0
-546 -1356 0
-544 -1438 0
-545 -1439 0
-546 -1440 0
-547 -1156 0
-548 -1157 0
-549 -1158 0
-547 -1384 0
-548 -1385 0
-549 -1386 0
-550 -649 0
-551 -650 0
-552 -651 0
-550 -691 0
-551 -692 0
-552 -693 0
-550 -913 0
-551 -914 0
-552 -915 0
-550 -1078 0
-551 -1079 0
-552 -1080 0
-550 -1306 0
-551 -1307 0
-552 -1308 0
-553 -640 0
-554 -641 0
-555 -642 0
-553 -901 0
-554 -902 0
-555 -903 0
-553 -1276 0
-554 -1277 0
-555 -1278 0
-556 -571 0
-557 -572 0
-558 -573 0
-556 -1033 0
-557 -1034 0
-558 -1035 0
-556 -1399 0
-557 -1400 0
-558 -1401 0
-559 -946 0
-560 -947 0
-561 -948 0
-559 -1027 0
-560 -1028 0
-561 -1029 0
-559 -1084 0
-560 -1085 0
-561 -1086 0
-562 -745 0
-563 -746 0
-564 -747 0
-565 -1099 0
-566 -1100 0
-567 -1101 0
-565 -1204 0
-566 -1205 0
-567 -1206 0
-568 -823 0
-569 -824 0
-570 -825 0
-571 -1132 0
-572 -1133 0
-573 -1134 0
-574 -1408 0
-575 -1409 0
-576 -1410 0
-577 -787 0
-578 -788 0
-579 -789 0
-577 -931 0
-578 -932 0
-579 -933 0
-577 -1042 0
-578 -1043 0
-579 -1044 0
-577 -1159 0
-578 -1160 0
-579 -1161 0
-583 -1141 0
-584 -1142 0
-585 -1143 0
-583 -1363 0
-584 -1364 0
-585 -1365 0
-583 -1390 0
-584 -1391 0
-585 -1392 0
-586 -826 0
-587 -827 0
-588 -828 0
-586 -916 0
-587 -917 0
-588 -918 0
-586 -1009 0
-587 -1010 0
-588 -1011 0
-586 -1450 0
-587 -1451 0
-588 -1452 0
-589 -811 0
-590 -812 0
-591 -813 0
-589 -1081 0
-590 -1082 0
-591 -1083 0
-589 -1096 0
-590 -1097 0
-591 -1098 0
-592 -874 0
-593 -875 0
-594 -876 0
-595 -682 0
-596 -683 0
-597 -684 0
-595 -847 0
-596 -848 0
-597 -849 0
-598 -979 0
-599 -980 0
-600 -981 0
-598 -1099 0
-599 -1100 0
-600 -1101 0
-598 -1315 0
-599 -1316 0
-600 -1317 0
-598 -1345 0
-599 -1346 0
-600 -1347 0
-601 -607 0
-602 -608 0
-603 -609 0
-604 -715 0
-605 -716 0
-606 -717 0
-604 -937 0
-605 -938 0
-606 -939 0
-604 -1228 0
-605 -1229 0
-606 -1230 0
-604 -1237 0
-605 -1238 0
-606 -1239 0
-604 -1240 0
-605 -1241 0
-606 -1242 0
-604 -1453 0
-605 -1454 0
-606 -1455 0
-604 -1486 0
-605 -1487 0
-606 -1488 0
-607 -1309 0
-608 -1310 0
-609 -1311 0
-613 -667 0
-614 -668 0
-615 -669 0
-613 -1006 0
-614 -1007 0
-615 -1008 0
-613 -1399 0
-614 -1400 0
-615 -1401 0
-616 -874 0
-617 -875 0
-618 -876 0
-619 -775 0
-620 -776 0
-621 -777 0
-619 -793 0
-620 -794 0
-621 -795 0
-619 -964 0
-620 -965 0
-621 -966 0
-619 -1084 0
-620 -1085 0
-621 -1086 0
-619 -1333 0
-620 -1334 0
-621 -1335 0
-622 -790 0
-623 -791 0
-624 -792 0
-622 -937 0
-623 -938 0
-624 -939 0
-622 -1180 0
-623 -1181 0
-624 -1182 0
-622 -1216 0
-623 -1217 0
-624 -1218 0
-625 -949 0
-626 -950 0
-627 -951 0
-628 -709 0
-629 -710 0
-630 -711 0
-628 -1039 0
-629 -1040 0
-630 -1041 0
-628 -1210 0
-629 -1211 0
-630 -1212 0
-631 -1081 0
-632 -1082 0
-633 -1083 0
-631 -1180 0
-632 -1181 0
-633 -1182 0
-631 -1477 0
-632 -1478 0
-633 -1479 0
-634 -760 0
-635 -761 0
-636 -762 0
-634 -1114 0
-635 -1115 0
-636 -1116 0
-634 -1282 0
-635 -1283 0
-636 -1284 0
-637 -664 0
-638 -665 0
-639 -666 0
-637 -874 0
-638 -875 0
-639 -876 0
-637 -925 0
-638 -926 0
-639 -927 0
-637 -1087 0
-638 -1088 0
-639 -1089 0
-640 -829 0
-641 -830 0
-642 -831 0
-640 -907 0
-641 -908 0
-642 -909 0
-640 -1483 0
-641 -1484 0
-642 -1485 0
-643 -904 0
-644 -905 0
-645 -906 0
-643 -1063 0
-644 -1064 0
-645 -1065 0
-643 -1138 0
-644 -1139 0
-645 -1140 0
-643 -1276 0
-644 -1277 0
-645 -1278 0
-643 -1336 0
-644 -1337 0
-645 -1338 0
-646 -715 0
-647 -716 0
-648 -717 0
-646 -742 0
-647 -743 0
-648 -744 0
-646 -769 0
-647 -770 0
-648 -771 0
-646 -1120 0
-647 -1121 0
-648 -1122 0
-646 -1129 0
-647 -1130 0
-648 -1131 0
-649 -682 0
-650 -683 0
-651 -684 0
-649 -826 0
-650 -827 0
-651 -828 0
-649 -934 0
-650 -935 0
-651 -936 0
-649 -1234 0
-650 -1235 0
-651 -1236 0
-649 -1270 0
-650 -1271 0
-651 -1272 0
-649 -1336 0
-650 -1337 0
-651 -1338 0
-652 -1003 0
-653 -1004 0
-654 -1005 0
-652 -1312 0
-653 -1313 0
-654 -1314 0
-655 -682 0
-656 -683 0
-657 -684 0
-655 -1039 0
-656 -1040 0
-657 -1041 0
-655 -1057 0
-656 -1058 0
-657 -1059 0
-655 -1231 0
-656 -1232 0
-657 -1233 0
-658 -667 0
-659 -668 0
-660 -669 0
-658 -1117 0
-659 -1118 0
-660 -1119 0
-658 -1222 0
-659 -1223 0
-660 -1224 0
-658 -1300 0
-659 -1301 0
-660 -1302 0
-658 -1441 0
-659 -1442 0
-660 -1443 0
-661 -811 0
-662 -812 0
-663 -813 0
-661 -892 0
-662 -893 0
-663 -894 0
-661 -1069 0
-662 -1070 0
-663 -1071 0
-661 -1123 0
-662 -1124 0
-663 -1125 0
-664 -1039 0
-665 -1040 0
-666 -1041 0
-664 -1258 0
-665 -1259 0
-666 -1260 0
-664 -1387 0
-665 -1388 0
-666 -1389 0
-667 -712 0
-668 -713 0
-669 -714 0
-667 -1090 0
-668 -1091 0
-669 -1092 0
-667 -1351 0
-668 -1352 0
-669 -1353 0
-670 -733 0
-671 -734 0
-672 -735 0
-670 -874 0
-671 -875 0
-672 -876 0
-670 -1060 0
-671 -1061 0
-672 -1062 0
-670 -1303 0
-671 -1304 0
-672 -1305 0
-673 -1081 0
-674 -1082 0
-675 -1083 0
-673 -1087 0
-674 -1088 0
-675 -1089 0
-676 -718 0
-677 -719 0
-678 -720 0
-676 -787 0
-677 -788 0
-678 -789 0
-676 -808 0
-677 -809 0
-678 -810 0
-676 -1201 0
-677 -1202 0
-678 -1203 0
-676 -1210 0
-677 -1211 0
-678 -1212 0
-676 -1423 0
-677 -1424 0
-678 -1425 0
-676 -1477 0
-677 -1478 0
-678 -1479 0
-679 -736 0
-680 -737 0
-681 -738 0
-679 -1000 0
-680 -1001 0
-681 -1002 0
-682 -1117 0
-683 -1118 0
-684 -1119 0
-685 -1045 0
-686 -1046 0
-687 -1047 0
-688 -1123 0
-689 -1124 0
-690 -1125 0
-688 -1138 0
-689 -1139 0
-690 -1140 0
-691 -1045 0
-692 -1046 0
-693 -1047 0
-691 -1165 0
-692 -1166 0
-693 -1167 0
-697 -907 0
-698 -908 0
-699 -909 0
-697 -1102 0
-698 -1103 0
-699 -1104 0
-700 -1042 0
-701 -1043 0
-702 -1044 0
-703 -1120 0
-704 -1121 0
-705 -1122 0
-703 -1318 0
-704 -1319 0
-705 -1320 0
-703 -1378 0
-704 -1379 0
-705 -1380 0
-703 -1480 0
-704 -1481 0
-705 -1482 0
-706 -1429 0
-707 -1430 0
-708 -1431 0
-709 -1183 0
-710 -1184 0
-711 -1185 0
-709 -1219 0
-710 -1220 0
-711 -1221 0
-712 -1183 0
-713 -1184 0
-714 -1185 0
-715 -1147 0
-716 -1148 0
-717 -1149 0
-715 -1318 0
-716 -1319 0
-717 -1320 0
-718 -910 0
-719 -911 0
-720 -912 0
-718 -1048 0
-719 -1049 0
-720 -1050 0
-718 -1219 0
-719 -1220 0
-720 -1221 0
-721 -1243 0
-722 -1244 0
-723 -1245 0
-721 -1312 0
-722 -1313 0
-723 -1314 0
-721 -1390 0
-722 -1391 0
-723 -1392 0
-727 -730 0
-728 -731 0
-729 -732 0
-727 -829 0
-728 -830 0
-729 -831 0
-727 -1159 0
-728 -1160 0
-729 -1161 0
-727 -1285 0
-728 -1286 0
-729 -1287 0
-727 -1303 0
-728 -1304 0
-729 -1305 0
-727 -1486 0
-728 -1487 0
-729 -1488 0
-733 -859 0
-734 -860 0
-735 -861 0
-733 -1021 0
-734 -1022 0
-735 -1023 0
-733 -1192 0
-734 -1193 0
-735 -1194 0
-733 -1495 0
-734 -1496 0
-735 -1497 0
-736 -763 0
-737 -764 0
-738 -765 0
-736 -766 0
-737 -767 0
-738 -768 0
-739 -1228 0
-740 -1229 0
-741 -1230 0
-739 -1246 0
-740 -1247 0
-741 -1248 0
-742 -838 0
-743 -839 0
-744 -840 0
-742 -985 0
-743 -986 0
-744 -987 0
-742 -1042 0
-743 -1043 0
-744 -1044 0
-742 -1243 0
-743 -1244 0
-744 -1245 0
-745 -1372 0
-746 -1373 0
-747 -1374 0
-745 -1414 0
-746 -1415 0
-747 -1416 0
-745 -1417 0
-746 -1418 0
-747 -1419 0
-748 -1018 0
-749 -1019 0
-750 -1020 0
-748 -1450 0
-749 -1451 0
-750 -1452 0
-751 -907 0
-752 -908 0
-753 -909 0
-751 -1162 0
-752 -1163 0
-753 -1164 0
-754 -826 0
-755 -827 0
-756 -828 0
-754 -1102 0
-755 -1103 0
-756 -1104 0
-757 -763 0
-758 -764 0
-759 -765 0
-757 -769 0
-758 -770 0
-759 -771 0
-757 -799 0
-758 -800 0
-759 -801 0
-757 -1186 0
-758 -1187 0
-759 -1188 0
-757 -1282 0
-758 -1283 0
-759 -1284 0
-760 -1138 0
-761 -1139 0
-762 -1140 0
-763 -1291 0
-764 -1292 0
-765 -1293 0
-763 -1360 0
-764 -1361 0
-765 -1362 0
-766 -1219 0
-767 -1220 0
-768 -1221 0
-766 -1228 0
-767 -1229 0
-768 -1230 0
-766 -1297 0
-767 -1298 0
-768 -1299 0
-769 -874 0
-770 -875 0
-771 -876 0
-772 -832 0
-773 -833 0
-774 -834 0
-772 -1186 0
-773 -1187 0
-774 -1188 0
-775 -793 0
-776 -794 0
-777 -795 0
-775 -1192 0
-776 -1193 0
-777 -1194 0
-775 -1237 0
-776 -1238 0
-777 -1239 0
-775 -1327 0
-776 -1328 0
-777 -1329 0
-778 -1315 0
-779 -1316 0
-780 -1317 0
-781 -829 0
-782 -830 0
-783 -831 0
-781 -1027 0
-782 -1028 0
-783 -1029 0
-781 -1276 0
-782 -1277 0
-783 -1278 0
-784 -1162 0
-785 -1163 0
-786 -1164 0
-790 -904 0
-791 -905 0
-792 -906 0
-790 -973 0
-791 -974 0
-792 -975 0
-793 -814 0
-794 -815 0
-795 -816 0
-793 -1327 0
-794 -1328 0
-795 -1329 0
-793 -1405 0
-794 -1406 0
-795 -1407 0
-796 -1021 0
-797 -1022 0
-798 -1023 0
-796 -1258 0
-797 -1259 0
-798 -1260 0
-796 -1321 0
-797 -1322 0
-798 -1323 0
-796 -1327 0
-797 -1328 0
-798 -1329 0
-799 -1018 0
-800 -1019 0
-801 -1020 0
-799 -1045 0
-800 -1046 0
-801 -1047 0
-802 -1150 0
-803 -1151 0
-804 -1152 0
-802 -1483 0
-803 -1484 0
-804 -1485 0
-805 -919 0
-806 -920 0
-807 -921 0
-805 -1084 0
-806 -1085 0
-807 -1086 0
-808 -916 0
-809 -917 0
-810 -918 0
-808 -976 0
-809 -977 0
-810 -978 0
-808 -1339 0
-809 -1340 0
-810 -1341 0
-808 -1399 0
-809 -1400 0
-810 -1401 0
-811 -922 0
-812 -923 0
-813 -924 0
-811 -1216 0
-812 -1217 0
-813 -1218 0
-811 -1342 0
-812 -1343 0
-813 -1344 0
-814 -862 0
-815 -863 0
-816 -864 0
-814 -883 0
-815 -884 0
-816 -885 0
-814 -991 0
-815 -992 0
-816 -993 0
-814 -1087 0
-815 -1088 0
-816 -1089 0
-814 -1228 0
-815 -1229 0
-816 -1230 0
-814 -1354 0
-815 -1355 0
-816 -1356 0
-814 -1474 0
-815 -1475 0
-816 -1476 0
-817 -973 0
-818 -974 0
-819 -975 0
-817 -1171 0
-818 -1172 0
-819 -1173 0
-817 -1282 0
-818 -1283 0
-819 -1284 0
-817 -1360 0
-818 -1361 0
-819 -1362 0
-817 -1417 0
-818 -1418 0
-819 -1419 0
-820 -856 0
-821 -857 0
-822 -858 0
-820 -1168 0
-821 -1169 0
-822 -1170 0
-820 -1459 0
-821 -1460 0
-822 -1461 0
-826 -1093 0
-827 -1094 0
-828 -1095 0
-826 -1450 0
-827 -1451 0
-828 -1452 0
-829 -1123 0
-830 -1124 0
-831 -1125 0
-832 -862 0
-833 -863 0
-834 -864 0
-832 -1027 0
-833 -1028 0
-834 -1029 0
-832 -1300 0
-833 -1301 0
-834 -1302 0
-835 -853 0
-836 -854 0
-837 -855 0
-835 -1006 0
-836 -1007 0
-837 -1008 0
-835 -1189 0
-836 -1190 0
-837 -1191 0
-835 -1351 0
-836 -1352 0
-837 -1353 0
-844 -1126 0
-845 -1127 0
-846 -1128 0
-844 -1267 0
-845 -1268 0
-846 -1269 0
-844 -1363 0
-845 -1364 0
-846 -1365 0
-850 -973 0
-851 -974 0
-852 -975 0
-850 -1009 0
-851 -1010 0
-852 -1011 0
-850 -1072 0
-851 -1073 0
-852 -1074 0
-850 -1075 0
-851 -1076 0
-852 -1077 0
-853 -1489 0
-854 -1490 0
-855 -1491 0
-856 -1360 0
-857 -1361 0
-858 -1362 0
-856 -1366 0
-857 -1367 0
-858 -1368 0
-856 -1432 0
-857 -1433 0
-858 -1434 0
-859 -904 0
-860 -905 0
-861 -906 0
-859 -1156 0
-860 -1157 0
-861 -1158 0
-862 -976 0
-863 -977 0
-864 -978 0
-865 -1000 0
-866 -1001 0
-867 -1002 0
-865 -1147 0
-866 -1148 0
-867 -1149 0
-865 -1417 0
-866 -1418 0
-867 -1419 0
-868 -1141 0
-869 -1142 0
-870 -1143 0
-868 -1441 0
-869 -1442 0
-870 -1443 0
-868 -1483 0
-869 -1484 0
-870 -1485 0
-871 -946 0
-872 -947 0
-873 -948 0
-871 -1294 0
-872 -1295 0
-873 -1296 0
-874 -1015 0
-875 -1016 0
-876 -1017 0
-874 -1114 0
-875 -1115 0
-876 -1116 0
-874 -1270 0
-875 -1271 0
-876 -1272 0
-874 -1468 0
-875 -1469 0
-876 -1470 0
-877 -907 0
-878 -908 0
-879 -909 0
-877 -913 0
-878 -914 0
-879 -915 0
-877 -1201 0
-878 -1202 0
-879 -1203 0
-877 -1216 0
-878 -1217 0
-879 -1218 0
-883 -1081 0
-884 -1082 0
-885 -1083 0
-883 -1285 0
-884 -1286 0
-885 -1287 0
-886 -985 0
-887 -986 0
-888 -987 0
-886 -1147 0
-887 -1148 0
-888 -1149 0
-889 -1243 0
-890 -1244 0
-891 -1245 0
-892 -913 0
-893 -914 0
-894 -915 0
-895 -1183 0
-896 -1184 0
-897 -1185 0
-898 -1135 0
-899 -1136 0
-900 -1137 0
-898 -1177 0
-899 -1178 0
-900 -1179 0
-904 -1354 0
-905 -1355 0
-906 -1356 0
-907 -1111 0
-908 -1112 0
-909 -1113 0
-907 -1153 0
-908 -1154 0
-909 -1155 0
-910 -1084 0
-911 -1085 0
-912 -1086 0
-910 -1237 0
-911 -1238 0
-912 -1239 0
-910 -1375 0
-911 -1376 0
-912 -1377 0
-913 -1177 0
-914 -1178 0
-915 -1179 0
-913 -1291 0
-914 -1292 0
-915 -1293 0
-916 -1279 0
-917 -1280 0
-918 -1281 0
-916 -1339 0
-917 -1340 0
-918 -1341 0
-916 -1381 0
-917 -1382 0
-918 -1383 0
-919 -1345 0
-920 -1346 0
-921 -1347 0
-922 -1030 0
-923 -1031 0
-924 -1032 0
-922 -1084 0
-923 -1085 0
-924 -1086 0
-925 -1246 0
-926 -1247 0
-927 -1248 0
-925 -1441 0
-926 -1442 0
-927 -1443 0
-928 -1060 0
-929 -1061 0
-930 -1062 0
-928 -1294 0
-929 -1295 0
-930 -1296 0
-928 -1423 0
-929 -1424 0
-930 -1425 0
-931 -946 0
-932 -947 0
-933 -948 0
-934 -1018 0
-935 -1019 0
-936 -1020 0
-934 -1045 0
-935 -1046 0
-936 -1047 0
-934 -1411 0
-935 -1412 0
-936 -1413 0
-937 -1021 0
-938 -1022 0
-939 -1023 0
-937 -1360 0
-938 -1361 0
-939 -1362 0
-940 -1180 0
-941 -1181 0
-942 -1182 0
-949 -1177 0
-950 -1178 0
-951 -1179 0
-952 -1159 0
-953 -1160 0
-954 -1161 0
-952 -1390 0
-953 -1391 0
-954 -1392 0
-955 -1006 0
-956 -1007 0
-957 -1008 0
-955 -1486 0
-956 -1487 0
-957 -1488 0
-955 -1492 0
-956 -1493 0
-957 -1494 0
-958 -1276 0
-959 -1277 0
-960 -1278 0
-961 -1222 0
-962 -1223 0
-963 -1224 0
-964 -1009 0
-965 -1010 0
-966 -1011 0
-964 -1012 0
-965 -1013 0
-966 -1014 0
-970 -1036 0
-971 -1037 0
-972 -1038 0
-970 -1054 0
-971 -1055 0
-972 -1056 0
-973 -1273 0
-974 -1274 0
-975 -1275 0
-973 -1315 0
-974 -1316 0
-975 -1317 0
-973 -1444 0
-974 -1445 0
-975 -1446 0
-976 -1348 0
-977 -1349 0
-978 -1350 0
-979 -1336 0
-980 -1337 0
-981 -1338 0
-982 -1051 0
-983 -1052 0
-984 -1053 0
-982 -1264 0
-983 -1265 0
-984 -1266 0
-982 -1429 0
-983 -1430 0
-984 -1431 0
-988 -1288 0
-989 -1289 0
-990 -1290 0
-991 -1198 0
-992 -1199 0
-993 -1200 0
-1000 -1078 0
-1001 -1079 0
-1002 -1080 0
-1000 -1498 0
-1001 -1499 0
-1002 -1500 0
-1003 -1453 0
-1004 -1454 0
-1005 -1455 0
-1003 -1462 0
-1004 -1463 0
-1005 -1464 0
-1009 -1012 0
-1010 -1013 0
-1011 -1014 0
-1009 -1291 0
-1010 -1292 0
-1011 -1293 0
-1009 -1375 0
-1010 -1376 0
-1011 -1377 0
-1012 -1114 0
-1013 -1115 0
-1014 -1116 0
-1012 -1276 0
-1013 -1277 0
-1014 -1278 0
-1015 -1072 0
-1016 -1073 0
-1017 -1074 0
-1015 -1111 0
-1016 -1112 0
-1017 -1113 0
-1015 -1132 0
-1016 -1133 0
-1017 -1134 0
-1015 -1210 0
-1016 -1211 0
-1017 -1212 0
-1018 -1159 0
-1019 -1160 0
-1020 -1161 0
-1018 -1420 0
-1019 -1421 0
-1020 -1422 0
-1021 -1204 0
-1022 -1205 0
-1023 -1206 0
-1024 -1453 0
-1025 -1454 0
-1026 -1455 0
-1030 -1165 0
-1031 -1166 0
-1032 -1167 0
-1036 -1156 0
-1037 -1157 0
-1038 -1158 0
-1036 -1285 0
-1037 -1286 0
-1038 -1287 0
-1036 -1297 0
-1037 -1298 0
-1038 -1299 0
-1039 -1450 0
-1040 -1451 0
-1041 -1452 0
-1042 -1384 0
-1043 -1385 0
-1044 -1386 0
-1045 -1198 0
-1046 -1199 0
-1047 -1200 0
-1051 -1120 0
-1052 -1121 0
-1053 -1122 0
-1051 -1123 0
-1052 -1124 0
-1053 -1125 0
-1060 -1084 0
-1061 -1085 0
-1062 -1086 0
-1063 -1114 0
-1064 -1115 0
-1065 -1116 0
-1063 -1213 0
-1064 -1214 0
-1065 -1215 0
-1066 -1447 0
-1067 -1448 0
-1068 -1449 0
-1066 -1495 0
-1067 -1496 0
-1068 -1497 0
-1069 -1144 0
-1070 -1145 0
-1071 -1146 0
-1069 -1465 0
-1070 -1466 0
-1071 -1467 0
-1069 -1489 0
-1070 -1490 0
-1071 -1491 0
-1072 -1252 0
-1073 -1253 0
-1074 -1254 0
-1075 -1174 0
-1076 -1175 0
-1077 -1176 0
-1078 -1396 0
-1079 -1397 0
-1080 -1398 0
-1087 -1294 0
-1088 -1295 0
-1089 -1296 0
-1087 -1468 0
-1088 -1469 0
-1089 -1470 0
-1093 -1336 0
-1094 -1337 0
-1095 -1338 0
-1096 -1138 0
-1097 -1139 0
-1098 -1140 0
-1096 -1369 0
-1097 -1370 0
-1098 -1371 0
-1099 -1195 0
-1100 -1196 0
-1101 -1197 0
-1099 -1414 0
-1100 -1415 0
-1101 -1416 0
-1102 -1255 0
-1103 -1256 0
-1104 -1257 0
-1108 -1207 0
-1109 -1208 0
-1110 -1209 0
-1111 -1120 0
-1112 -1121 0
-1113 -1122 0
-1111 -1453 0
-1112 -1454 0
-1113 -1455 0
-1111 -1465 0
-1112 -1466 0
-1113 -1467 0
-1114 -1315 0
-1115 -1316 0
-1116 -1317 0
-1117 -1186 0
-1118 -1187 0
-1119 -1188 0
-1120 -1198 0
-1121 -1199 0
-1122 -1200 0
-1120 -1495 0
-1121 -1496 0
-1122 -1497 0
-1135 -1210 0
-1136 -1211 0
-1137 -1212 0
-1135 -1285 0
-1136 -1286 0
-1137 -1287 0
-1141 -1432 0
-1142 -1433 0
-1143 -1434 0
-1144 -1273 0
-1145 -1274 0
-1146 -1275 0
-1144 -1279 0
-1145 -1280 0
-1146 -1281 0
-1147 -1483 0
-1148 -1484 0
-1149 -1485 0
-1153 -1426 0
-1154 -1427 0
-1155 -1428 0
-1165 -1354 0
-1166 -1355 0
-1167 -1356 0
-1168 -1225 0
-1169 -1226 0
-1170 -1227 0
-1171 -1210 0
-1172 -1211 0
-1173 -1212 0
-1171 -1240 0
-1172 -1241 0
-1173 -1242 0
-1174 -1177 0
-1175 -1178 0
-1176 -1179 0
-1177 -1297 0
-1178 -1298 0
-1179 -1299 0
-1180 -1438 0
-1181 -1439 0
-1182 -1440 0
-1189 -1327 0
-1190 -1328 0
-1191 -1329 0
-1192 -1243 0
-1193 -1244 0
-1194 -1245 0
-1192 -1456 0
-1193 -1457 0
-1194 -1458 0
-1195 -1213 0
-1196 -1214 0
-1197 -1215 0
-1195 -1390 0
-1196 -1391 0
-1197 -1392 0
-1201 -1375 0
-1202 -1376 0
-1203 -1377 0
-1204 -1210 0
-1205 -1211 0
-1206 -1212 0
-1207 -1408 0
-1208 -1409 0
-1209 -1410 0
-1210 -1285 0
-1211 -1286 0
-1212 -1287 0
-1210 -1450 0
-1211 -1451 0
-1212 -1452 0
-1213 -1375 0
-1214 -1376 0
-1215 -1377 0
-1213 -1423 0
-1214 -1424 0
-1215 -1425 0
-1213 -1456 0
-1214 -1457 0
-1215 -1458 0
-1213 -1492 0
-1214 -1493 0
-1215 -1494 0
-1216 -1240 0
-1217 -1241 0
-1218 -1242 0
-1219 -1291 0
-1220 -1292 0
-1221 -1293 0
-1222 -1357 0
-1223 -1358 0
-1224 -1359 0
-1222 -1363 0
-1223 -1364 0
-1224 -1365 0
-1222 -1462 0
-1223 -1463 0
-1224 -1464 0
-1231 -1369 0
-1232 -1370 0
-1233 -1371 0
-1234 -1339 0
-1235 -1340 0
-1236 -1341 0
-1234 -1342 0
-1235 -1343 0
-1236 -1344 0
-1237 -1252 0
-1238 -1253 0
-1239 -1254 0
-1240 -1426 0
-1241 -1427 0
-1242 -1428 0
-1243 -1282 0
-1244 -1283 0
-1245 -1284 0
-1246 -1330 0
-1247 -1331 0
-1248 -1332 0
-1246 -1402 0
-1247 -1403 0
-1248 -1404 0
-1246 -1435 0
-1247 -1436 0
-1248 -1437 0
-1249 -1255 0
-1250 -1256 0
-1251 -1257 0
-1252 -1462 0
-1253 -1463 0
-1254 -1464 0
-1264 -1402 0
-1265 -1403 0
-1266 -1404 0
-1285 -1408 0
-1286 -1409 0
-1287 -1410 0
-1294 -1456 0
-1295 -1457 0
-1296 -1458 0
-1297 -1495 0
-1298 -1496 0
-1299 -1497 0
-1324 -1333 0
-1325 -1334 0
-1326 -1335 0
-1330 -1339 0
-1331 -1340 0
-1332 -1341 0
-1330 -1435 0
-1331 -1436 0
-1332 -1437 0
-1333 -1435 0
-1334 -1436 0
-1335 -1437 0
-1333 -1474 0
-1334 -1475 0
-1335 -1476 0
-1336 -1387 0
-1337 -1388 0
-1338 -1389 0
-1342 -1402 0
-1343 -1403 0
-1344 -1404 0
-1348 -1483 0
-1349 -1484 0
-1350 -1485 0
-1363 -1378 0
-1364 -1379 0
-1365 -1380 0
-1384 -1414 0
-1385 -1415 0
-1386 -1416 0
-1396 -1453 0
-1397 -1454 0
-1398 -1455 0
-1396 -1471 0
-1397 -1472 0
-1398 -1473 0
-1402 -1432 0
-1403 -1433 0
-1404 -1434 0
-1432 -1480 0
-1433 -1481 0
-1434 -1482 0
-1453 -1489 0
-1454 -1490 0
-1455 -1491 0
-1462 -1486 0
-1463 -1487 0
-1464 -1488 0
-1474 -1498 0
-1475 -1499 0
-1476 -1500 0
-1486 -1495 0
-1487 -1496 0
-1488 -1497 0
