p cnf 1500 5393
1 2 3 0
4 5 6 0
7 8 9 0
10 11 12 0
13 14 15 0
16 17 18 0
19 20 21 0
22 23 24 0
25 26 27 0
28 29 30 0
31 32 33 0
34 35 36 0
37 38 39 0
40 41 42 0
43 44 45 0
46 47 48 0
49 50 51 0
52 53 54 0
55 56 57 0
58 59 60 0
61 62 63 0
64 65 66 0
67 68 69 0
70 71 72 0
73 74 75 0
76 77 78 0
79 80 81 0
82 83 84 0
85 86 87 0
88 89 90 0
91 92 93 0
94 95 96 0
97 98 99 0
100 101 102 0
103 104 105 0
106 107 108 0
109 110 111 0
112 113 114 0
115 116 117 0
118 119 120 0
121 122 123 0
124 125 126 0
127 128 129 0
130 131 132 0
133 134 135 0
136 137 138 0
139 140 141 0
142 143 144 0
145 146 147 0
148 149 150 0
151 152 153 0
154 155 156 0
157 158 159 0
160 161 162 0
163 164 165 0
166 167 168 0
169 170 171 0
172 173 174 0
175 176 177 0
178 179 180 0
181 182 183 0
184 185 186 0
187 188 189 0
190 191 192 0
193 194 195 0
196 197 198 0
199 200 201 0
202 203 204 0
205 206 207 0
208 209 210 0
211 212 213 0
214 215 216 0
217 218 219 0
220 221 222 0
223 224 225 0
226 227 228 0
229 230 231 0
232 233 234 0
235 236 237 0
238 239 240 0
241 242 243 0
244 245 246 0
247 248 249 0
250 251 252 0
253 254 255 0
256 257 258 0
259 260 261 0
262 263 264 0
265 266 267 0
268 269 270 0
271 272 273 0
274 275 276 0
277 278 279 0
280 281 282 0
283 284 285 0
286 287 288 0
289 290 291 0
292 293 294 0
295 296 297 0
298 299 300 0
301 302 303 0
304 305 306 0
307 308 309 0
310 311 312 0
313 314 315 0
316 317 318 0
319 320 321 0
322 323 324 0
325 326 327 0
328 329 330 0
331 332 333 0
334 335 336 0
337 338 339 0
340 341 342 0
343 344 345 0
346 347 348 0
349 350 351 0
352 353 354 0
355 356 357 0
358 359 360 0
361 362 363 0
364 365 366 0
367 368 369 0
370 371 372 0
373 374 375 0
376 377 378 0
379 380 381 0
382 383 384 0
385 386 387 0
388 389 390 0
391 392 393 0
394 395 396 0
397 398 399 0
400 401 402 0
403 404 405 0
406 407 408 0
409 410 411 0
412 413 414 0
415 416 417 0
418 419 420 0
421 422 423 0
424 425 426 0
427 428 429 0
430 431 432 0
433 434 435 0
436 437 438 0
439 440 441 0
442 443 444 0
445 446 447 0
448 449 450 0
451 452 453 0
454 455 456 0
457 458 459 0
460 461 462 0
463 464 465 0
466 467 468 0
469 470 471 0
472 473 474 0
475 476 477 0
478 479 480 0
481 482 483 0
484 485 486 0
487 488 489 0
490 491 492 0
493 494 495 0
496 497 498 0
499 500 501 0
502 503 504 0
505 506 507 0
508 509 510 0
511 512 513 0
514 515 516 0
517 518 519 0
520 521 522 0
523 524 525 0
526 527 528 0
529 530 531 0
532 533 534 0
535 536 537 0
538 539 540 0
541 542 543 0
544 545 546 0
547 548 549 0
550 551 552 0
553 554 555 0
556 557 558 0
559 560 561 0
562 563 564 0
565 566 567 0
568 569 570 0
571 572 573 0
574 575 576 0
577 578 579 0
580 581 582 0
583 584 585 0
586 587 588 0
589 590 591 0
592 593 594 0
595 596 597 0
598 599 600 0
601 602 603 0
604 605 606 0
607 608 609 0
610 611 612 0
613 614 615 0
616 617 618 0
619 620 621 0
622 623 624 0
625 626 627 0
628 629 630 0
631 632 633 0
634 635 636 0
637 638 639 0
640 641 642 0
643 644 645 0
646 647 648 0
649 650 651 0
652 653 654 0
655 656 657 0
658 659 660 0
661 662 663 0
664 665 666 0
667 668 669 0
670 671 672 0
673 674 675 0
676 677 678 0
679 680 681 0
682 683 684 0
685 686 687 0
688 689 690 0
691 692 693 0
694 695 696 0
697 698 699 0
700 701 702 0
703 704 705 0
706 707 708 0
709 710 711 0
712 713 714 0
715 716 717 0
718 719 720 0
721 722 723 0
724 725 726 0
727 728 729 0
730 731 732 0
733 734 735 0
736 737 738 0
739 740 741 0
742 743 744 0
745 746 747 0
748 749 750 0
751 752 753 0
754 755 756 0
757 758 759 0
760 761 762 0
763 764 765 0
766 767 768 0
769 770 771 0
772 773 774 0
775 776 777 0
778 779 780 0
781 782 783 0
784 785 786 0
787 788 789 0
790 791 792 0
793 794 795 0
796 797 798 0
799 800 801 0
802 803 804 0
805 806 807 0
808 809 810 0
811 812 813 0
814 815 816 0
817 818 819 0
820 821 822 0
823 824 825 0
826 827 828 0
829 830 831 0
832 833 834 0
835 836 837 0
838 839 840 0
841 842 843 0
844 845 846 0
847 848 849 0
850 851 852 0
853 854 855 0
856 857 858 0
859 860 861 0
862 863 864 0
865 866 867 0
868 869 870 0
871 872 873 0
874 875 876 0
877 878 879 0
880 881 882 0
883 884 885 0
886 887 888 0
889 890 891 0
892 893 894 0
895 896 897 0
898 899 900 0
901 902 903 0
904 905 906 0
907 908 909 0
910 911 912 0
913 914 915 0
916 917 918 0
919 920 921 0
922 923 924 0
925 926 927 0
928 929 930 0
931 932 933 0
934 935 936 0
937 938 939 0
940 941 942 0
943 944 945 0
946 947 948 0
949 950 951 0
952 953 954 0
955 956 957 0
958 959 960 0
961 962 963 0
964 965 966 0
967 968 969 0
970 971 972 0
973 974 975 0
976 977 978 0
979 980 981 0
982 983 984 0
985 986 987 0
988 989 990 0
991 992 993 0
994 995 996 0
997 998 999 0
1000 1001 1002 0
1003 1004 1005 0
1006 1007 1008 0
1009 1010 1011 0
1012 1013 1014 0
1015 1016 1017 0
1018 1019 1020 0
1021 1022 1023 0
1024 1025 1026 0
1027 1028 1029 0
1030 1031 1032 0
1033 1034 1035 0
1036 1037 1038 0
1039 1040 1041 0
1042 1043 1044 0
1045 1046 1047 0
1048 1049 1050 0
1051 1052 1053 0
1054 1055 1056 0
1057 1058 1059 0
1060 1061 1062 0
1063 1064 1065 0
1066 1067 1068 0
1069 1070 1071 0
1072 1073 1074 0
1075 1076 1077 0
1078 1079 1080 0
1081 1082 1083 0
1084 1085 1086 0
1087 1088 1089 0
1090 1091 1092 0
1093 1094 1095 0
1096 1097 1098 0
1099 1100 1101 0
1102 1103 1104 0
1105 1106 1107 0
1108 1109 1110 0
1111 1112 1113 0
1114 1115 1116 0
1117 1118 1119 0
1120 1121 1122 0
1123 1124 1125 0
1126 1127 1128 0
1129 1130 1131 0
1132 1133 1134 0
1135 1136 1137 0
1138 1139 1140 0
1141 1142 1143 0
1144 1145 1146 0
1147 1148 1149 0
1150 1151 1152 0
1153 1154 1155 0
1156 1157 1158 0
1159 1160 1161 0
1162 1163 1164 0
1165 1166 1167 0
1168 1169 1170 0
1171 1172 1173 0
1174 1175 1176 0
1177 1178 1179 0
1180 1181 1182 0
1183 1184 1185 0
1186 1187 1188 0
1189 1190 1191 0
1192 1193 1194 0
1195 1196 1197 0
1198 1199 1200 0
1201 1202 1203 0
1204 1205 1206 0
1207 1208 1209 0
1210 1211 1212 0
1213 1214 1215 0
1216 1217 1218 0
1219 1220 1221 0
1222 1223 1224 0
1225 1226 1227 0
1228 1229 1230 0
1231 1232 1233 0
1234 1235 1236 0
1237 1238 1239 0
1240 1241 1242 0
1243 1244 1245 0
1246 1247 1248 0
1249 1250 1251 0
1252 1253 1254 0
1255 1256 1257 0
1258 1259 1260 0
1261 1262 1263 0
1264 1265 1266 0
1267 1268 1269 0
1270 1271 1272 0
1273 1274 1275 0
1276 1277 1278 0
1279 1280 1281 0
1282 1283 1284 0
1285 1286 1287 0
1288 1289 1290 0
1291 1292 1293 0
1294 1295 1296 0
1297 1298 1299 0
1300 1301 1302 0
1303 1304 1305 0
1306 1307 1308 0
1309 1310 1311 0
1312 1313 1314 0
1315 1316 1317 0
1318 1319 1320 0
1321 1322 1323 0
1324 1325 1326 0
1327 1328 1329 0
1330 1331 1332 0
1333 1334 1335 0
1336 1337 1338 0
1339 1340 1341 0
1342 1343 1344 0
1345 1346 1347 0
1348 1349 1350 0
1351 1352 1353 0
1354 1355 1356 0
1357 1358 1359 0
1360 1361 1362 0
1363 1364 1365 0
1366 1367 1368 0
1369 1370 1371 0
1372 1373 1374 0
1375 1376 1377 0
1378 1379 1380 0
1381 1382 1383 0
1384 1385 1386 0
1387 1388 1389 0
1390 1391 1392 0
1393 1394 1395 0
1396 1397 1398 0
1399 1400 1401 0
1402 1403 1404 0
1405 1406 1407 0
1408 1409 1410 0
1411 1412 1413 0
1414 1415 1416 0
1417 1418 1419 0
1420 1421 1422 0
1423 1424 1425 0
1426 1427 1428 0
1429 1430 1431 0
1432 1433 1434 0
1435 1436 1437 0
1438 1439 1440 0
1441 1442 1443 0
1444 1445 1446 0
1447 1448 1449 0
1450 1451 1452 0
1453 1454 1455 0
1456 1457 1458 0
1459 1460 1461 0
1462 1463 1464 0
1465 1466 1467 0
1468 1469 1470 0
1471 1472 1473 0
1474 1475 1476 0
1477 1478 1479 0
1480 1481 1482 0
1483 1484 1485 0
1486 1487 1488 0
1489 1490 1491 0
1492 1493 1494 0
1495 1496 1497 0
1498 1499 1500 0
-1 -2 0
-1 -3 0
-2 -3 0
-4 -5 0
-4 -6 0
-5 -6 0
-7 -8 0
-7 -9 0
-8 -9 0
-10 -11 0
-10 -12 0
-11 -12 0
-13 -14 0
-13 -15 0
-14 -15 0
-16 -17 0
-16 -18 0
-17 -18 0
-19 -20 0
-19 -21 0
-20 -21 0
-22 -23 0
-22 -24 0
-23 -24 0
-25 -26 0
-25 -27 0
-26 -27 0
-28 -29 0
-28 -30 0
-29 -30 0
-31 -32 0
-31 -33 0
-32 -33 0
-34 -35 0
-34 -36 0
-35 -36 0
-37 -38 0
-37 -39 0
-38 -39 0
-40 -41 0
-40 -42 0
-41 -42 0
-43 -44 0
-43 -45 0
-44 -45 0
-46 -47 0
-46 -48 0
-47 -48 0
-49 -50 0
-49 -51 0
-50 -51 0
-52 -53 0
-52 -54 0
-53 -54 0
-55 -56 0
-55 -57 0
-56 -57 0
-58 -59 0
-58 -60 0
-59 -60 0
-61 -62 0
-61 -63 0
-62 -63 0
-64 -65 0
-64 -66 0
-65 -66 0
-67 -68 0
-67 -69 0
-68 -69 0
-70 -71 0
-70 -72 0
-71 -72 0
-73 -74 0
-73 -75 0
-74 -75 0
-76 -77 0
-76 -78 0
-77 -78 0
-79 -80 0
-79 -81 0
-80 -81 0
-82 -83 0
-82 -84 0
-83 -84 0
-85 -86 0
-85 -87 0
-86 -87 0
-88 -89 0
-88 -90 0
-89 -90 0
-91 -92 0
-91 -93 0
-92 -93 0
-94 -95 0
-94 -96 0
-95 -96 0
-97 -98 0
-97 -99 0
-98 -99 0
-100 -101 0
-100 -102 0
-101 -102 0
-103 -104 0
-103 -105 0
-104 -105 0
-106 -107 0
-106 -108 0
-107 -108 0
-109 -110 0
-109 -111 0
-110 -111 0
-112 -113 0
-112 -114 0
-113 -114 0
-115 -116 0
-115 -117 0
-116 -117 0
-118 -119 0
-118 -120 0
-119 -120 0
-121 -122 0
-121 -123 0
-122 -123 0
-124 -125 0
-124 -126 0
-125 -126 0
-127 -128 0
-127 -129 0
-128 -129 0
-130 -131 0
-130 -132 0
-131 -132 0
-133 -134 0
-133 -135 0
-134 -135 0
-136 -137 0
-136 -138 0
-137 -138 0
-139 -140 0
-139 -141 0
-140 -141 0
-142 -143 0
-142 -144 0
-143 -144 0
-145 -146 0
-145 -147 0
-146 -147 0
-148 -149 0
-148 -150 0
-149 -150 0
-151 -152 0
-151 -153 0
-152 -153 0
-154 -155 0
-154 -156 0
-155 -156 0
-157 -158 0
-157 -159 0
-158 -159 0
-160 -161 0
-160 -162 0
-161 -162 0
-163 -164 0
-163 -165 0
-164 -165 0
-166 -167 0
-166 -168 0
-167 -168 0
-169 -170 0
-169 -171 0
-170 -171 0
-172 -173 0
-172 -174 0
-173 -174 0
-175 -176 0
-175 -177 0
-176 -177 0
-178 -179 0
-178 -180 0
-179 -180 0
-181 -182 0
-181 -183 0
-182 -183 0
-184 -185 0
-184 -186 0
-185 -186 0
-187 -188 0
-187 -189 0
-188 -189 0
-190 -191 0
-190 -192 0
-191 -192 0
-193 -194 0
-193 -195 0
-194 -195 0
-196 -197 0
-196 -198 0
-197 -198 0
-199 -200 0
-199 -201 0
-200 -201 0
-202 -203 0
-202 -204 0
-203 -204 0
-205 -206 0
-205 -207 0
-206 -207 0
-208 -209 0
-208 -210 0
-209 -210 0
-211 -212 0
-211 -213 0
-212 -213 0
-214 -215 0
-214 -216 0
-215 -216 0
-217 -218 0
-217 -219 0
-218 -219 0
-220 -221 0
-220 -222 0
-221 -222 0
-223 -224 0
-223 -225 0
-224 -225 0
-226 -227 0
-226 -228 0
-227 -228 0
-229 -230 0
-229 -231 0
-230 -231 0
-232 -233 0
-232 -234 0
-233 -234 0
-235 -236 0
-235 -237 0
-236 -237 0
-238 -239 0
-238 -240 0
-239 -240 0
-241 -242 0
-241 -243 0
-242 -243 0
-244 -245 0
-244 -246 0
-245 -246 0
-247 -248 0
-247 -249 0
-248 -249 0
-250 -251 0
-250 -252 0
-251 -252 0
-253 -254 0
-253 -255 0
-254 -255 0
-256 -257 0
-256 -258 0
-257 -258 0
-259 -260 0
-259 -261 0
-260 -261 0
-262 -263 0
-262 -264 0
-263 -264 0
-265 -266 0
-265 -267 0
-266 -267 0
-268 -269 0
-268 -270 0
-269 -270 0
-271 -272 0
-271 -273 0
-272 -273 0
-274 -275 0
-274 -276 0
-275 -276 0
-277 -278 0
-277 -279 0
-278 -279 0
-280 -281 0
-280 -282 0
-281 -282 0
-283 -284 0
-283 -285 0
-284 -285 0
-286 -287 0
-286 -288 0
-287 -288 0
-289 -290 0
-289 -291 0
-290 -291 0
-292 -293 0
-292 -294 0
-293 -294 0
-295 -296 0
-295 -297 0
-296 -297 0
-298 -299 0
-298 -300 0
-299 -300 0
-301 -302 0
-301 -303 0
-302 -303 0
-304 -305 0
-304 -306 0
-305 -306 0
-307 -308 0
-307 -309 0
-308 -309 0
-310 -311 0
-310 -312 0
-311 -312 0
-313 -314 0
-313 -315 0
-314 -315 0
-316 -317 0
-316 -318 0
-317 -318 0
-319 -320 0
-319 -321 0
-320 -321 0
-322 -323 0
-322 -324 0
-323 -324 0
-325 -326 0
-325 -327 0
-326 -327 0
-328 -329 0
-328 -330 0
-329 -330 0
-331 -332 0
-331 -333 0
-332 -333 0
-334 -335 0
-334 -336 0
-335 -336 0
-337 -338 0
-337 -339 0
-338 -339 0
-340 -341 0
-340 -342 0
-341 -342 0
-343 -344 0
-343 -345 0
-344 -345 0
-346 -347 0
-346 -348 0
-347 -348 0
-349 -350 0
-349 -351 0
-350 -351 0
-352 -353 0
-352 -354 0
-353 -354 0
-355 -356 0
-355 -357 0
-356 -357 0
-358 -359 0
-358 -360 0
-359 -360 0
-361 -362 0
-361 -363 0
-362 -363 0
-364 -365 0
-364 -366 0
-365 -366 0
-367 -368 0
-367 -369 0
-368 -369 0
-370 -371 0
-370 -372 0
-371 -372 0
-373 -374 0
-373 -375 0
-374 -375 0
-376 -377 0
-376 -378 0
-377 -378 0
-379 -380 0
-379 -381 0
-380 -381 0
-382 -383 0
-382 -384 0
-383 -384 0
-385 -386 0
-385 -387 0
-386 -387 0
-388 -389 0
-388 -390 0
-389 -390 0
-391 -392 0
-391 -393 0
-392 -393 0
-394 -395 0
-394 -396 0
-395 -396 0
-397 -398 0
-397 -399 0
-398 -399 0
-400 -401 0
-400 -402 0
-401 -402 0
-403 -404 0
-403 -405 0
-404 -405 0
-406 -407 0
-406 -408 0
-407 -408 0
-409 -410 0
-409 -411 0
-410 -411 0
-412 -413 0
-412 -414 0
-413 -414 0
-415 -416 0
-415 -417 0
-416 -417 0
-418 -419 0
-418 -420 0
-419 -420 0
-421 -422 0
-421 -423 0
-422 -423 0
-424 -425 0
-424 -426 0
-425 -426 0
-427 -428 0
-427 -429 0
-428 -429 0
-430 -431 0
-430 -432 0
-431 -432 0
-433 -434 0
-433 -435 0
-434 -435 0
-436 -437 0
-436 -438 0
-437 -438 0
-439 -440 0
-439 -441 0
-440 -441 0
-442 -443 0
-442 -444 0
-443 -444 0
-445 -446 0
-445 -447 0
-446 -447 0
-448 -449 0
-448 -450 0
-449 -450 0
-451 -452 0
-451 -453 0
-452 -453 0
-454 -455 0
-454 -456 0
-455 -456 0
-457 -458 0
-457 -459 0
-458 -459 0
-460 -461 0
-460 -462 0
-461 -462 0
-463 -464 0
-463 -465 0
-464 -465 0
-466 -467 0
-466 -468 0
-467 -468 0
-469 -470 0
-469 -471 0
-470 -471 0
-472 -473 0
-472 -474 0
-473 -474 0
-475 -476 0
-475 -477 0
-476 -477 0
-478 -479 0
-478 -480 0
-479 -480 0
-481 -482 0
-481 -483 0
-482 -483 0
-484 -485 0
-484 -486 0
-485 -486 0
-487 -488 0
-487 -489 0
-488 -489 0
-490 -491 0
-490 -492 0
-491 -492 0
-493 -494 0
-493 -495 0
-494 -495 0
-496 -497 0
-496 -498 0
-497 -498 0
-499 -500 0
-499 -501 0
-500 -501 0
-502 -503 0
-502 -504 0
-503 -504 0
-505 -506 0
-505 -507 0
-506 -507 0
-508 -509 0
-508 -510 0
-509 -510 0
-511 -512 0
-511 -513 0
-512 -513 0
-514 -515 0
-514 -516 0
-515 -516 0
-517 -518 0
-517 -519 0
-518 -519 0
-520 -521 0
-520 -522 0
-521 -522 0
-523 -524 0
-523 -525 0
-524 -525 0
-526 -527 0
-526 -528 0
-527 -528 0
-529 -530 0
-529 -531 0
-530 -531 0
-532 -533 0
-532 -534 0
-533 -534 0
-535 -536 0
-535 -537 0
-536 -537 0
-538 -539 0
-538 -540 0
-539 -540 0
-541 -542 0
-541 -543 0
-542 -543 0
-544 -545 0
-544 -546 0
-545 -546 0
-547 -548 0
-547 -549 0
-548 -549 0
-550 -551 0
-550 -552 0
-551 -552 0
-553 -554 0
-553 -555 0
-554 -555 0
-556 -557 0
-556 -558 0
-557 -558 0
-559 -560 0
-559 -561 0
-560 -561 0
-562 -563 0
-562 -564 0
-563 -564 0
-565 -566 0
-565 -567 0
-566 -567 0
-568 -569 0
-568 -570 0
-569 -570 0
-571 -572 0
-571 -573 0
-572 -573 0
-574 -575 0
-574 -576 0
-575 -576 0
-577 -578 0
-577 -579 0
-578 -579 0
-580 -581 0
-580 -582 0
-581 -582 0
-583 -584 0
-583 -585 0
-584 -585 0
-586 -587 0
-586 -588 0
-587 -588 0
-589 -590 0
-589 -591 0
-590 -591 0
-592 -593 0
-592 -594 0
-593 -594 0
-595 -596 0
-595 -597 0
-596 -597 0
-598 -599 0
-598 -600 0
-599 -600 0
-601 -602 0
-601 -603 0
-602 -603 0
-604 -605 0
-604 -606 0
-605 -606 0
-607 -608 0
-607 -609 0
-608 -609 0
-610 -611 0
-610 -612 0
-611 -612 0
-613 -614 0
-613 -615 0
-614 -615 0
-616 -617 0
-616 -618 0
-617 -618 0
-619 -620 0
-619 -621 0
-620 -621 0
-622 -623 0
-622 -624 0
-623 -624 0
-625 -626 0
-625 -627 0
-626 -627 0
-628 -629 0
-628 -630 0
-629 -630 0
-631 -632 0
-631 -633 0
-632 -633 0
-634 -635 0
-634 -636 0
-635 -636 0
-637 -638 0
-637 -639 0
-638 -639 0
-640 -641 0
-640 -642 0
-641 -642 0
-643 -644 0
-643 -645 0
-644 -645 0
-646 -647 0
-646 -648 0
-647 -648 0
-649 -650 0
-649 -651 0
-650 -651 0
-652 -653 0
-652 -654 0
-653 -654 0
-655 -656 0
-655 -657 0
-656 -657 0
-658 -659 0
-658 -660 0
-659 -660 0
-661 -662 0
-661 -663 0
-662 -663 0
-664 -665 0
-664 -666 0
-665 -666 0
-667 -668 0
-667 -669 0
-668 -669 0
-670 -671 0
-670 -672 0
-671 -672 0
-673 -674 0
-673 -675 0
-674 -675 0
-676 -677 0
-676 -678 0
-677 -678 0
-679 -680 0
-679 -681 0
-680 -681 0
-682 -683 0
-682 -684 0
-683 -684 0
-685 -686 0
-685 -687 0
-686 -687 0
-688 -689 0
-688 -690 0
-689 -690 0
-691 -692 0
-691 -693 0
-692 -693 0
-694 -695 0
-694 -696 0
-695 -696 0
-697 -698 0
-697 -699 0
-698 -699 0
-700 -701 0
-700 -702 0
-701 -702 0
-703 -704 0
-703 -705 0
-704 -705 0
-706 -707 0
-706 -708 0
-707 -708 0
-709 -710 0
-709 -711 0
-710 -711 0
-712 -713 0
-712 -714 0
-713 -714 0
-715 -716 0
-715 -717 0
-716 -717 0
-718 -719 0
-718 -720 0
-719 -720 0
-721 -722 0
-721 -723 0
-722 -723 0
-724 -725 0
-724 -726 0
-725 -726 0
-727 -728 0
-727 -729 0
-728 -729 0
-730 -731 0
-730 -732 0
-731 -732 0
-733 -734 0
-733 -735 0
-734 -735 0
-736 -737 0
-736 -738 0
-737 -738 0
-739 -740 0
-739 -741 0
-740 -741 0
-742 -743 0
-742 -744 0
-743 -744 0
-745 -746 0
-745 -747 0
-746 -747 0
-748 -749 0
-748 -750 0
-749 -750 0
-751 -752 0
-751 -753 0
-752 -753 0
-754 -755 0
-754 -756 0
-755 -756 0
-757 -758 0
-757 -759 0
-758 -759 0
-760 -761 0
-760 -762 0
-761 -762 0
-763 -764 0
-763 -765 0
-764 -765 0
-766 -767 0
-766 -768 0
-767 -768 0
-769 -770 0
-769 -771 0
-770 -771 0
-772 -773 0
-772 -774 0
-773 -774 0
-775 -776 0
-775 -777 0
-776 -777 0
-778 -779 0
-778 -780 0
-779 -780 0
-781 -782 0
-781 -783 0
-782 -783 0
-784 -785 0
-784 -786 0
-785 -786 0
-787 -788 0
-787 -789 0
-788 -789 0
-790 -791 0
-790 -792 0
-791 -792 0
-793 -794 0
-793 -795 0
-794 -795 0
-796 -797 0
-796 -798 0
-797 -798 0
-799 -800 0
-799 -801 0
-800 -801 0
-802 -803 0
-802 -804 0
-803 -804 0
-805 -806 0
-805 -807 0
-806 -807 0
-808 -809 0
-808 -810 0
-809 -810 0
-811 -812 0
-811 -813 0
-812 -813 0
-814 -815 0
-814 -816 0
-815 -816 0
-817 -818 0
-817 -819 0
-818 -819 0
-820 -821 0
-820 -822 0
-821 -822 0
-823 -824 0
-823 -825 0
-824 -825 0
-826 -827 0
-826 -828 0
-827 -828 0
-829 -830 0
-829 -831 0
-830 -831 0
-832 -833 0
-832 -834 0
-833 -834 0
-835 -836 0
-835 -837 0
-836 -837 0
-838 -839 0
-838 -840 0
-839 -840 0
-841 -842 0
-841 -843 0
-842 -843 0
-844 -845 0
-844 -846 0
-845 -846 0
-847 -848 0
-847 -849 0
-848 -849 0
-850 -851 0
-850 -852 0
-851 -852 0
-853 -854 0
-853 -855 0
-854 -855 0
-856 -857 0
-856 -858 0
-857 -858 0
-859 -860 0
-859 -861 0
-860 -861 0
-862 -863 0
-862 -864 0
-863 -864 0
-865 -866 0
-865 -867 0
-866 -867 0
-868 -869 0
-868 -870 0
-869 -870 0
-871 -872 0
-871 -873 0
-872 -873 0
-874 -875 0
-874 -876 0
-875 -876 0
-877 -878 0
-877 -879 0
-878 -879 0
-880 -881 0
-880 -882 0
-881 -882 0
-883 -884 0
-883 -885 0
-884 -885 0
-886 -887 0
-886 -888 0
-887 -888 0
-889 -890 0
-889 -891 0
-890 -891 0
-892 -893 0
-892 -894 0
-893 -894 0
-895 -896 0
-895 -897 0
-896 -897 0
-898 -899 0
-898 -900 0
-899 -900 0
-901 -902 0
-901 -903 0
-902 -903 0
-904 -905 0
-904 -906 0
-905 -906 0
-907 -908 0
-907 -909 0
-908 -909 0
-910 -911 0
-910 -912 0
-911 -912 0
-913 -914 0
-913 -915 0
-914 -915 0
-916 -917 0
-916 -918 0
-917 -918 0
-919 -920 0
-919 -921 0
-920 -921 0
-922 -923 0
-922 -924 0
-923 -924 0
-925 -926 0
-925 -927 0
-926 -927 0
-928 -929 0
-928 -930 0
-929 -930 0
-931 -932 0
-931 -933 0
-932 -933 0
-934 -935 0
-934 -936 0
-935 -936 0
-937 -938 0
-937 -939 0
-938 -939 0
-940 -941 0
-940 -942 0
-941 -942 0
-943 -944 0
-943 -945 0
-944 -945 0
-946 -947 0
-946 -948 0
-947 -948 0
-949 -950 0
-949 -951 0
-950 -951 0
-952 -953 0
-952 -954 0
-953 -954 0
-955 -956 0
-955 -957 0
-956 -957 0
-958 -959 0
-958 -960 0
-959 -960 0
-961 -962 0
-961 -963 0
-962 -963 0
-964 -965 0
-964 -966 0
-965 -966 0
-967 -968 0
-967 -969 0
-968 -969 0
-970 -971 0
-970 -972 0
-971 -972 0
-973 -974 0
-973 -975 0
-974 -975 0
-976 -977 0
-976 -978 0
-977 -978 0
-979 -980 0
-979 -981 0
-980 -981 0
-982 -983 0
-982 -984 0
-983 -984 0
-985 -986 0
-985 -987 0
-986 -987 0
-988 -989 0
-988 -990 0
-989 -990 0
-991 -992 0
-991 -993 0
-992 -993 0
-994 -995 0
-994 -996 0
-995 -996 0
-997 -998 0
-997 -999 0
-998 -999 0
-1000 -1001 0
-1000 -1002 0
-1001 -1002 0
-1003 -1004 0
-1003 -1005 0
-1004 -1005 0
-1006 -1007 0
-1006 -1008 0
-1007 -1008 0
-1009 -1010 0
-1009 -1011 0
-1010 -1011 0
-1012 -1013 0
-1012 -1014 0
-1013 -1014 0
-1015 -1016 0
-1015 -1017 0
-1016 -1017 0
-1018 -1019 0
-1018 -1020 0
-1019 -1020 0
-1021 -1022 0
-1021 -1023 0
-1022 -1023 0
-1024 -1025 0
-1024 -1026 0
-1025 -1026 0
-1027 -1028 0
-1027 -1029 0
-1028 -1029 0
-1030 -1031 0
-1030 -1032 0
-1031 -1032 0
-1033 -1034 0
-1033 -1035 0
-1034 -1035 0
-1036 -1037 0
-1036 -1038 0
-1037 -1038 0
-1039 -1040 0
-1039 -1041 0
-1040 -1041 0
-1042 -1043 0
-1042 -1044 0
-1043 -1044 0
-1045 -1046 0
-1045 -1047 0
-1046 -1047 0
-1048 -1049 0
-1048 -1050 0
-1049 -1050 0
-1051 -1052 0
-1051 -1053 0
-1052 -1053 0
-1054 -1055 0
-1054 -1056 0
-1055 -1056 0
-1057 -1058 0
-1057 -1059 0
-1058 -1059 0
-1060 -1061 0
-1060 -1062 0
-1061 -1062 0
-1063 -1064 0
-1063 -1065 0
-1064 -1065 0
-1066 -1067 0
-1066 -1068 0
-1067 -1068 0
-1069 -1070 0
-1069 -1071 0
-1070 -1071 0
-1072 -1073 0
-1072 -1074 0
-1073 -1074 0
-1075 -1076 0
-1075 -1077 0
-1076 -1077 0
-1078 -1079 0
-1078 -1080 0
-1079 -1080 0
-1081 -1082 0
-1081 -1083 0
-1082 -1083 0
-1084 -1085 0
-1084 -1086 0
-1085 -1086 0
-1087 -1088 0
-1087 -1089 0
-1088 -1089 0
-1090 -1091 0
-1090 -1092 0
-1091 -1092 0
-1093 -1094 0
-1093 -1095 0
-1094 -1095 0
-1096 -1097 0
-1096 -1098 0
-1097 -1098 0
-1099 -1100 0
-1099 -1101 0
-1100 -1101 0
-1102 -1103 0
-1102 -1104 0
-1103 -1104 0
-1105 -1106 0
-1105 -1107 0
-1106 -1107 0
-1108 -1109 0
-1108 -1110 0
-1109 -1110 0
-1111 -1112 0
-1111 -1113 0
-1112 -1113 0
-1114 -1115 0
-1114 -1116 0
-1115 -1116 0
-1117 -1118 0
-1117 -1119 0
-1118 -1119 0
-1120 -1121 0
-1120 -1122 0
-1121 -1122 0
-1123 -1124 0
-1123 -1125 0
-1124 -1125 0
-1126 -1127 0
-1126 -1128 0
-1127 -1128 0
-1129 -1130 0
-1129 -1131 0
-1130 -1131 0
-1132 -1133 0
-1132 -1134 0
-1133 -1134 0
-1135 -1136 0
-1135 -1137 0
-1136 -1137 0
-1138 -1139 0
-1138 -1140 0
-1139 -1140 0
-1141 -1142 0
-1141 -1143 0
-1142 -1143 0
-1144 -1145 0
-1144 -1146 0
-1145 -1146 0
-1147 -1148 0
-1147 -1149 0
-1148 -1149 0
-1150 -1151 0
-1150 -1152 0
-1151 -1152 0
-1153 -1154 0
-1153 -1155 0
-1154 -1155 0
-1156 -1157 0
-1156 -1158 0
-1157 -1158 0
-1159 -1160 0
-1159 -1161 0
-1160 -1161 0
-1162 -1163 0
-1162 -1164 0
-1163 -1164 0
-1165 -1166 0
-1165 -1167 0
-1166 -1167 0
-1168 -1169 0
-1168 -1170 0
-1169 -1170 0
-1171 -1172 0
-1171 -1173 0
-1172 -1173 0
-1174 -1175 0
-1174 -1176 0
-1175 -1176 0
-1177 -1178 0
-1177 -1179 0
-1178 -1179 0
-1180 -1181 0
-1180 -1182 0
-1181 -1182 0
-1183 -1184 0
-1183 -1185 0
-1184 -1185 0
-1186 -1187 0
-1186 -1188 0
-1187 -1188 0
-1189 -1190 0
-1189 -1191 0
-1190 -1191 0
-1192 -1193 0
-1192 -1194 0
-1193 -1194 0
-1195 -1196 0
-1195 -1197 0
-1196 -1197 0
-1198 -1199 0
-1198 -1200 0
-1199 -1200 0
-1201 -1202 0
-1201 -1203 0
-1202 -1203 0
-1204 -1205 0
-1204 -1206 0
-1205 -1206 0
-1207 -1208 0
-1207 -1209 0
-1208 -1209 0
-1210 -1211 0
-1210 -1212 0
-1211 -1212 0
-1213 -1214 0
-1213 -1215 0
-1214 -1215 0
-1216 -1217 0
-1216 -1218 0
-1217 -1218 0
-1219 -1220 0
-1219 -1221 0
-1220 -1221 0
-1222 -1223 0
-1222 -1224 0
-1223 -1224 0
-1225 -1226 0
-1225 -1227 0
-1226 -1227 0
-1228 -1229 0
-1228 -1230 0
-1229 -1230 0
-1231 -1232 0
-1231 -1233 0
-1232 -1233 0
-1234 -1235 0
-1234 -1236 0
-1235 -1236 0
-1237 -1238 0
-1237 -1239 0
-1238 -1239 0
-1240 -1241 0
-1240 -1242 0
-1241 -1242 0
-1243 -1244 0
-1243 -1245 0
-1244 -1245 0
-1246 -1247 0
-1246 -1248 0
-1247 -1248 0
-1249 -1250 0
-1249 -1251 0
-1250 -1251 0
-1252 -1253 0
-1252 -1254 0
-1253 -1254 0
-1255 -1256 0
-1255 -1257 0
-1256 -1257 0
-1258 -1259 0
-1258 -1260 0
-1259 -1260 0
-1261 -1262 0
-1261 -1263 0
-1262 -1263 0
-1264 -1265 0
-1264 -1266 0
-1265 -1266 0
-1267 -1268 0
-1267 -1269 0
-1268 -1269 0
-1270 -1271 0
-1270 -1272 0
-1271 -1272 0
-1273 -1274 0
-1273 -1275 0
-1274 -1275 0
-1276 -1277 0
-1276 -1278 0
-1277 -1278 0
-1279 -1280 0
-1279 -1281 0
-1280 -1281 0
-1282 -1283 0
-1282 -1284 0
-1283 -1284 0
-1285 -1286 0
-1285 -1287 0
-1286 -1287 0
-1288 -1289 0
-1288 -1290 0
-1289 -1290 0
-1291 -1292 0
-1291 -1293 0
-1292 -1293 0
-1294 -1295 0
-1294 -1296 0
-1295 -1296 0
-1297 -1298 0
-1297 -1299 0
-1298 -1299 0
-1300 -1301 0
-1300 -1302 0
-1301 -1302 0
-1303 -1304 0
-1303 -1305 0
-1304 -1305 0
-1306 -1307 0
-1306 -1308 0
-1307 -1308 0
-1309 -1310 0
-1309 -1311 0
-1310 -1311 0
-1312 -1313 0
-1312 -1314 0
-1313 -1314 0
-1315 -1316 0
-1315 -1317 0
-1316 -1317 0
-1318 -1319 0
-1318 -1320 0
-1319 -1320 0
-1321 -1322 0
-1321 -1323 0
-1322 -1323 0
-1324 -1325 0
-1324 -1326 0
-1325 -1326 0
-1327 -1328 0
-1327 -1329 0
-1328 -1329 0
-1330 -1331 0
-1330 -1332 0
-1331 -1332 0
-1333 -1334 0
-1333 -1335 0
-1334 -1335 0
-1336 -1337 0
-1336 -1338 0
-1337 -1338 0
-1339 -1340 0
-1339 -1341 0
-1340 -1341 0
-1342 -1343 0
-1342 -1344 0
-1343 -1344 0
-1345 -1346 0
-1345 -1347 0
-1346 -1347 0
-1348 -1349 0
-1348 -1350 0
-1349 -1350 0
-1351 -1352 0
-1351 -1353 0
-1352 -1353 0
-1354 -1355 0
-1354 -1356 0
-1355 -1356 0
-1357 -1358 0
-1357 -1359 0
-1358 -1359 0
-1360 -1361 0
-1360 -1362 0
-1361 -1362 0
-1363 -1364 0
-1363 -1365 0
-1364 -1365 0
-1366 -1367 0
-1366 -1368 0
-1367 -1368 0
-1369 -1370 0
-1369 -1371 0
-1370 -1371 0
-1372 -1373 0
-1372 -1374 0
-1373 -1374 0
-1375 -1376 0
-1375 -1377 0
-1376 -1377 0
-1378 -1379 0
-1378 -1380 0
-1379 -1380 0
-1381 -1382 0
-1381 -1383 0
-1382 -1383 0
-1384 -1385 0
-1384 -1386 0
-1385 -1386 0
-1387 -1388 0
-1387 -1389 0
-1388 -1389 0
-1390 -1391 0
-1390 -1392 0
-1391 -1392 0
-1393 -1394 0
-1393 -1395 0
-1394 -1395 0
-1396 -1397 0
-1396 -1398 0
-1397 -1398 0
-1399 -1400 0
-1399 -1401 0
-1400 -1401 0
-1402 -1403 0
-1402 -1404 0
-1403 -1404 0
-1405 -1406 0
-1405 -1407 0
-1406 -1407 0
-1408 -1409 0
-1408 -1410 0
-1409 -1410 0
-1411 -1412 0
-1411 -1413 0
-1412 -1413 0
-1414 -1415 0
-1414 -1416 0
-1415 -1416 0
-1417 -1418 0
-1417 -1419 0
-1418 -1419 0
-1420 -1421 0
-1420 -1422 0
-1421 -1422 0
-1423 -1424 0
-1423 -1425 0
-1424 -1425 0
-1426 -1427 0
-1426 -1428 0
-1427 -1428 0
-1429 -1430 0
-1429 -1431 0
-1430 -1431 0
-1432 -1433 0
-1432 -1434 0
-1433 -1434 0
-1435 -1436 0
-1435 -1437 0
-1436 -1437 0
-1438 -1439 0
-1438 -1440 0
-1439 -1440 0
-1441 -1442 0
-1441 -1443 0
-1442 -1443 0
-1444 -1445 0
-1444 -1446 0
-1445 -1446 0
-1447 -1448 0
-1447 -1449 0
-1448 -1449 0
-1450 -1451 0
-1450 -1452 0
-1451 -1452 0
-1453 -1454 0
-1453 -1455 0
-1454 -1455 0
-1456 -1457 0
-1456 -1458 0
-1457 -1458 0
-1459 -1460 0
-1459 -1461 0
-1460 -1461 0
-1462 -1463 0
-1462 -1464 0
-1463 -1464 0
-1465 -1466 0
-1465 -1467 0
-1466 -1467 0
-1468 -1469 0
-1468 -1470 0
-1469 -1470 0
-1471 -1472 0
-1471 -1473 0
-1472 -1473 0
-1474 -1475 0
-1474 -1476 0
-1475 -1476 0
-1477 -1478 0
-1477 -1479 0
-1478 -1479 0
-1480 -1481 0
-1480 -1482 0
-1481 -1482 0
-1483 -1484 0
-1483 -1485 0
-1484 -1485 0
-1486 -1487 0
-1486 -1488 0
-1487 -1488 0
-1489 -1490 0
-1489 -1491 0
-1490 -1491 0
-1492 -1493 0
-1492 -1494 0
-1493 -1494 0
-1495 -1496 0
-1495 -1497 0
-1496 -1497 0
-1498 -1499 0
-1498 -1500 0
-1499 -1500 0
-1 -199 0
-2 -200 0
-3 -201 0
-1 -319 0
-2 -320 0
-3 -321 0
-1 -520 0
-2 -521 0
-3 -522 0
-1 -994 0
-2 -995 0
-3 -996 0
-1 -1261 0
-2 -1262 0
-3 -1263 0
-4 -253 0
-5 -254 0
-6 -255 0
-4 -679 0
-5 -680 0
-6 -681 0
-4 -913 0
-5 -914 0
-6 -915 0
-4 -1225 0
-5 -1226 0
-6 -1227 0
-7 -388 0
-8 -389 0
-9 -390 0
-7 -406 0
-8 -407 0
-9 -408 0
-7 -664 0
-8 -665 0
-9 -666 0
-7 -817 0
-8 -818 0
-9 -819 0
-7 -967 0
-8 -968 0
-9 -969 0
-7 -1051 0
-8 -1052 0
-9 -1053 0
-7 -1087 0
-8 -1088 0
-9 -1089 0
-10 -160 0
-11 -161 0
-12 -162 0
-10 -184 0
-11 -185 0
-12 -186 0
-10 -211 0
-11 -212 0
-12 -213 0
-10 -529 0
-11 -530 0
-12 -531 0
-10 -847 0
-11 -848 0
-12 -849 0
-10 -1066 0
-11 -1067 0
-12 -1068 0
-10 -1114 0
-11 -1115 0
-12 -1116 0
-10 -1192 0
-11 -1193 0
-12 -1194 0
-10 -1252 0
-11 -1253 0
-12 -1254 0
-10 -1294 0
-11 -1295 0
-12 -1296 0
-13 -508 0
-14 -509 0
-15 -510 0
-13 -958 0
-14 -959 0
-15 -960 0
-16 -139 0
-17 -140 0
-18 -141 0
-16 -184 0
-17 -185 0
-18 -186 0
-16 -265 0
-17 -266 0
-18 -267 0
-16 -388 0
-17 -389 0
-18 -390 0
-16 -436 0
-17 -437 0
-18 -438 0
-16 -1456 0
-17 -1457 0
-18 -1458 0
-22 -655 0
-23 -656 0
-24 -657 0
-22 -1438 0
-23 -1439 0
-24 -1440 0
-22 -1492 0
-23 -1493 0
-24 -1494 0
-25 -184 0
-26 -185 0
-27 -186 0
-25 -217 0
-26 -218 0
-27 -219 0
-25 -400 0
-26 -401 0
-27 -402 0
-28 -196 0
-29 -197 0
-30 -198 0
-28 -934 0
-29 -935 0
-30 -936 0
-28 -985 0
-29 -986 0
-30 -987 0
-28 -1294 0
-29 -1295 0
-30 -1296 0
-28 -1387 0
-29 -1388 0
-30 -1389 0
-28 -1483 0
-29 -1484 0
-30 -1485 0
-31 -112 0
-32 -113 0
-33 -114 0
-31 -181 0
-32 -182 0
-33 -183 0
-31 -415 0
-32 -416 0
-33 -417 0
-31 -706 0
-32 -707 0
-33 -708 0
-31 -799 0
-32 -800 0
-33 -801 0
-31 -1213 0
-32 -1214 0
-33 -1215 0
-31 -1360 0
-32 -1361 0
-33 -1362 0
-31 -1396 0
-32 -1397 0
-33 -1398 0
-31 -1438 0
-32 -1439 0
-33 -1440 0
-34 -685 0
-35 -686 0
-36 -687 0
-34 -1267 0
-35 -1268 0
-36 -1269 0
-37 -490 0
-38 -491 0
-39 -492 0
-37 -949 0
-38 -950 0
-39 -951 0
-37 -1330 0
-38 -1331 0
-39 -1332 0
-37 -1441 0
-38 -1442 0
-39 -1443 0
-40 -718 0
-41 -719 0
-42 -720 0
-40 -850 0
-41 -851 0
-42 -852 0
-40 -1168 0
-41 -1169 0
-42 -1170 0
-43 -580 0
-44 -581 0
-45 -582 0
-43 -613 0
-44 -614 0
-45 -615 0
-43 -844 0
-44 -845 0
-45 -846 0
-43 -1171 0
-44 -1172 0
-45 -1173 0
-43 -1237 0
-44 -1238 0
-45 -1239 0
-43 -1378 0
-44 -1379 0
-45 -1380 0
-43 -1405 0
-44 -1406 0
-45 -1407 0
-46 -169 0
-47 -170 0
-48 -171 0
-46 -328 0
-47 -329 0
-48 -330 0
-46 -478 0
-47 -479 0
-48 -480 0
-46 -757 0
-47 -758 0
-48 -759 0
-46 -1267 0
-47 -1268 0
-48 -1269 0
-46 -1453 0
-47 -1454 0
-48 -1455 0
-49 -247 0
-50 -248 0
-51 -249 0
-49 -268 0
-50 -269 0
-51 -270 0
-49 -565 0
-50 -566 0
-51 -567 0
-49 -1480 0
-50 -1481 0
-51 -1482 0
-55 -214 0
-56 -215 0
-57 -216 0
-55 -592 0
-56 -593 0
-57 -594 0
-55 -655 0
-56 -656 0
-57 -657 0
-55 -991 0
-56 -992 0
-57 -993 0
-55 -1111 0
-56 -1112 0
-57 -1113 0
-55 -1372 0
-56 -1373 0
-57 -1374 0
-58 -658 0
-59 -659 0
-60 -660 0
-58 -1123 0
-59 -1124 0
-60 -1125 0
-61 -211 0
-62 -212 0
-63 -213 0
-61 -397 0
-62 -398 0
-63 -399 0
-61 -1444 0
-62 -1445 0
-63 -1446 0
-64 -271 0
-65 -272 0
-66 -273 0
-64 -352 0
-65 -353 0
-66 -354 0
-64 -433 0
-65 -434 0
-66 -435 0
-64 -874 0
-65 -875 0
-66 -876 0
-64 -1222 0
-65 -1223 0
-66 -1224 0
-67 -103 0
-68 -104 0
-69 -105 0
-67 -625 0
-68 -626 0
-69 -627 0
-67 -817 0
-68 -818 0
-69 -819 0
-67 -919 0
-68 -920 0
-69 -921 0
-67 -1051 0
-68 -1052 0
-69 -1053 0
-67 -1060 0
-68 -1061 0
-69 -1062 0
-67 -1207 0
-68 -1208 0
-69 -1209 0
-70 -259 0
-71 -260 0
-72 -261 0
-70 -517 0
-71 -518 0
-72 -519 0
-70 -556 0
-71 -557 0
-72 -558 0
-70 -616 0
-71 -617 0
-72 -618 0
-73 -217 0
-74 -218 0
-75 -219 0
-73 -355 0
-74 -356 0
-75 -357 0
-73 -1357 0
-74 -1358 0
-75 -1359 0
-76 -739 0
-77 -740 0
-78 -741 0
-76 -1150 0
-77 -1151 0
-78 -1152 0
-76 -1282 0
-77 -1283 0
-78 -1284 0
-79 -175 0
-80 -176 0
-81 -177 0
-79 -277 0
-80 -278 0
-81 -279 0
-79 -679 0
-80 -680 0
-81 -681 0
-79 -703 0
-80 -704 0
-81 -705 0
-82 -118 0
-83 -119 0
-84 -120 0
-82 -844 0
-83 -845 0
-84 -846 0
-85 -643 0
-86 -644 0
-87 -645 0
-85 -820 0
-86 -821 0
-87 -822 0
-85 -1228 0
-86 -1229 0
-87 -1230 0
-88 -355 0
-89 -356 0
-90 -357 0
-88 -757 0
-89 -758 0
-90 -759 0
-88 -901 0
-89 -902 0
-90 -903 0
-88 -967 0
-89 -968 0
-90 -969 0
-91 -109 0
-92 -110 0
-93 -111 0
-91 -133 0
-92 -134 0
-93 -135 0
-91 -652 0
-92 -653 0
-93 -654 0
-91 -799 0
-92 -800 0
-93 -801 0
-91 -1294 0
-92 -1295 0
-93 -1296 0
-91 -1396 0
-92 -1397 0
-93 -1398 0
-94 -454 0
-95 -455 0
-96 -456 0
-94 -1042 0
-95 -1043 0
-96 -1044 0
-94 -1462 0
-95 -1463 0
-96 -1464 0
-97 -136 0
-98 -137 0
-99 -138 0
-97 -151 0
-98 -152 0
-99 -153 0
-97 -922 0
-98 -923 0
-99 -924 0
-97 -1090 0
-98 -1091 0
-99 -1092 0
-100 -1162 0
-101 -1163 0
-102 -1164 0
-103 -508 0
-104 -509 0
-105 -510 0
-103 -535 0
-104 -536 0
-105 -537 0
-103 -775 0
-104 -776 0
-105 -777 0
-103 -958 0
-104 -959 0
-105 -960 0
-103 -1054 0
-104 -1055 0
-105 -1056 0
-103 -1450 0
-104 -1451 0
-105 -1452 0
-106 -130 0
-107 -131 0
-108 -132 0
-106 -391 0
-107 -392 0
-108 -393 0
-106 -400 0
-107 -401 0
-108 -402 0
-106 -634 0
-107 -635 0
-108 -636 0
-106 -847 0
-107 -848 0
-108 -849 0
-106 -1495 0
-107 -1496 0
-108 -1497 0
-109 -490 0
-110 -491 0
-111 -492 0
-109 -778 0
-110 -779 0
-111 -780 0
-109 -1114 0
-110 -1115 0
-111 -1116 0
-109 -1198 0
-110 -1199 0
-111 -1200 0
-109 -1423 0
-110 -1424 0
-111 -1425 0
-112 -178 0
-113 -179 0
-114 -180 0
-112 -1321 0
-113 -1322 0
-114 -1323 0
-115 -250 0
-116 -251 0
-117 -252 0
-115 -364 0
-116 -365 0
-117 -366 0
-115 -676 0
-116 -677 0
-117 -678 0
-115 -823 0
-116 -824 0
-117 -825 0
-115 -1450 0
-116 -1451 0
-117 -1452 0
-118 -205 0
-119 -206 0
-120 -207 0
-118 -1174 0
-119 -1175 0
-120 -1176 0
-118 -1432 0
-119 -1433 0
-120 -1434 0
-121 -265 0
-122 -266 0
-123 -267 0
-121 -655 0
-122 -656 0
-123 -657 0
-121 -673 0
-122 -674 0
-123 -675 0
-121 -733 0
-122 -734 0
-123 -735 0
-121 -862 0
-122 -863 0
-123 -864 0
-121 -871 0
-122 -872 0
-123 -873 0
-121 -1093 0
-122 -1094 0
-123 -1095 0
-124 -442 0
-125 -443 0
-126 -444 0
-127 -463 0
-128 -464 0
-129 -465 0
-130 -226 0
-131 -227 0
-132 -228 0
-130 -505 0
-131 -506 0
-132 -507 0
-130 -814 0
-131 -815 0
-132 -816 0
-130 -970 0
-131 -971 0
-132 -972 0
-130 -1357 0
-131 -1358 0
-132 -1359 0
-133 -871 0
-134 -872 0
-135 -873 0
-133 -1135 0
-134 -1136 0
-135 -1137 0
-136 -730 0
-137 -731 0
-138 -732 0
-136 -817 0
-137 -818 0
-138 -819 0
-136 -1348 0
-137 -1349 0
-138 -1350 0
-145 -376 0
-146 -377 0
-147 -378 0
-145 -763 0
-146 -764 0
-147 -765 0
-145 -775 0
-146 -776 0
-147 -777 0
-145 -901 0
-146 -902 0
-147 -903 0
-145 -1219 0
-146 -1220 0
-147 -1221 0
-145 -1330 0
-146 -1331 0
-147 -1332 0
-148 -295 0
-149 -296 0
-150 -297 0
-148 -913 0
-149 -914 0
-150 -915 0
-148 -1087 0
-149 -1088 0
-150 -1089 0
-151 -568 0
-152 -569 0
-153 -570 0
-151 -634 0
-152 -635 0
-153 -636 0
-151 -676 0
-152 -677 0
-153 -678 0
-151 -1138 0
-152 -1139 0
-153 -1140 0
-151 -1177 0
-152 -1178 0
-153 -1179 0
-151 -1279 0
-152 -1280 0
-153 -1281 0
-154 -403 0
-155 -404 0
-156 -405 0
-154 -526 0
-155 -527 0
-156 -528 0
-154 -577 0
-155 -578 0
-156 -579 0
-154 -793 0
-155 -794 0
-156 -795 0
-154 -1111 0
-155 -1112 0
-156 -1113 0
-154 -1279 0
-155 -1280 0
-156 -1281 0
-157 -703 0
-158 -704 0
-159 -705 0
-157 -1111 0
-158 -1112 0
-159 -1113 0
-160 -592 0
-161 -593 0
-162 -594 0
-160 -1333 0
-161 -1334 0
-162 -1335 0
-163 -316 0
-164 -317 0
-165 -318 0
-163 -577 0
-164 -578 0
-165 -579 0
-163 -901 0
-164 -902 0
-165 -903 0
-163 -1150 0
-164 -1151 0
-165 -1152 0
-163 -1273 0
-164 -1274 0
-165 -1275 0
-166 -178 0
-167 -179 0
-168 -180 0
-166 -586 0
-167 -587 0
-168 -588 0
-166 -1042 0
-167 -1043 0
-168 -1044 0
-169 -322 0
-170 -323 0
-171 -324 0
-169 -823 0
-170 -824 0
-171 -825 0
-169 -826 0
-170 -827 0
-171 -828 0
-169 -1405 0
-170 -1406 0
-171 -1407 0
-172 -226 0
-173 -227 0
-174 -228 0
-172 -478 0
-173 -479 0
-174 -480 0
-172 -517 0
-173 -518 0
-174 -519 0
-172 -1345 0
-173 -1346 0
-174 -1347 0
-178 -1234 0
-179 -1235 0
-180 -1236 0
-181 -304 0
-182 -305 0
-183 -306 0
-181 -427 0
-182 -428 0
-183 -429 0
-181 -802 0
-182 -803 0
-183 -804 0
-181 -1090 0
-182 -1091 0
-183 -1092 0
-181 -1120 0
-182 -1121 0
-183 -1122 0
-181 -1348 0
-182 -1349 0
-183 -1350 0
-181 -1396 0
-182 -1397 0
-183 -1398 0
-181 -1426 0
-182 -1427 0
-183 -1428 0
-184 -250 0
-185 -251 0
-186 -252 0
-184 -679 0
-185 -680 0
-186 -681 0
-184 -859 0
-185 -860 0
-186 -861 0
-184 -1123 0
-185 -1124 0
-186 -1125 0
-184 -1198 0
-185 -1199 0
-186 -1200 0
-184 -1339 0
-185 -1340 0
-186 -1341 0
-184 -1378 0
-185 -1379 0
-186 -1380 0
-187 -340 0
-188 -341 0
-189 -342 0
-187 -574 0
-188 -575 0
-189 -576 0
-187 -1342 0
-188 -1343 0
-189 -1344 0
-187 -1495 0
-188 -1496 0
-189 -1497 0
-190 -274 0
-191 -275 0
-192 -276 0
-190 -532 0
-191 -533 0
-192 -534 0
-190 -1321 0
-191 -1322 0
-192 -1323 0
-190 -1369 0
-191 -1370 0
-192 -1371 0
-193 -1441 0
-194 -1442 0
-195 -1443 0
-196 -226 0
-197 -227 0
-198 -228 0
-196 -256 0
-197 -257 0
-198 -258 0
-196 -331 0
-197 -332 0
-198 -333 0
-196 -559 0
-197 -560 0
-198 -561 0
-196 -763 0
-197 -764 0
-198 -765 0
-196 -856 0
-197 -857 0
-198 -858 0
-196 -937 0
-197 -938 0
-198 -939 0
-196 -1345 0
-197 -1346 0
-198 -1347 0
-199 -517 0
-200 -518 0
-201 -519 0
-199 -1264 0
-200 -1265 0
-201 -1266 0
-199 -1480 0
-200 -1481 0
-201 -1482 0
-202 -271 0
-203 -272 0
-204 -273 0
-202 -511 0
-203 -512 0
-204 -513 0
-202 -979 0
-203 -980 0
-204 -981 0
-202 -1021 0
-203 -1022 0
-204 -1023 0
-202 -1414 0
-203 -1415 0
-204 -1416 0
-205 -292 0
-206 -293 0
-207 -294 0
-205 -565 0
-206 -566 0
-207 -567 0
-205 -931 0
-206 -932 0
-207 -933 0
-205 -934 0
-206 -935 0
-207 -936 0
-205 -1462 0
-206 -1463 0
-207 -1464 0
-208 -238 0
-209 -239 0
-210 -240 0
-208 -247 0
-209 -248 0
-210 -249 0
-208 -979 0
-209 -980 0
-210 -981 0
-208 -1039 0
-209 -1040 0
-210 -1041 0
-208 -1114 0
-209 -1115 0
-210 -1116 0
-208 -1219 0
-209 -1220 0
-210 -1221 0
-208 -1486 0
-209 -1487 0
-210 -1488 0
-211 -385 0
-212 -386 0
-213 -387 0
-211 -1078 0
-212 -1079 0
-213 -1080 0
-211 -1231 0
-212 -1232 0
-213 -1233 0
-211 -1468 0
-212 -1469 0
-213 -1470 0
-217 -289 0
-218 -290 0
-219 -291 0
-217 -997 0
-218 -998 0
-219 -999 0
-217 -1177 0
-218 -1178 0
-219 -1179 0
-217 -1189 0
-218 -1190 0
-219 -1191 0
-220 -520 0
-221 -521 0
-222 -522 0
-220 -649 0
-221 -650 0
-222 -651 0
-220 -772 0
-221 -773 0
-222 -774 0
-220 -1423 0
-221 -1424 0
-222 -1425 0
-220 -1474 0
-221 -1475 0
-222 -1476 0
-223 -256 0
-224 -257 0
-225 -258 0
-223 -325 0
-224 -326 0
-225 -327 0
-223 -541 0
-224 -542 0
-225 -543 0
-223 -1216 0
-224 -1217 0
-225 -1218 0
-223 -1387 0
-224 -1388 0
-225 -1389 0
-223 -1405 0
-224 -1406 0
-225 -1407 0
-223 -1498 0
-224 -1499 0
-225 -1500 0
-226 -361 0
-227 -362 0
-228 -363 0
-226 -511 0
-227 -512 0
-228 -513 0
-226 -838 0
-227 -839 0
-228 -840 0
-226 -1108 0
-227 -1109 0
-228 -1110 0
-226 -1411 0
-227 -1412 0
-228 -1413 0
-229 -766 0
-230 -767 0
-231 -768 0
-229 -862 0
-230 -863 0
-231 -864 0
-229 -1057 0
-230 -1058 0
-231 -1059 0
-229 -1144 0
-230 -1145 0
-231 -1146 0
-229 -1186 0
-230 -1187 0
-231 -1188 0
-229 -1387 0
-230 -1388 0
-231 -1389 0
-229 -1411 0
-230 -1412 0
-231 -1413 0
-232 -706 0
-233 -707 0
-234 -708 0
-232 -787 0
-233 -788 0
-234 -789 0
-232 -961 0
-233 -962 0
-234 -963 0
-232 -1213 0
-233 -1214 0
-234 -1215 0
-235 -427 0
-236 -428 0
-237 -429 0
-235 -769 0
-236 -770 0
-237 -771 0
-238 -265 0
-239 -266 0
-240 -267 0
-238 -532 0
-239 -533 0
-240 -534 0
-238 -544 0
-239 -545 0
-240 -546 0
-241 -331 0
-242 -332 0
-243 -333 0
-241 -424 0
-242 -425 0
-243 -426 0
-241 -970 0
-242 -971 0
-243 -972 0
-241 -1075 0
-242 -1076 0
-243 -1077 0
-244 -274 0
-245 -275 0
-246 -276 0
-244 -289 0
-245 -290 0
-246 -291 0
-244 -685 0
-245 -686 0
-246 -687 0
-244 -1414 0
-245 -1415 0
-246 -1416 0
-244 -1489 0
-245 -1490 0
-246 -1491 0
-247 -370 0
-248 -371 0
-249 -372 0
-247 -496 0
-248 -497 0
-249 -498 0
-247 -553 0
-248 -554 0
-249 -555 0
-247 -637 0
-248 -638 0
-249 -639 0
-247 -706 0
-248 -707 0
-249 -708 0
-247 -955 0
-248 -956 0
-249 -957 0
-247 -1108 0
-248 -1109 0
-249 -1110 0
-247 -1246 0
-248 -1247 0
-249 -1248 0
-247 -1477 0
-248 -1478 0
-249 -1479 0
-247 -1495 0
-248 -1496 0
-249 -1497 0
-250 -1090 0
-251 -1091 0
-252 -1092 0
-253 -316 0
-254 -317 0
-255 -318 0
-253 -319 0
-254 -320 0
-255 -321 0
-253 -472 0
-254 -473 0
-255 -474 0
-253 -631 0
-254 -632 0
-255 -633 0
-253 -640 0
-254 -641 0
-255 -642 0
-253 -1381 0
-254 -1382 0
-255 -1383 0
-253 -1414 0
-254 -1415 0
-255 -1416 0
-256 -523 0
-257 -524 0
-258 -525 0
-256 -691 0
-257 -692 0
-258 -693 0
-259 -352 0
-260 -353 0
-261 -354 0
-259 -538 0
-260 -539 0
-261 -540 0
-259 -544 0
-260 -545 0
-261 -546 0
-259 -754 0
-260 -755 0
-261 -756 0
-262 -430 0
-263 -431 0
-264 -432 0
-262 -553 0
-263 -554 0
-264 -555 0
-262 -1453 0
-263 -1454 0
-264 -1455 0
-265 -415 0
-266 -416 0
-267 -417 0
-265 -1393 0
-266 -1394 0
-267 -1395 0
-265 -1408 0
-266 -1409 0
-267 -1410 0
-268 -376 0
-269 -377 0
-270 -378 0
-268 -1258 0
-269 -1259 0
-270 -1260 0
-271 -274 0
-272 -275 0
-273 -276 0
-271 -1003 0
-272 -1004 0
-273 -1005 0
-271 -1249 0
-272 -1250 0
-273 -1251 0
-274 -715 0
-275 -716 0
-276 -717 0
-274 -946 0
-275 -947 0
-276 -948 0
-274 -961 0
-275 -962 0
-276 -963 0
-274 -1444 0
-275 -1445 0
-276 -1446 0
-277 -541 0
-278 -542 0
-279 -543 0
-277 -583 0
-278 -584 0
-279 -585 0
-277 -988 0
-278 -989 0
-279 -990 0
-277 -1045 0
-278 -1046 0
-279 -1047 0
-277 -1090 0
-278 -1091 0
-279 -1092 0
-280 -484 0
-281 -485 0
-282 -486 0
-280 -694 0
-281 -695 0
-282 -696 0
-280 -925 0
-281 -926 0
-282 -927 0
-280 -1042 0
-281 -1043 0
-282 -1044 0
-280 -1114 0
-281 -1115 0
-282 -1116 0
-280 -1336 0
-281 -1337 0
-282 -1338 0
-283 -649 0
-284 -650 0
-285 -651 0
-283 -670 0
-284 -671 0
-285 -672 0
-283 -886 0
-284 -887 0
-285 -888 0
-283 -1384 0
-284 -1385 0
-285 -1386 0
-286 -622 0
-287 -623 0
-288 -624 0
-289 -1381 0
-290 -1382 0
-291 -1383 0
-289 -1492 0
-290 -1493 0
-291 -1494 0
-292 -793 0
-293 -794 0
-294 -795 0
-292 -1186 0
-293 -1187 0
-294 -1188 0
-292 -1288 0
-293 -1289 0
-294 -1290 0
-295 -346 0
-296 -347 0
-297 -348 0
-295 -802 0
-296 -803 0
-297 -804 0
-295 -985 0
-296 -986 0
-297 -987 0
-298 -328 0
-299 -329 0
-300 -330 0
-298 -424 0
-299 -425 0
-300 -426 0
-298 -1111 0
-299 -1112 0
-300 -1113 0
-301 -772 0
-302 -773 0
-303 -774 0
-301 -901 0
-302 -902 0
-303 -903 0
-301 -1084 0
-302 -1085 0
-303 -1086 0
-307 -745 0
-308 -746 0
-309 -747 0
-307 -949 0
-308 -950 0
-309 -951 0
-307 -1204 0
-308 -1205 0
-309 -1206 0
-307 -1381 0
-308 -1382 0
-309 -1383 0
-310 -325 0
-311 -326 0
-312 -327 0
-310 -502 0
-311 -503 0
-312 -504 0
-310 -919 0
-311 -920 0
-312 -921 0
-310 -946 0
-311 -947 0
-312 -948 0
-310 -982 0
-311 -983 0
-312 -984 0
-313 -487 0
-314 -488 0
-315 -489 0
-313 -634 0
-314 -635 0
-315 -636 0
-313 -670 0
-314 -671 0
-315 -672 0
-313 -763 0
-314 -764 0
-315 -765 0
-313 -814 0
-314 -815 0
-315 -816 0
-313 -877 0
-314 -878 0
-315 -879 0
-313 -1126 0
-314 -1127 0
-315 -1128 0
-313 -1315 0
-314 -1316 0
-315 -1317 0
-316 -958 0
-317 -959 0
-318 -960 0
-316 -1093 0
-317 -1094 0
-318 -1095 0
-316 -1435 0
-317 -1436 0
-318 -1437 0
-319 -400 0
-320 -401 0
-321 -402 0
-319 -520 0
-320 -521 0
-321 -522 0
-319 -526 0
-320 -527 0
-321 -528 0
-319 -646 0
-320 -647 0
-321 -648 0
-319 -976 0
-320 -977 0
-321 -978 0
-319 -1252 0
-320 -1253 0
-321 -1254 0
-319 -1414 0
-320 -1415 0
-321 -1416 0
-322 -754 0
-323 -755 0
-324 -756 0
-322 -850 0
-323 -851 0
-324 -852 0
-322 -1099 0
-323 -1100 0
-324 -1101 0
-322 -1213 0
-323 -1214 0
-324 -1215 0
-325 -715 0
-326 -716 0
-327 -717 0
-325 -808 0
-326 -809 0
-327 -810 0
-325 -874 0
-326 -875 0
-327 -876 0
-325 -943 0
-326 -944 0
-327 -945 0
-325 -1168 0
-326 -1169 0
-327 -1170 0
-325 -1339 0
-326 -1340 0
-327 -1341 0
-334 -715 0
-335 -716 0
-336 -717 0
-334 -910 0
-335 -911 0
-336 -912 0
-340 -958 0
-341 -959 0
-342 -960 0
-340 -1351 0
-341 -1352 0
-342 -1353 0
-343 -457 0
-344 -458 0
-345 -459 0
-343 -1369 0
-344 -1370 0
-345 -1371 0
-343 -1375 0
-344 -1376 0
-345 -1377 0
-343 -1474 0
-344 -1475 0
-345 -1476 0
-346 -364 0
-347 -365 0
-348 -366 0
-346 -400 0
-347 -401 0
-348 -402 0
-346 -1084 0
-347 -1085 0
-348 -1086 0
-346 -1462 0
-347 -1463 0
-348 -1464 0
-349 -499 0
-350 -500 0
-351 -501 0
-349 -811 0
-350 -812 0
-351 -813 0
-349 -988 0
-350 -989 0
-351 -990 0
-349 -1192 0
-350 -1193 0
-351 -1194 0
-349 -1252 0
-350 -1253 0
-351 -1254 0
-349 -1255 0
-350 -1256 0
-351 -1257 0
-349 -1414 0
-350 -1415 0
-351 -1416 0
-352 -652 0
-353 -653 0
-354 -654 0
-352 -925 0
-353 -926 0
-354 -927 0
-352 -1210 0
-353 -1211 0
-354 -1212 0
-355 -640 0
-356 -641 0
-357 -642 0
-355 -1096 0
-356 -1097 0
-357 -1098 0
-355 -1276 0
-356 -1277 0
-357 -1278 0
-358 -562 0
-359 -563 0
-360 -564 0
-358 -1090 0
-359 -1091 0
-360 -1092 0
-358 -1279 0
-359 -1280 0
-360 -1281 0
-358 -1309 0
-359 -1310 0
-360 -1311 0
-361 -1147 0
-362 -1148 0
-363 -1149 0
-361 -1243 0
-362 -1244 0
-363 -1245 0
-361 -1345 0
-362 -1346 0
-363 -1347 0
-361 -1390 0
-362 -1391 0
-363 -1392 0
-361 -1423 0
-362 -1424 0
-363 -1425 0
-367 -382 0
-368 -383 0
-369 -384 0
-367 -418 0
-368 -419 0
-369 -420 0
-367 -778 0
-368 -779 0
-369 -780 0
-367 -886 0
-368 -887 0
-369 -888 0
-370 -382 0
-371 -383 0
-372 -384 0
-370 -394 0
-371 -395 0
-372 -396 0
-370 -454 0
-371 -455 0
-372 -456 0
-370 -772 0
-371 -773 0
-372 -774 0
-370 -880 0
-371 -881 0
-372 -882 0
-370 -1414 0
-371 -1415 0
-372 -1416 0
-373 -568 0
-374 -569 0
-375 -570 0
-373 -754 0
-374 -755 0
-375 -756 0
-373 -940 0
-374 -941 0
-375 -942 0
-373 -1183 0
-374 -1184 0
-375 -1185 0
-373 -1222 0
-374 -1223 0
-375 -1224 0
-376 -427 0
-377 -428 0
-378 -429 0
-376 -568 0
-377 -569 0
-378 -570 0
-376 -910 0
-377 -911 0
-378 -912 0
-376 -1036 0
-377 -1037 0
-378 -1038 0
-376 -1405 0
-377 -1406 0
-378 -1407 0
-379 -1381 0
-380 -1382 0
-381 -1383 0
-379 -1408 0
-380 -1409 0
-381 -1410 0
-379 -1432 0
-380 -1433 0
-381 -1434 0
-382 -673 0
-383 -674 0
-384 -675 0
-385 -1057 0
-386 -1058 0
-387 -1059 0
-385 -1093 0
-386 -1094 0
-387 -1095 0
-385 -1108 0
-386 -1109 0
-387 -1110 0
-388 -841 0
-389 -842 0
-390 -843 0
-388 -913 0
-389 -914 0
-390 -915 0
-388 -1306 0
-389 -1307 0
-390 -1308 0
-388 -1342 0
-389 -1343 0
-390 -1344 0
-388 -1453 0
-389 -1454 0
-390 -1455 0
-388 -1483 0
-389 -1484 0
-390 -1485 0
-391 -514 0
-392 -515 0
-393 -516 0
-391 -613 0
-392 -614 0
-393 -615 0
-391 -823 0
-392 -824 0
-393 -825 0
-391 -1216 0
-392 -1217 0
-393 -1218 0
-391 -1264 0
-392 -1265 0
-393 -1266 0
-391 -1291 0
-392 -1292 0
-393 -1293 0
-391 -1396 0
-392 -1397 0
-393 -1398 0
-394 -520 0
-395 -521 0
-396 -522 0
-394 -1153 0
-395 -1154 0
-396 -1155 0
-397 -613 0
-398 -614 0
-399 -615 0
-397 -721 0
-398 -722 0
-399 -723 0
-397 -853 0
-398 -854 0
-399 -855 0
-397 -1072 0
-398 -1073 0
-399 -1074 0
-397 -1165 0
-398 -1166 0
-399 -1167 0
-397 -1267 0
-398 -1268 0
-399 -1269 0
-400 -631 0
-401 -632 0
-402 -633 0
-400 -688 0
-401 -689 0
-402 -690 0
-400 -874 0
-401 -875 0
-402 -876 0
-400 -1081 0
-401 -1082 0
-402 -1083 0
-400 -1276 0
-401 -1277 0
-402 -1278 0
-400 -1381 0
-401 -1382 0
-402 -1383 0
-403 -607 0
-404 -608 0
-405 -609 0
-403 -682 0
-404 -683 0
-405 -684 0
-403 -733 0
-404 -734 0
-405 -735 0
-403 -1318 0
-404 -1319 0
-405 -1320 0
-403 -1324 0
-404 -1325 0
-405 -1326 0
-406 -439 0
-407 -440 0
-408 -441 0
-406 -1390 0
-407 -1391 0
-408 -1392 0
-409 -1015 0
-410 -1016 0
-411 -1017 0
-409 -1129 0
-410 -1130 0
-411 -1131 0
-409 -1450 0
-410 -1451 0
-411 -1452 0
-412 -478 0
-413 -479 0
-414 -480 0
-412 -799 0
-413 -800 0
-414 -801 0
-412 -1258 0
-413 -1259 0
-414 -1260 0
-412 -1405 0
-413 -1406 0
-414 -1407 0
-415 -460 0
-416 -461 0
-417 -462 0
-415 -616 0
-416 -617 0
-417 -618 0
-415 -712 0
-416 -713 0
-417 -714 0
-415 -949 0
-416 -950 0
-417 -951 0
-415 -1006 0
-416 -1007 0
-417 -1008 0
-418 -433 0
-419 -434 0
-420 -435 0
-418 -787 0
-419 -788 0
-420 -789 0
-421 -742 0
-422 -743 0
-423 -744 0
-421 -826 0
-422 -827 0
-423 -828 0
-421 -1090 0
-422 -1091 0
-423 -1092 0
-421 -1156 0
-422 -1157 0
-423 -1158 0
-424 -877 0
-425 -878 0
-426 -879 0
-424 -892 0
-425 -893 0
-426 -894 0
-424 -1075 0
-425 -1076 0
-426 -1077 0
-424 -1198 0
-425 -1199 0
-426 -1200 0
-427 -625 0
-428 -626 0
-429 -627 0
-427 -652 0
-428 -653 0
-429 -654 0
-427 -1099 0
-428 -1100 0
-429 -1101 0
-427 -1117 0
-428 -1118 0
-429 -1119 0
-427 -1261 0
-428 -1262 0
-429 -1263 0
-430 -1276 0
-431 -1277 0
-432 -1278 0
-433 -751 0
-434 -752 0
-435 -753 0
-433 -1132 0
-434 -1133 0
-435 -1134 0
-436 -1003 0
-437 -1004 0
-438 -1005 0
-436 -1126 0
-437 -1127 0
-438 -1128 0
-436 -1327 0
-437 -1328 0
-438 -1329 0
-439 -517 0
-440 -518 0
-441 -519 0
-439 -790 0
-440 -791 0
-441 -792 0
-439 -1381 0
-440 -1382 0
-441 -1383 0
-439 -1408 0
-440 -1409 0
-441 -1410 0
-442 -550 0
-443 -551 0
-444 -552 0
-442 -1165 0
-443 -1166 0
-444 -1167 0
-442 -1336 0
-443 -1337 0
-444 -1338 0
-442 -1381 0
-443 -1382 0
-444 -1383 0
-442 -1486 0
-443 -1487 0
-444 -1488 0
-445 -454 0
-446 -455 0
-447 -456 0
-448 -493 0
-449 -494 0
-450 -495 0
-448 -589 0
-449 -590 0
-450 -591 0
-448 -781 0
-449 -782 0
-450 -783 0
-448 -1264 0
-449 -1265 0
-450 -1266 0
-451 -472 0
-452 -473 0
-453 -474 0
-451 -487 0
-452 -488 0
-453 -489 0
-451 -634 0
-452 -635 0
-453 -636 0
-451 -640 0
-452 -641 0
-453 -642 0
-451 -805 0
-452 -806 0
-453 -807 0
-451 -943 0
-452 -944 0
-453 -945 0
-451 -1039 0
-452 -1040 0
-453 -1041 0
-451 -1210 0
-452 -1211 0
-453 -1212 0
-451 -1249 0
-452 -1250 0
-453 -1251 0
-451 -1315 0
-452 -1316 0
-453 -1317 0
-454 -853 0
-455 -854 0
-456 -855 0
-454 -1201 0
-455 -1202 0
-456 -1203 0
-454 -1351 0
-455 -1352 0
-456 -1353 0
-457 -463 0
-458 -464 0
-459 -465 0
-457 -1192 0
-458 -1193 0
-459 -1194 0
-460 -838 0
-461 -839 0
-462 -840 0
-460 -955 0
-461 -956 0
-462 -957 0
-460 -1339 0
-461 -1340 0
-462 -1341 0
-463 -1150 0
-464 -1151 0
-465 -1152 0
-463 -1264 0
-464 -1265 0
-465 -1266 0
-466 -796 0
-467 -797 0
-468 -798 0
-466 -1048 0
-467 -1049 0
-468 -1050 0
-466 -1138 0
-467 -1139 0
-468 -1140 0
-466 -1417 0
-467 -1418 0
-468 -1419 0
-469 -1213 0
-470 -1214 0
-471 -1215 0
-469 -1318 0
-470 -1319 0
-471 -1320 0
-469 -1354 0
-470 -1355 0
-471 -1356 0
-472 -847 0
-473 -848 0
-474 -849 0
-472 -1108 0
-473 -1109 0
-474 -1110 0
-475 -712 0
-476 -713 0
-477 -714 0
-475 -805 0
-476 -806 0
-477 -807 0
-475 -1327 0
-476 -1328 0
-477 -1329 0
-478 -523 0
-479 -524 0
-480 -525 0
-478 -565 0
-479 -566 0
-480 -567 0
-478 -931 0
-479 -932 0
-480 -933 0
-478 -1483 0
-479 -1484 0
-480 -1485 0
-481 -1006 0
-482 -1007 0
-483 -1008 0
-481 -1270 0
-482 -1271 0
-483 -1272 0
-484 -505 0
-485 -506 0
-486 -507 0
-484 -571 0
-485 -572 0
-486 -573 0
-484 -1228 0
-485 -1229 0
-486 -1230 0
-487 -1111 0
-488 -1112 0
-489 -1113 0
-490 -847 0
-491 -848 0
-492 -849 0
-490 -1009 0
-491 -1010 0
-492 -1011 0
-490 -1123 0
-491 -1124 0
-492 -1125 0
-490 -1297 0
-491 -1298 0
-492 -1299 0
-490 -1333 0
-491 -1334 0
-492 -1335 0
-490 -1435 0
-491 -1436 0
-492 -1437 0
-490 -1477 0
-491 -1478 0
-492 -1479 0
-493 -1129 0
-494 -1130 0
-495 -1131 0
-493 -1168 0
-494 -1169 0
-495 -1170 0
-493 -1324 0
-494 -1325 0
-495 -1326 0
-496 -598 0
-497 -599 0
-498 -600 0
-496 -826 0
-497 -827 0
-498 -828 0
-496 -907 0
-497 -908 0
-498 -909 0
-496 -1033 0
-497 -1034 0
-498 -1035 0
-499 -745 0
-500 -746 0
-501 -747 0
-499 -1252 0
-500 -1253 0
-501 -1254 0
-502 -943 0
-503 -944 0
-504 -945 0
-502 -958 0
-503 -959 0
-504 -960 0
-502 -1120 0
-503 -1121 0
-504 -1122 0
-502 -1309 0
-503 -1310 0
-504 -1311 0
-505 -601 0
-506 -602 0
-507 -603 0
-508 -577 0
-509 -578 0
-510 -579 0
-508 -604 0
-509 -605 0
-510 -606 0
-508 -652 0
-509 -653 0
-510 -654 0
-508 -967 0
-509 -968 0
-510 -969 0
-508 -1258 0
-509 -1259 0
-510 -1260 0
-514 -805 0
-515 -806 0
-516 -807 0
-517 -559 0
-518 -560 0
-519 -561 0
-517 -562 0
-518 -563 0
-519 -564 0
-517 -1240 0
-518 -1241 0
-519 -1242 0
-520 -538 0
-521 -539 0
-522 -540 0
-520 -871 0
-521 -872 0
-522 -873 0
-520 -892 0
-521 -893 0
-522 -894 0
-520 -1039 0
-521 -1040 0
-522 -1041 0
-520 -1228 0
-521 -1229 0
-522 -1230 0
-520 -1333 0
-521 -1334 0
-522 -1335 0
-523 -622 0
-524 -623 0
-525 -624 0
-523 -1033 0
-524 -1034 0
-525 -1035 0
-523 -1237 0
-524 -1238 0
-525 -1239 0
-523 -1390 0
-524 -1391 0
-525 -1392 0
-529 -610 0
-530 -611 0
-531 -612 0
-529 -901 0
-530 -902 0
-531 -903 0
-529 -1042 0
-530 -1043 0
-531 -1044 0
-529 -1228 0
-530 -1229 0
-531 -1230 0
-529 -1339 0
-530 -1340 0
-531 -1341 0
-532 -940 0
-533 -941 0
-534 -942 0
-532 -1009 0
-533 -1010 0
-534 -1011 0
-532 -1255 0
-533 -1256 0
-534 -1257 0
-535 -649 0
-536 -650 0
-537 -651 0
-535 -1168 0
-536 -1169 0
-537 -1170 0
-535 -1348 0
-536 -1349 0
-537 -1350 0
-538 -625 0
-539 -626 0
-540 -627 0
-538 -1465 0
-539 -1466 0
-540 -1467 0
-541 -901 0
-542 -902 0
-543 -903 0
-541 -955 0
-542 -956 0
-543 -957 0
-544 -562 0
-545 -563 0
-546 -564 0
-544 -1054 0
-545 -1055 0
-546 -1056 0
-544 -1084 0
-545 -1085 0
-546 -1086 0
-547 -586 0
-548 -587 0
-549 -588 0
-547 -634 0
-548 -635 0
-549 -636 0
-547 -691 0
-548 -692 0
-549 -693 0
-547 -1015 0
-548 -1016 0
-549 -1017 0
-547 -1441 0
-548 -1442 0
-549 -1443 0
-547 -1495 0
-548 -1496 0
-549 -1497 0
-550 -1105 0
-551 -1106 0
-552 -1107 0
-550 -1141 0
-551 -1142 0
-552 -1143 0
-553 -586 0
-554 -587 0
-555 -588 0
-553 -673 0
-554 -674 0
-555 -675 0
-553 -997 0
-554 -998 0
-555 -999 0
-553 -1477 0
-554 -1478 0
-555 -1479 0
-556 -613 0
-557 -614 0
-558 -615 0
-556 -733 0
-557 -734 0
-558 -735 0
-556 -769 0
-557 -770 0
-558 -771 0
-556 -1327 0
-557 -1328 0
-558 -1329 0
-556 -1387 0
-557 -1388 0
-558 -1389 0
-559 -742 0
-560 -743 0
-561 -744 0
-559 -991 0
-560 -992 0
-561 -993 0
-559 -1012 0
-560 -1013 0
-561 -1014 0
-559 -1279 0
-560 -1280 0
-561 -1281 0
-562 -892 0
-563 -893 0
-564 -894 0
-562 -1495 0
-563 -1496 0
-564 -1497 0
-568 -1057 0
-569 -1058 0
-570 -1059 0
-568 -1168 0
-569 -1169 0
-570 -1170 0
-568 -1252 0
-569 -1253 0
-570 -1254 0
-571 -1000 0
-572 -1001 0
-573 -1002 0
-571 -1483 0
-572 -1484 0
-573 -1485 0
-571 -1492 0
-572 -1493 0
-573 -1494 0
-574 -1048 0
-575 -1049 0
-576 -1050 0
-577 -904 0
-578 -905 0
-579 -906 0
-577 -958 0
-578 -959 0
-579 -960 0
-577 -1165 0
-578 -1166 0
-579 -1167 0
-577 -1243 0
-578 -1244 0
-579 -1245 0
-580 -805 0
-581 -806 0
-582 -807 0
-580 -949 0
-581 -950 0
-582 -951 0
-580 -1021 0
-581 -1022 0
-582 -1023 0
-580 -1129 0
-581 -1130 0
-582 -1131 0
-580 -1243 0
-581 -1244 0
-582 -1245 0
-580 -1333 0
-581 -1334 0
-582 -1335 0
-583 -982 0
-584 -983 0
-585 -984 0
-586 -940 0
-587 -941 0
-588 -942 0
-586 -1252 0
-587 -1253 0
-588 -1254 0
-586 -1378 0
-587 -1379 0
-588 -1380 0
-589 -1489 0
-590 -1490 0
-591 -1491 0
-592 -769 0
-593 -770 0
-594 -771 0
-592 -811 0
-593 -812 0
-594 -813 0
-592 -1045 0
-593 -1046 0
-594 -1047 0
-592 -1279 0
-593 -1280 0
-594 -1281 0
-592 -1378 0
-593 -1379 0
-594 -1380 0
-595 -805 0
-596 -806 0
-597 -807 0
-595 -829 0
-596 -830 0
-597 -831 0
-595 -853 0
-596 -854 0
-597 -855 0
-595 -1225 0
-596 -1226 0
-597 -1227 0
-595 -1465 0
-596 -1466 0
-597 -1467 0
-601 -1234 0
-602 -1235 0
-603 -1236 0
-604 -868 0
-605 -869 0
-606 -870 0
-607 -775 0
-608 -776 0
-609 -777 0
-607 -1066 0
-608 -1067 0
-609 -1068 0
-610 -877 0
-611 -878 0
-612 -879 0
-610 -1066 0
-611 -1067 0
-612 -1068 0
-610 -1222 0
-611 -1223 0
-612 -1224 0
-610 -1279 0
-611 -1280 0
-612 -1281 0
-610 -1360 0
-611 -1361 0
-612 -1362 0
-613 -787 0
-614 -788 0
-615 -789 0
-613 -1123 0
-614 -1124 0
-615 -1125 0
-613 -1474 0
-614 -1475 0
-615 -1476 0
-616 -643 0
-617 -644 0
-618 -645 0
-616 -736 0
-617 -737 0
-618 -738 0
-616 -784 0
-617 -785 0
-618 -786 0
-616 -1069 0
-617 -1070 0
-618 -1071 0
-616 -1099 0
-617 -1100 0
-618 -1101 0
-616 -1174 0
-617 -1175 0
-618 -1176 0
-616 -1252 0
-617 -1253 0
-618 -1254 0
-616 -1339 0
-617 -1340 0
-618 -1341 0
-622 -829 0
-623 -830 0
-624 -831 0
-625 -694 0
-626 -695 0
-627 -696 0
-628 -652 0
-629 -653 0
-630 -654 0
-628 -682 0
-629 -683 0
-630 -684 0
-628 -733 0
-629 -734 0
-630 -735 0
-628 -1183 0
-629 -1184 0
-630 -1185 0
-628 -1285 0
-629 -1286 0
-630 -1287 0
-628 -1348 0
-629 -1349 0
-630 -1350 0
-631 -1348 0
-632 -1349 0
-633 -1350 0
-634 -724 0
-635 -725 0
-636 -726 0
-634 -781 0
-635 -782 0
-636 -783 0
-634 -901 0
-635 -902 0
-636 -903 0
-634 -1387 0
-635 -1388 0
-636 -1389 0
-637 -766 0
-638 -767 0
-639 -768 0
-637 -769 0
-638 -770 0
-639 -771 0
-637 -982 0
-638 -983 0
-639 -984 0
-637 -1348 0
-638 -1349 0
-639 -1350 0
-637 -1351 0
-638 -1352 0
-639 -1353 0
-637 -1354 0
-638 -1355 0
-639 -1356 0
-640 -709 0
-641 -710 0
-642 -711 0
-640 -1285 0
-641 -1286 0
-642 -1287 0
-643 -796 0
-644 -797 0
-645 -798 0
-643 -1036 0
-644 -1037 0
-645 -1038 0
-646 -832 0
-647 -833 0
-648 -834 0
-646 -931 0
-647 -932 0
-648 -933 0
-646 -988 0
-647 -989 0
-648 -990 0
-646 -1291 0
-647 -1292 0
-648 -1293 0
-649 -1009 0
-650 -1010 0
-651 -1011 0
-652 -679 0
-653 -680 0
-654 -681 0
-652 -1102 0
-653 -1103 0
-654 -1104 0
-652 -1195 0
-653 -1196 0
-654 -1197 0
-652 -1210 0
-653 -1211 0
-654 -1212 0
-652 -1477 0
-653 -1478 0
-654 -1479 0
-658 -796 0
-659 -797 0
-660 -798 0
-661 -1291 0
-662 -1292 0
-663 -1293 0
-661 -1465 0
-662 -1466 0
-663 -1467 0
-664 -880 0
-665 -881 0
-666 -882 0
-664 -931 0
-665 -932 0
-666 -933 0
-667 -1054 0
-668 -1055 0
-669 -1056 0
-670 -820 0
-671 -821 0
-672 -822 0
-670 -892 0
-671 -893 0
-672 -894 0
-670 -1264 0
-671 -1265 0
-672 -1266 0
-670 -1333 0
-671 -1334 0
-672 -1335 0
-673 -709 0
-674 -710 0
-675 -711 0
-673 -934 0
-674 -935 0
-675 -936 0
-673 -991 0
-674 -992 0
-675 -993 0
-673 -1186 0
-674 -1187 0
-675 -1188 0
-673 -1216 0
-674 -1217 0
-675 -1218 0
-673 -1309 0
-674 -1310 0
-675 -1311 0
-673 -1315 0
-674 -1316 0
-675 -1317 0
-676 -997 0
-677 -998 0
-678 -999 0
-676 -1210 0
-677 -1211 0
-678 -1212 0
-679 -901 0
-680 -902 0
-681 -903 0
-682 -817 0
-683 -818 0
-684 -819 0
-682 -850 0
-683 -851 0
-684 -852 0
-682 -1309 0
-683 -1310 0
-684 -1311 0
-682 -1348 0
-683 -1349 0
-684 -1350 0
-682 -1372 0
-683 -1373 0
-684 -1374 0
-682 -1390 0
-683 -1391 0
-684 -1392 0
-685 -1051 0
-686 -1052 0
-687 -1053 0
-688 -925 0
-689 -926 0
-690 -927 0
-688 -1318 0
-689 -1319 0
-690 -1320 0
-688 -1351 0
-689 -1352 0
-690 -1353 0
-691 -934 0
-692 -935 0
-693 -936 0
-691 -1207 0
-692 -1208 0
-693 -1209 0
-694 -1183 0
-695 -1184 0
-696 -1185 0
-697 -1270 0
-698 -1271 0
-699 -1272 0
-697 -1435 0
-698 -1436 0
-699 -1437 0
-697 -1492 0
-698 -1493 0
-699 -1494 0
-700 -838 0
-701 -839 0
-702 -840 0
-700 -868 0
-701 -869 0
-702 -870 0
-700 -1231 0
-701 -1232 0
-702 -1233 0
-700 -1405 0
-701 -1406 0
-702 -1407 0
-700 -1459 0
-701 -1460 0
-702 -1461 0
-703 -730 0
-704 -731 0
-705 -732 0
-703 -1069 0
-704 -1070 0
-705 -1071 0
-706 -769 0
-707 -770 0
-708 -771 0
-706 -1186 0
-707 -1187 0
-708 -1188 0
-706 -1444 0
-707 -1445 0
-708 -1446 0
-709 -859 0
-710 -860 0
-711 -861 0
-709 -1261 0
-710 -1262 0
-711 -1263 0
-709 -1300 0
-710 -1301 0
-711 -1302 0
-712 -991 0
-713 -992 0
-714 -993 0
-712 -1045 0
-713 -1046 0
-714 -1047 0
-712 -1327 0
-713 -1328 0
-714 -1329 0
-718 -1312 0
-719 -1313 0
-720 -1314 0
-721 -898 0
-722 -899 0
-723 -900 0
-721 -1282 0
-722 -1283 0
-723 -1284 0
-721 -1435 0
-722 -1436 0
-723 -1437 0
-721 -1462 0
-722 -1463 0
-723 -1464 0
-724 -793 0
-725 -794 0
-726 -795 0
-724 -820 0
-725 -821 0
-726 -822 0
-724 -961 0
-725 -962 0
-726 -963 0
-724 -1117 0
-725 -1118 0
-726 -1119 0
-724 -1399 0
-725 -1400 0
-726 -1401 0
-727 -1330 0
-728 -1331 0
-729 -1332 0
-730 -883 0
-731 -884 0
-732 -885 0
-730 -1120 0
-731 -1121 0
-732 -1122 0
-730 -1147 0
-731 -1148 0
-732 -1149 0
-730 -1471 0
-731 -1472 0
-732 -1473 0
-736 -1435 0
-737 -1436 0
-738 -1437 0
-739 -1000 0
-740 -1001 0
-741 -1002 0
-739 -1231 0
-740 -1232 0
-741 -1233 0
-739 -1333 0
-740 -1334 0
-741 -1335 0
-739 -1396 0
-740 -1397 0
-741 -1398 0
-742 -781 0
-743 -782 0
-744 -783 0
-745 -1231 0
-746 -1232 0
-747 -1233 0
-748 -766 0
-749 -767 0
-750 -768 0
-748 -1018 0
-749 -1019 0
-750 -1020 0
-748 -1210 0
-749 -1211 0
-750 -1212 0
-748 -1297 0
-749 -1298 0
-750 -1299 0
-748 -1345 0
-749 -1346 0
-750 -1347 0
-751 -802 0
-752 -803 0
-753 -804 0
-751 -1312 0
-752 -1313 0
-753 -1314 0
-757 -1246 0
-758 -1247 0
-759 -1248 0
-757 -1438 0
-758 -1439 0
-759 -1440 0
-757 -1459 0
-758 -1460 0
-759 -1461 0
-760 -1288 0
-761 -1289 0
-762 -1290 0
-766 -1045 0
-767 -1046 0
-768 -1047 0
-766 -1189 0
-767 -1190 0
-768 -1191 0
-766 -1438 0
-767 -1439 0
-768 -1440 0
-769 -826 0
-770 -827 0
-771 -828 0
-769 -919 0
-770 -920 0
-771 -921 0
-769 -1165 0
-770 -1166 0
-771 -1167 0
-769 -1288 0
-770 -1289 0
-771 -1290 0
-772 -1300 0
-773 -1301 0
-774 -1302 0
-775 -1138 0
-776 -1139 0
-777 -1140 0
-775 -1159 0
-776 -1160 0
-777 -1161 0
-775 -1318 0
-776 -1319 0
-777 -1320 0
-775 -1363 0
-776 -1364 0
-777 -1365 0
-775 -1447 0
-776 -1448 0
-777 -1449 0
-778 -841 0
-779 -842 0
-780 -843 0
-778 -856 0
-779 -857 0
-780 -858 0
-778 -940 0
-779 -941 0
-780 -942 0
-778 -1120 0
-779 -1121 0
-780 -1122 0
-778 -1177 0
-779 -1178 0
-780 -1179 0
-787 -1339 0
-788 -1340 0
-789 -1341 0
-790 -961 0
-791 -962 0
-792 -963 0
-790 -1282 0
-791 -1283 0
-792 -1284 0
-790 -1315 0
-791 -1316 0
-792 -1317 0
-793 -1036 0
-794 -1037 0
-795 -1038 0
-796 -1222 0
-797 -1223 0
-798 -1224 0
-796 -1354 0
-797 -1355 0
-798 -1356 0
-796 -1489 0
-797 -1490 0
-798 -1491 0
-799 -985 0
-800 -986 0
-801 -987 0
-802 -1039 0
-803 -1040 0
-804 -1041 0
-802 -1249 0
-803 -1250 0
-804 -1251 0
-805 -955 0
-806 -956 0
-807 -957 0
-805 -1084 0
-806 -1085 0
-807 -1086 0
-805 -1180 0
-806 -1181 0
-807 -1182 0
-805 -1480 0
-806 -1481 0
-807 -1482 0
-808 -943 0
-809 -944 0
-810 -945 0
-808 -1216 0
-809 -1217 0
-810 -1218 0
-808 -1348 0
-809 -1349 0
-810 -1350 0
-808 -1372 0
-809 -1373 0
-810 -1374 0
-814 -1066 0
-815 -1067 0
-816 -1068 0
-814 -1312 0
-815 -1313 0
-816 -1314 0
-814 -1447 0
-815 -1448 0
-816 -1449 0
-814 -1456 0
-815 -1457 0
-816 -1458 0
-817 -838 0
-818 -839 0
-819 -840 0
-820 -1180 0
-821 -1181 0
-822 -1182 0
-823 -889 0
-824 -890 0
-825 -891 0
-823 -1138 0
-824 -1139 0
-825 -1140 0
-826 -913 0
-827 -914 0
-828 -915 0
-826 -1120 0
-827 -1121 0
-828 -1122 0
-826 -1468 0
-827 -1469 0
-828 -1470 0
-829 -832 0
-830 -833 0
-831 -834 0
-829 -1021 0
-830 -1022 0
-831 -1023 0
-829 -1480 0
-830 -1481 0
-831 -1482 0
-832 -835 0
-833 -836 0
-834 -837 0
-832 -841 0
-833 -842 0
-834 -843 0
-832 -976 0
-833 -977 0
-834 -978 0
-832 -1471 0
-833 -1472 0
-834 -1473 0
-838 -955 0
-839 -956 0
-840 -957 0
-838 -994 0
-839 -995 0
-840 -996 0
-841 -1105 0
-842 -1106 0
-843 -1107 0
-844 -1219 0
-845 -1220 0
-846 -1221 0
-847 -991 0
-848 -992 0
-849 -993 0
-847 -1132 0
-848 -1133 0
-849 -1134 0
-850 -1087 0
-851 -1088 0
-852 -1089 0
-850 -1462 0
-851 -1463 0
-852 -1464 0
-850 -1495 0
-851 -1496 0
-852 -1497 0
-853 -901 0
-854 -902 0
-855 -903 0
-853 -1042 0
-854 -1043 0
-855 -1044 0
-856 -1117 0
-857 -1118 0
-858 -1119 0
-859 -973 0
-860 -974 0
-861 -975 0
-862 -994 0
-863 -995 0
-864 -996 0
-862 -1117 0
-863 -1118 0
-864 -1119 0
-862 -1459 0
-863 -1460 0
-864 -1461 0
-865 -913 0
-866 -914 0
-867 -915 0
-865 -955 0
-866 -956 0
-867 -957 0
-865 -1135 0
-866 -1136 0
-867 -1137 0
-865 -1375 0
-866 -1376 0
-867 -1377 0
-865 -1426 0
-866 -1427 0
-867 -1428 0
-868 -1036 0
-869 -1037 0
-870 -1038 0
-868 -1165 0
-869 -1166 0
-870 -1167 0
-871 -970 0
-872 -971 0
-873 -972 0
-874 -892 0
-875 -893 0
-876 -894 0
-874 -1489 0
-875 -1490 0
-876 -1491 0
-877 -1489 0
-878 -1490 0
-879 -1491 0
-880 -1162 0
-881 -1163 0
-882 -1164 0
-889 -1006 0
-890 -1007 0
-891 -1008 0
-892 -910 0
-893 -911 0
-894 -912 0
-892 -1306 0
-893 -1307 0
-894 -1308 0
-892 -1318 0
-893 -1319 0
-894 -1320 0
-895 -1393 0
-896 -1394 0
-897 -1395 0
-895 -1453 0
-896 -1454 0
-897 -1455 0
-898 -964 0
-899 -965 0
-900 -966 0
-898 -1147 0
-899 -1148 0
-900 -1149 0
-901 -1417 0
-902 -1418 0
-903 -1419 0
-907 -1033 0
-908 -1034 0
-909 -1035 0
-907 -1405 0
-908 -1406 0
-909 -1407 0
-913 -1297 0
-914 -1298 0
-915 -1299 0
-916 -928 0
-917 -929 0
-918 -930 0
-916 -1216 0
-917 -1217 0
-918 -1218 0
-919 -1222 0
-920 -1223 0
-921 -1224 0
-919 -1276 0
-920 -1277 0
-921 -1278 0
-919 -1468 0
-920 -1469 0
-921 -1470 0
-925 -1027 0
-926 -1028 0
-927 -1029 0
-928 -1141 0
-929 -1142 0
-930 -1143 0
-937 -1123 0
-938 -1124 0
-939 -1125 0
-943 -1312 0
-944 -1313 0
-945 -1314 0
-946 -976 0
-947 -977 0
-948 -978 0
-946 -1201 0
-947 -1202 0
-948 -1203 0
-946 -1480 0
-947 -1481 0
-948 -1482 0
-949 -961 0
-950 -962 0
-951 -963 0
-949 -1426 0
-950 -1427 0
-951 -1428 0
-952 -1402 0
-953 -1403 0
-954 -1404 0
-955 -1096 0
-956 -1097 0
-957 -1098 0
-955 -1213 0
-956 -1214 0
-957 -1215 0
-955 -1303 0
-956 -1304 0
-957 -1305 0
-955 -1324 0
-956 -1325 0
-957 -1326 0
-958 -1006 0
-959 -1007 0
-960 -1008 0
-964 -994 0
-965 -995 0
-966 -996 0
-964 -1324 0
-965 -1325 0
-966 -1326 0
-973 -1249 0
-974 -1250 0
-975 -1251 0
-976 -1213 0
-977 -1214 0
-978 -1215 0
-982 -1108 0
-983 -1109 0
-984 -1110 0
-982 -1183 0
-983 -1184 0
-984 -1185 0
-982 -1312 0
-983 -1313 0
-984 -1314 0
-985 -1273 0
-986 -1274 0
-987 -1275 0
-991 -1036 0
-992 -1037 0
-993 -1038 0
-991 -1447 0
-992 -1448 0
-993 -1449 0
-994 -1162 0
-995 -1163 0
-996 -1164 0
-1000 -1144 0
-1001 -1145 0
-1002 -1146 0
-1000 -1225 0
-1001 -1226 0
-1002 -1227 0
-1000 -1420 0
-1001 -1421 0
-1002 -1422 0
-1003 -1102 0
-1004 -1103 0
-1005 -1104 0
-1003 -1267 0
-1004 -1268 0
-1005 -1269 0
-1009 -1030 0
-1010 -1031 0
-1011 -1032 0
-1012 -1129 0
-1013 -1130 0
-1014 -1131 0
-1021 -1429 0
-1022 -1430 0
-1023 -1431 0
-1024 -1054 0
-1025 -1055 0
-1026 -1056 0
-1024 -1231 0
-1025 -1232 0
-1026 -1233 0
-1024 -1402 0
-1025 -1403 0
-1026 -1404 0
-1027 -1105 0
-1028 -1106 0
-1029 -1107 0
-1033 -1270 0
-1034 -1271 0
-1035 -1272 0
-1036 -1117 0
-1037 -1118 0
-1038 -1119 0
-1036 -1165 0
-1037 -1166 0
-1038 -1167 0
-1036 -1273 0
-1037 -1274 0
-1038 -1275 0
-1036 -1411 0
-1037 -1412 0
-1038 -1413 0
-1039 -1153 0
-1040 -1154 0
-1041 -1155 0
-1042 -1186 0
-1043 -1187 0
-1044 -1188 0
-1045 -1411 0
-1046 -1412 0
-1047 -1413 0
-1048 -1075 0
-1049 -1076 0
-1050 -1077 0
-1048 -1162 0
-1049 -1163 0
-1050 -1164 0
-1048 -1204 0
-1049 -1205 0
-1050 -1206 0
-1048 -1441 0
-1049 -1442 0
-1050 -1443 0
-1051 -1078 0
-1052 -1079 0
-1053 -1080 0
-1060 -1081 0
-1061 -1082 0
-1062 -1083 0
-1066 -1105 0
-1067 -1106 0
-1068 -1107 0
-1066 -1150 0
-1067 -1151 0
-1068 -1152 0
-1066 -1270 0
-1067 -1271 0
-1068 -1272 0
-1069 -1174 0
-1070 -1175 0
-1071 -1176 0
-1069 -1354 0
-1070 -1355 0
-1071 -1356 0
-1078 -1237 0
-1079 -1238 0
-1080 -1239 0
-1078 -1447 0
-1079 -1448 0
-1080 -1449 0
-1081 -1213 0
-1082 -1214 0
-1083 -1215 0
-1081 -1456 0
-1082 -1457 0
-1083 -1458 0
-1084 -1300 0
-1085 -1301 0
-1086 -1302 0
-1087 -1153 0
-1088 -1154 0
-1089 -1155 0
-1087 -1366 0
-1088 -1367 0
-1089 -1368 0
-1090 -1156 0
-1091 -1157 0
-1092 -1158 0
-1090 -1222 0
-1091 -1223 0
-1092 -1224 0
-1090 -1405 0
-1091 -1406 0
-1092 -1407 0
-1093 -1393 0
-1094 -1394 0
-1095 -1395 0
-1093 -1408 0
-1094 -1409 0
-1095 -1410 0
-1096 -1273 0
-1097 -1274 0
-1098 -1275 0
-1105 -1159 0
-1106 -1160 0
-1107 -1161 0
-1108 -1363 0
-1109 -1364 0
-1110 -1365 0
-1114 -1381 0
-1115 -1382 0
-1116 -1383 0
-1120 -1318 0
-1121 -1319 0
-1122 -1320 0
-1120 -1372 0
-1121 -1373 0
-1122 -1374 0
-1123 -1150 0
-1124 -1151 0
-1125 -1152 0
-1126 -1141 0
-1127 -1142 0
-1128 -1143 0
-1126 -1405 0
-1127 -1406 0
-1128 -1407 0
-1126 -1474 0
-1127 -1475 0
-1128 -1476 0
-1129 -1177 0
-1130 -1178 0
-1131 -1179 0
-1138 -1264 0
-1139 -1265 0
-1140 -1266 0
-1147 -1210 0
-1148 -1211 0
-1149 -1212 0
-1147 -1339 0
-1148 -1340 0
-1149 -1341 0
-1147 -1438 0
-1148 -1439 0
-1149 -1440 0
-1150 -1165 0
-1151 -1166 0
-1152 -1167 0
-1153 -1249 0
-1154 -1250 0
-1155 -1251 0
-1153 -1327 0
-1154 -1328 0
-1155 -1329 0
-1153 -1351 0
-1154 -1352 0
-1155 -1353 0
-1156 -1258 0
-1157 -1259 0
-1158 -1260 0
-1156 -1495 0
-1157 -1496 0
-1158 -1497 0
-1159 -1450 0
-1160 -1451 0
-1161 -1452 0
-1162 -1201 0
-1163 -1202 0
-1164 -1203 0
-1162 -1393 0
-1163 -1394 0
-1164 -1395 0
-1165 -1303 0
-1166 -1304 0
-1167 -1305 0
-1165 -1438 0
-1166 -1439 0
-1167 -1440 0
-1171 -1384 0
-1172 -1385 0
-1173 -1386 0
-1174 -1177 0
-1175 -1178 0
-1176 -1179 0
-1174 -1195 0
-1175 -1196 0
-1176 -1197 0
-1174 -1228 0
-1175 -1229 0
-1176 -1230 0
-1183 -1330 0
-1184 -1331 0
-1185 -1332 0
-1186 -1276 0
-1187 -1277 0
-1188 -1278 0
-1189 -1276 0
-1190 -1277 0
-1191 -1278 0
-1195 -1237 0
-1196 -1238 0
-1197 -1239 0
-1198 -1387 0
-1199 -1388 0
-1200 -1389 0
-1204 -1309 0
-1205 -1310 0
-1206 -1311 0
-1204 -1444 0
-1205 -1445 0
-1206 -1446 0
-1216 -1348 0
-1217 -1349 0
-1218 -1350 0
-1219 -1294 0
-1220 -1295 0
-1221 -1296 0
-1222 -1435 0
-1223 -1436 0
-1224 -1437 0
-1225 -1369 0
-1226 -1370 0
-1227 -1371 0
-1228 -1366 0
-1229 -1367 0
-1230 -1368 0
-1231 -1468 0
-1232 -1469 0
-1233 -1470 0
-1246 -1375 0
-1247 -1376 0
-1248 -1377 0
-1246 -1408 0
-1247 -1409 0
-1248 -1410 0
-1246 -1420 0
-1247 -1421 0
-1248 -1422 0
-1246 -1435 0
-1247 -1436 0
-1248 -1437 0
-1246 -1495 0
-1247 -1496 0
-1248 -1497 0
-1249 -1468 0
-1250 -1469 0
-1251 -1470 0
-1252 -1306 0
-1253 -1307 0
-1254 -1308 0
-1261 -1438 0
-1262 -1439 0
-1263 -1440 0
-1261 -1459 0
-1262 -1460 0
-1263 -1461 0
-1264 -1306 0
-1265 -1307 0
-1266 -1308 0
-1267 -1366 0
-1268 -1367 0
-1269 -1368 0
-1270 -1279 0
-1271 -1280 0
-1272 -1281 0
-1276 -1477 0
-1277 -1478 0
-1278 -1479 0
-1282 -1345 0
-1283 -1346 0
-1284 -1347 0
-1282 -1399 0
-1283 -1400 0
-1284 -1401 0
-1288 -1348 0
-1289 -1349 0
-1290 -1350 0
-1288 -1465 0
-1289 -1466 0
-1290 -1467 0
-1288 -1492 0
-1289 -1493 0
-1290 -1494 0
-1306 -1360 0
-1307 -1361 0
-1308 -1362 0
-1315 -1393 0
-1316 -1394 0
-1317 -1395 0
-1324 -1387 0
-1325 -1388 0
-1326 -1389 0
-1324 -1492 0
-1325 -1493 0
-1326 -1494 0
-1327 -1339 0
-1328 -1340 0
-1329 -1341 0
-1327 -1369 0
-1328 -1370 0
-1329 -1371 0
-1327 -1429 0
-1328 -1430 0
-1329 -1431 0
-1330 -1399 0
-1331 -1400 0
-1332 -1401 0
-1330 -1471 0
-1331 -1472 0
-1332 -1473 0
-1333 -1402 0
-1334 -1403 0
-1335 -1404 0
-1336 -1441 0
-1337 -1442 0
-1338 -1443 0
-1339 -1435 0
-1340 -1436 0
-1341 -1437 0
-1345 -1381 0
-1346 -1382 0
-1347 -1383 0
-1345 -1435 0
-1346 -1436 0
-1347 -1437 0
-1348 -1387 0
-1349 -1388 0
-1350 -1389 0
-1351 -1495 0
-1352 -1496 0
-1353 -1497 0
-1366 -1414 0
-1367 -1415 0
-1368 -1416 0
-1369 -1384 0
-1370 -1385 0
-1371 -1386 0
-1387 -1420 0
-1388 -1421 0
-1389 -1422 0
-1387 -1474 0
-1388 -1475 0
-1389 -1476 0
-1390 -1420 0
-1391 -1421 0
-1392 -1422 0
-1390 -1429 0
-1391 -1430 0
-1392 -1431 0
-1390 -1474 0
-1391 -1475 0
-1392 -1476 0
-1399 -1435 0
-1400 -1436 0
-1401 -1437 0
-1399 -1444 0
-1400 -1445 0
-1401 -1446 0
-1402 -1423 0
-1403 -1424 0
-1404 -1425 0
-1405 -1417 0
-1406 -1418 0
-1407 -1419 0
-1414 -1432 0
-1415 -1433 0
-1416 -1434 0
-1414 -1450 0
-1415 -1451 0
-1416 -1452 0
