p cnf 1500 5687
1 2 3 0
4 5 6 0
7 8 9 0
10 11 12 0
13 14 15 0
16 17 18 0
19 20 21 0
22 23 24 0
25 26 27 0
28 29 30 0
31 32 33 0
34 35 36 0
37 38 39 0
40 41 42 0
43 44 45 0
46 47 48 0
49 50 51 0
52 53 54 0
55 56 57 0
58 59 60 0
61 62 63 0
64 65 66 0
67 68 69 0
70 71 72 0
73 74 75 0
76 77 78 0
79 80 81 0
82 83 84 0
85 86 87 0
88 89 90 0
91 92 93 0
94 95 96 0
97 98 99 0
100 101 102 0
103 104 105 0
106 107 108 0
109 110 111 0
112 113 114 0
115 116 117 0
118 119 120 0
121 122 123 0
124 125 126 0
127 128 129 0
130 131 132 0
133 134 135 0
136 137 138 0
139 140 141 0
142 143 144 0
145 146 147 0
148 149 150 0
151 152 153 0
154 155 156 0
157 158 159 0
160 161 162 0
163 164 165 0
166 167 168 0
169 170 171 0
172 173 174 0
175 176 177 0
178 179 180 0
181 182 183 0
184 185 186 0
187 188 189 0
190 191 192 0
193 194 195 0
196 197 198 0
199 200 201 0
202 203 204 0
205 206 207 0
208 209 210 0
211 212 213 0
214 215 216 0
217 218 219 0
220 221 222 0
223 224 225 0
226 227 228 0
229 230 231 0
232 233 234 0
235 236 237 0
238 239 240 0
241 242 243 0
244 245 246 0
247 248 249 0
250 251 252 0
253 254 255 0
256 257 258 0
259 260 261 0
262 263 264 0
265 266 267 0
268 269 270 0
271 272 273 0
274 275 276 0
277 278 279 0
280 281 282 0
283 284 285 0
286 287 288 0
289 290 291 0
292 293 294 0
295 296 297 0
298 299 300 0
301 302 303 0
304 305 306 0
307 308 309 0
310 311 312 0
313 314 315 0
316 317 318 0
319 320 321 0
322 323 324 0
325 326 327 0
328 329 330 0
331 332 333 0
334 335 336 0
337 338 339 0
340 341 342 0
343 344 345 0
346 347 348 0
349 350 351 0
352 353 354 0
355 356 357 0
358 359 360 0
361 362 363 0
364 365 366 0
367 368 369 0
370 371 372 0
373 374 375 0
376 377 378 0
379 380 381 0
382 383 384 0
385 386 387 0
388 389 390 0
391 392 393 0
394 395 396 0
397 398 399 0
400 401 402 0
403 404 405 0
406 407 408 0
409 410 411 0
412 413 414 0
415 416 417 0
418 419 420 0
421 422 423 0
424 425 426 0
427 428 429 0
430 431 432 0
433 434 435 0
436 437 438 0
439 440 441 0
442 443 444 0
445 446 447 0
448 449 450 0
451 452 453 0
454 455 456 0
457 458 459 0
460 461 462 0
463 464 465 0
466 467 468 0
469 470 471 0
472 473 474 0
475 476 477 0
478 479 480 0
481 482 483 0
484 485 486 0
487 488 489 0
490 491 492 0
493 494 495 0
496 497 498 0
499 500 501 0
502 503 504 0
505 506 507 0
508 509 510 0
511 512 513 0
514 515 516 0
517 518 519 0
520 521 522 0
523 524 525 0
526 527 528 0
529 530 531 0
532 533 534 0
535 536 537 0
538 539 540 0
541 542 543 0
544 545 546 0
547 548 549 0
550 551 552 0
553 554 555 0
556 557 558 0
559 560 561 0
562 563 564 0
565 566 567 0
568 569 570 0
571 572 573 0
574 575 576 0
577 578 579 0
580 581 582 0
583 584 585 0
586 587 588 0
589 590 591 0
592 593 594 0
595 596 597 0
598 599 600 0
601 602 603 0
604 605 606 0
607 608 609 0
610 611 612 0
613 614 615 0
616 617 618 0
619 620 621 0
622 623 624 0
625 626 627 0
628 629 630 0
631 632 633 0
634 635 636 0
637 638 639 0
640 641 642 0
643 644 645 0
646 647 648 0
649 650 651 0
652 653 654 0
655 656 657 0
658 659 660 0
661 662 663 0
664 665 666 0
667 668 669 0
670 671 672 0
673 674 675 0
676 677 678 0
679 680 681 0
682 683 684 0
685 686 687 0
688 689 690 0
691 692 693 0
694 695 696 0
697 698 699 0
700 701 702 0
703 704 705 0
706 707 708 0
709 710 711 0
712 713 714 0
715 716 717 0
718 719 720 0
721 722 723 0
724 725 726 0
727 728 729 0
730 731 732 0
733 734 735 0
736 737 738 0
739 740 741 0
742 743 744 0
745 746 747 0
748 749 750 0
751 752 753 0
754 755 756 0
757 758 759 0
760 761 762 0
763 764 765 0
766 767 768 0
769 770 771 0
772 773 774 0
775 776 777 0
778 779 780 0
781 782 783 0
784 785 786 0
787 788 789 0
790 791 792 0
793 794 795 0
796 797 798 0
799 800 801 0
802 803 804 0
805 806 807 0
808 809 810 0
811 812 813 0
814 815 816 0
817 818 819 0
820 821 822 0
823 824 825 0
826 827 828 0
829 830 831 0
832 833 834 0
835 836 837 0
838 839 840 0
841 842 843 0
844 845 846 0
847 848 849 0
850 851 852 0
853 854 855 0
856 857 858 0
859 860 861 0
862 863 864 0
865 866 867 0
868 869 870 0
871 872 873 0
874 875 876 0
877 878 879 0
880 881 882 0
883 884 885 0
886 887 888 0
889 890 891 0
892 893 894 0
895 896 897 0
898 899 900 0
901 902 903 0
904 905 906 0
907 908 909 0
910 911 912 0
913 914 915 0
916 917 918 0
919 920 921 0
922 923 924 0
925 926 927 0
928 929 930 0
931 932 933 0
934 935 936 0
937 938 939 0
940 941 942 0
943 944 945 0
946 947 948 0
949 950 951 0
952 953 954 0
955 956 957 0
958 959 960 0
961 962 963 0
964 965 966 0
967 968 969 0
970 971 972 0
973 974 975 0
976 977 978 0
979 980 981 0
982 983 984 0
985 986 987 0
988 989 990 0
991 992 993 0
994 995 996 0
997 998 999 0
1000 1001 1002 0
1003 1004 1005 0
1006 1007 1008 0
1009 1010 1011 0
1012 1013 1014 0
1015 1016 1017 0
1018 1019 1020 0
1021 1022 1023 0
1024 1025 1026 0
1027 1028 1029 0
1030 1031 1032 0
1033 1034 1035 0
1036 1037 1038 0
1039 1040 1041 0
1042 1043 1044 0
1045 1046 1047 0
1048 1049 1050 0
1051 1052 1053 0
1054 1055 1056 0
1057 1058 1059 0
1060 1061 1062 0
1063 1064 1065 0
1066 1067 1068 0
1069 1070 1071 0
1072 1073 1074 0
1075 1076 1077 0
1078 1079 1080 0
1081 1082 1083 0
1084 1085 1086 0
1087 1088 1089 0
1090 1091 1092 0
1093 1094 1095 0
1096 1097 1098 0
1099 1100 1101 0
1102 1103 1104 0
1105 1106 1107 0
1108 1109 1110 0
1111 1112 1113 0
1114 1115 1116 0
1117 1118 1119 0
1120 1121 1122 0
1123 1124 1125 0
1126 1127 1128 0
1129 1130 1131 0
1132 1133 1134 0
1135 1136 1137 0
1138 1139 1140 0
1141 1142 1143 0
1144 1145 1146 0
1147 1148 1149 0
1150 1151 1152 0
1153 1154 1155 0
1156 1157 1158 0
1159 1160 1161 0
1162 1163 1164 0
1165 1166 1167 0
1168 1169 1170 0
1171 1172 1173 0
1174 1175 1176 0
1177 1178 1179 0
1180 1181 1182 0
1183 1184 1185 0
1186 1187 1188 0
1189 1190 1191 0
1192 1193 1194 0
1195 1196 1197 0
1198 1199 1200 0
1201 1202 1203 0
1204 1205 1206 0
1207 1208 1209 0
1210 1211 1212 0
1213 1214 1215 0
1216 1217 1218 0
1219 1220 1221 0
1222 1223 1224 0
1225 1226 1227 0
1228 1229 1230 0
1231 1232 1233 0
1234 1235 1236 0
1237 1238 1239 0
1240 1241 1242 0
1243 1244 1245 0
1246 1247 1248 0
1249 1250 1251 0
1252 1253 1254 0
1255 1256 1257 0
1258 1259 1260 0
1261 1262 1263 0
1264 1265 1266 0
1267 1268 1269 0
1270 1271 1272 0
1273 1274 1275 0
1276 1277 1278 0
1279 1280 1281 0
1282 1283 1284 0
1285 1286 1287 0
1288 1289 1290 0
1291 1292 1293 0
1294 1295 1296 0
1297 1298 1299 0
1300 1301 1302 0
1303 1304 1305 0
1306 1307 1308 0
1309 1310 1311 0
1312 1313 1314 0
1315 1316 1317 0
1318 1319 1320 0
1321 1322 1323 0
1324 1325 1326 0
1327 1328 1329 0
1330 1331 1332 0
1333 1334 1335 0
1336 1337 1338 0
1339 1340 1341 0
1342 1343 1344 0
1345 1346 1347 0
1348 1349 1350 0
1351 1352 1353 0
1354 1355 1356 0
1357 1358 1359 0
1360 1361 1362 0
1363 1364 1365 0
1366 1367 1368 0
1369 1370 1371 0
1372 1373 1374 0
1375 1376 1377 0
1378 1379 1380 0
1381 1382 1383 0
1384 1385 1386 0
1387 1388 1389 0
1390 1391 1392 0
1393 1394 1395 0
1396 1397 1398 0
1399 1400 1401 0
1402 1403 1404 0
1405 1406 1407 0
1408 1409 1410 0
1411 1412 1413 0
1414 1415 1416 0
1417 1418 1419 0
1420 1421 1422 0
1423 1424 1425 0
1426 1427 1428 0
1429 1430 1431 0
1432 1433 1434 0
1435 1436 1437 0
1438 1439 1440 0
1441 1442 1443 0
1444 1445 1446 0
1447 1448 1449 0
1450 1451 1452 0
1453 1454 1455 0
1456 1457 1458 0
1459 1460 1461 0
1462 1463 1464 0
1465 1466 1467 0
1468 1469 1470 0
1471 1472 1473 0
1474 1475 1476 0
1477 1478 1479 0
1480 1481 1482 0
1483 1484 1485 0
1486 1487 1488 0
1489 1490 1491 0
1492 1493 1494 0
1495 1496 1497 0
1498 1499 1500 0
-1 -2 0
-1 -3 0
-2 -3 0
-4 -5 0
-4 -6 0
-5 -6 0
-7 -8 0
-7 -9 0
-8 -9 0
-10 -11 0
-10 -12 0
-11 -12 0
-13 -14 0
-13 -15 0
-14 -15 0
-16 -17 0
-16 -18 0
-17 -18 0
-19 -20 0
-19 -21 0
-20 -21 0
-22 -23 0
-22 -24 0
-23 -24 0
-25 -26 0
-25 -27 0
-26 -27 0
-28 -29 0
-28 -30 0
-29 -30 0
-31 -32 0
-31 -33 0
-32 -33 0
-34 -35 0
-34 -36 0
-35 -36 0
-37 -38 0
-37 -39 0
-38 -39 0
-40 -41 0
-40 -42 0
-41 -42 0
-43 -44 0
-43 -45 0
-44 -45 0
-46 -47 0
-46 -48 0
-47 -48 0
-49 -50 0
-49 -51 0
-50 -51 0
-52 -53 0
-52 -54 0
-53 -54 0
-55 -56 0
-55 -57 0
-56 -57 0
-58 -59 0
-58 -60 0
-59 -60 0
-61 -62 0
-61 -63 0
-62 -63 0
-64 -65 0
-64 -66 0
-65 -66 0
-67 -68 0
-67 -69 0
-68 -69 0
-70 -71 0
-70 -72 0
-71 -72 0
-73 -74 0
-73 -75 0
-74 -75 0
-76 -77 0
-76 -78 0
-77 -78 0
-79 -80 0
-79 -81 0
-80 -81 0
-82 -83 0
-82 -84 0
-83 -84 0
-85 -86 0
-85 -87 0
-86 -87 0
-88 -89 0
-88 -90 0
-89 -90 0
-91 -92 0
-91 -93 0
-92 -93 0
-94 -95 0
-94 -96 0
-95 -96 0
-97 -98 0
-97 -99 0
-98 -99 0
-100 -101 0
-100 -102 0
-101 -102 0
-103 -104 0
-103 -105 0
-104 -105 0
-106 -107 0
-106 -108 0
-107 -108 0
-109 -110 0
-109 -111 0
-110 -111 0
-112 -113 0
-112 -114 0
-113 -114 0
-115 -116 0
-115 -117 0
-116 -117 0
-118 -119 0
-118 -120 0
-119 -120 0
-121 -122 0
-121 -123 0
-122 -123 0
-124 -125 0
-124 -126 0
-125 -126 0
-127 -128 0
-127 -129 0
-128 -129 0
-130 -131 0
-130 -132 0
-131 -132 0
-133 -134 0
-133 -135 0
-134 -135 0
-136 -137 0
-136 -138 0
-137 -138 0
-139 -140 0
-139 -141 0
-140 -141 0
-142 -143 0
-142 -144 0
-143 -144 0
-145 -146 0
-145 -147 0
-146 -147 0
-148 -149 0
-148 -150 0
-149 -150 0
-151 -152 0
-151 -153 0
-152 -153 0
-154 -155 0
-154 -156 0
-155 -156 0
-157 -158 0
-157 -159 0
-158 -159 0
-160 -161 0
-160 -162 0
-161 -162 0
-163 -164 0
-163 -165 0
-164 -165 0
-166 -167 0
-166 -168 0
-167 -168 0
-169 -170 0
-169 -171 0
-170 -171 0
-172 -173 0
-172 -174 0
-173 -174 0
-175 -176 0
-175 -177 0
-176 -177 0
-178 -179 0
-178 -180 0
-179 -180 0
-181 -182 0
-181 -183 0
-182 -183 0
-184 -185 0
-184 -186 0
-185 -186 0
-187 -188 0
-187 -189 0
-188 -189 0
-190 -191 0
-190 -192 0
-191 -192 0
-193 -194 0
-193 -195 0
-194 -195 0
-196 -197 0
-196 -198 0
-197 -198 0
-199 -200 0
-199 -201 0
-200 -201 0
-202 -203 0
-202 -204 0
-203 -204 0
-205 -206 0
-205 -207 0
-206 -207 0
-208 -209 0
-208 -210 0
-209 -210 0
-211 -212 0
-211 -213 0
-212 -213 0
-214 -215 0
-214 -216 0
-215 -216 0
-217 -218 0
-217 -219 0
-218 -219 0
-220 -221 0
-220 -222 0
-221 -222 0
-223 -224 0
-223 -225 0
-224 -225 0
-226 -227 0
-226 -228 0
-227 -228 0
-229 -230 0
-229 -231 0
-230 -231 0
-232 -233 0
-232 -234 0
-233 -234 0
-235 -236 0
-235 -237 0
-236 -237 0
-238 -239 0
-238 -240 0
-239 -240 0
-241 -242 0
-241 -243 0
-242 -243 0
-244 -245 0
-244 -246 0
-245 -246 0
-247 -248 0
-247 -249 0
-248 -249 0
-250 -251 0
-250 -252 0
-251 -252 0
-253 -254 0
-253 -255 0
-254 -255 0
-256 -257 0
-256 -258 0
-257 -258 0
-259 -260 0
-259 -261 0
-260 -261 0
-262 -263 0
-262 -264 0
-263 -264 0
-265 -266 0
-265 -267 0
-266 -267 0
-268 -269 0
-268 -270 0
-269 -270 0
-271 -272 0
-271 -273 0
-272 -273 0
-274 -275 0
-274 -276 0
-275 -276 0
-277 -278 0
-277 -279 0
-278 -279 0
-280 -281 0
-280 -282 0
-281 -282 0
-283 -284 0
-283 -285 0
-284 -285 0
-286 -287 0
-286 -288 0
-287 -288 0
-289 -290 0
-289 -291 0
-290 -291 0
-292 -293 0
-292 -294 0
-293 -294 0
-295 -296 0
-295 -297 0
-296 -297 0
-298 -299 0
-298 -300 0
-299 -300 0
-301 -302 0
-301 -303 0
-302 -303 0
-304 -305 0
-304 -306 0
-305 -306 0
-307 -308 0
-307 -309 0
-308 -309 0
-310 -311 0
-310 -312 0
-311 -312 0
-313 -314 0
-313 -315 0
-314 -315 0
-316 -317 0
-316 -318 0
-317 -318 0
-319 -320 0
-319 -321 0
-320 -321 0
-322 -323 0
-322 -324 0
-323 -324 0
-325 -326 0
-325 -327 0
-326 -327 0
-328 -329 0
-328 -330 0
-329 -330 0
-331 -332 0
-331 -333 0
-332 -333 0
-334 -335 0
-334 -336 0
-335 -336 0
-337 -338 0
-337 -339 0
-338 -339 0
-340 -341 0
-340 -342 0
-341 -342 0
-343 -344 0
-343 -345 0
-344 -345 0
-346 -347 0
-346 -348 0
-347 -348 0
-349 -350 0
-349 -351 0
-350 -351 0
-352 -353 0
-352 -354 0
-353 -354 0
-355 -356 0
-355 -357 0
-356 -357 0
-358 -359 0
-358 -360 0
-359 -360 0
-361 -362 0
-361 -363 0
-362 -363 0
-364 -365 0
-364 -366 0
-365 -366 0
-367 -368 0
-367 -369 0
-368 -369 0
-370 -371 0
-370 -372 0
-371 -372 0
-373 -374 0
-373 -375 0
-374 -375 0
-376 -377 0
-376 -378 0
-377 -378 0
-379 -380 0
-379 -381 0
-380 -381 0
-382 -383 0
-382 -384 0
-383 -384 0
-385 -386 0
-385 -387 0
-386 -387 0
-388 -389 0
-388 -390 0
-389 -390 0
-391 -392 0
-391 -393 0
-392 -393 0
-394 -395 0
-394 -396 0
-395 -396 0
-397 -398 0
-397 -399 0
-398 -399 0
-400 -401 0
-400 -402 0
-401 -402 0
-403 -404 0
-403 -405 0
-404 -405 0
-406 -407 0
-406 -408 0
-407 -408 0
-409 -410 0
-409 -411 0
-410 -411 0
-412 -413 0
-412 -414 0
-413 -414 0
-415 -416 0
-415 -417 0
-416 -417 0
-418 -419 0
-418 -420 0
-419 -420 0
-421 -422 0
-421 -423 0
-422 -423 0
-424 -425 0
-424 -426 0
-425 -426 0
-427 -428 0
-427 -429 0
-428 -429 0
-430 -431 0
-430 -432 0
-431 -432 0
-433 -434 0
-433 -435 0
-434 -435 0
-436 -437 0
-436 -438 0
-437 -438 0
-439 -440 0
-439 -441 0
-440 -441 0
-442 -443 0
-442 -444 0
-443 -444 0
-445 -446 0
-445 -447 0
-446 -447 0
-448 -449 0
-448 -450 0
-449 -450 0
-451 -452 0
-451 -453 0
-452 -453 0
-454 -455 0
-454 -456 0
-455 -456 0
-457 -458 0
-457 -459 0
-458 -459 0
-460 -461 0
-460 -462 0
-461 -462 0
-463 -464 0
-463 -465 0
-464 -465 0
-466 -467 0
-466 -468 0
-467 -468 0
-469 -470 0
-469 -471 0
-470 -471 0
-472 -473 0
-472 -474 0
-473 -474 0
-475 -476 0
-475 -477 0
-476 -477 0
-478 -479 0
-478 -480 0
-479 -480 0
-481 -482 0
-481 -483 0
-482 -483 0
-484 -485 0
-484 -486 0
-485 -486 0
-487 -488 0
-487 -489 0
-488 -489 0
-490 -491 0
-490 -492 0
-491 -492 0
-493 -494 0
-493 -495 0
-494 -495 0
-496 -497 0
-496 -498 0
-497 -498 0
-499 -500 0
-499 -501 0
-500 -501 0
-502 -503 0
-502 -504 0
-503 -504 0
-505 -506 0
-505 -507 0
-506 -507 0
-508 -509 0
-508 -510 0
-509 -510 0
-511 -512 0
-511 -513 0
-512 -513 0
-514 -515 0
-514 -516 0
-515 -516 0
-517 -518 0
-517 -519 0
-518 -519 0
-520 -521 0
-520 -522 0
-521 -522 0
-523 -524 0
-523 -525 0
-524 -525 0
-526 -527 0
-526 -528 0
-527 -528 0
-529 -530 0
-529 -531 0
-530 -531 0
-532 -533 0
-532 -534 0
-533 -534 0
-535 -536 0
-535 -537 0
-536 -537 0
-538 -539 0
-538 -540 0
-539 -540 0
-541 -542 0
-541 -543 0
-542 -543 0
-544 -545 0
-544 -546 0
-545 -546 0
-547 -548 0
-547 -549 0
-548 -549 0
-550 -551 0
-550 -552 0
-551 -552 0
-553 -554 0
-553 -555 0
-554 -555 0
-556 -557 0
-556 -558 0
-557 -558 0
-559 -560 0
-559 -561 0
-560 -561 0
-562 -563 0
-562 -564 0
-563 -564 0
-565 -566 0
-565 -567 0
-566 -567 0
-568 -569 0
-568 -570 0
-569 -570 0
-571 -572 0
-571 -573 0
-572 -573 0
-574 -575 0
-574 -576 0
-575 -576 0
-577 -578 0
-577 -579 0
-578 -579 0
-580 -581 0
-580 -582 0
-581 -582 0
-583 -584 0
-583 -585 0
-584 -585 0
-586 -587 0
-586 -588 0
-587 -588 0
-589 -590 0
-589 -591 0
-590 -591 0
-592 -593 0
-592 -594 0
-593 -594 0
-595 -596 0
-595 -597 0
-596 -597 0
-598 -599 0
-598 -600 0
-599 -600 0
-601 -602 0
-601 -603 0
-602 -603 0
-604 -605 0
-604 -606 0
-605 -606 0
-607 -608 0
-607 -609 0
-608 -609 0
-610 -611 0
-610 -612 0
-611 -612 0
-613 -614 0
-613 -615 0
-614 -615 0
-616 -617 0
-616 -618 0
-617 -618 0
-619 -620 0
-619 -621 0
-620 -621 0
-622 -623 0
-622 -624 0
-623 -624 0
-625 -626 0
-625 -627 0
-626 -627 0
-628 -629 0
-628 -630 0
-629 -630 0
-631 -632 0
-631 -633 0
-632 -633 0
-634 -635 0
-634 -636 0
-635 -636 0
-637 -638 0
-637 -639 0
-638 -639 0
-640 -641 0
-640 -642 0
-641 -642 0
-643 -644 0
-643 -645 0
-644 -645 0
-646 -647 0
-646 -648 0
-647 -648 0
-649 -650 0
-649 -651 0
-650 -651 0
-652 -653 0
-652 -654 0
-653 -654 0
-655 -656 0
-655 -657 0
-656 -657 0
-658 -659 0
-658 -660 0
-659 -660 0
-661 -662 0
-661 -663 0
-662 -663 0
-664 -665 0
-664 -666 0
-665 -666 0
-667 -668 0
-667 -669 0
-668 -669 0
-670 -671 0
-670 -672 0
-671 -672 0
-673 -674 0
-673 -675 0
-674 -675 0
-676 -677 0
-676 -678 0
-677 -678 0
-679 -680 0
-679 -681 0
-680 -681 0
-682 -683 0
-682 -684 0
-683 -684 0
-685 -686 0
-685 -687 0
-686 -687 0
-688 -689 0
-688 -690 0
-689 -690 0
-691 -692 0
-691 -693 0
-692 -693 0
-694 -695 0
-694 -696 0
-695 -696 0
-697 -698 0
-697 -699 0
-698 -699 0
-700 -701 0
-700 -702 0
-701 -702 0
-703 -704 0
-703 -705 0
-704 -705 0
-706 -707 0
-706 -708 0
-707 -708 0
-709 -710 0
-709 -711 0
-710 -711 0
-712 -713 0
-712 -714 0
-713 -714 0
-715 -716 0
-715 -717 0
-716 -717 0
-718 -719 0
-718 -720 0
-719 -720 0
-721 -722 0
-721 -723 0
-722 -723 0
-724 -725 0
-724 -726 0
-725 -726 0
-727 -728 0
-727 -729 0
-728 -729 0
-730 -731 0
-730 -732 0
-731 -732 0
-733 -734 0
-733 -735 0
-734 -735 0
-736 -737 0
-736 -738 0
-737 -738 0
-739 -740 0
-739 -741 0
-740 -741 0
-742 -743 0
-742 -744 0
-743 -744 0
-745 -746 0
-745 -747 0
-746 -747 0
-748 -749 0
-748 -750 0
-749 -750 0
-751 -752 0
-751 -753 0
-752 -753 0
-754 -755 0
-754 -756 0
-755 -756 0
-757 -758 0
-757 -759 0
-758 -759 0
-760 -761 0
-760 -762 0
-761 -762 0
-763 -764 0
-763 -765 0
-764 -765 0
-766 -767 0
-766 -768 0
-767 -768 0
-769 -770 0
-769 -771 0
-770 -771 0
-772 -773 0
-772 -774 0
-773 -774 0
-775 -776 0
-775 -777 0
-776 -777 0
-778 -779 0
-778 -780 0
-779 -780 0
-781 -782 0
-781 -783 0
-782 -783 0
-784 -785 0
-784 -786 0
-785 -786 0
-787 -788 0
-787 -789 0
-788 -789 0
-790 -791 0
-790 -792 0
-791 -792 0
-793 -794 0
-793 -795 0
-794 -795 0
-796 -797 0
-796 -798 0
-797 -798 0
-799 -800 0
-799 -801 0
-800 -801 0
-802 -803 0
-802 -804 0
-803 -804 0
-805 -806 0
-805 -807 0
-806 -807 0
-808 -809 0
-808 -810 0
-809 -810 0
-811 -812 0
-811 -813 0
-812 -813 0
-814 -815 0
-814 -816 0
-815 -816 0
-817 -818 0
-817 -819 0
-818 -819 0
-820 -821 0
-820 -822 0
-821 -822 0
-823 -824 0
-823 -825 0
-824 -825 0
-826 -827 0
-826 -828 0
-827 -828 0
-829 -830 0
-829 -831 0
-830 -831 0
-832 -833 0
-832 -834 0
-833 -834 0
-835 -836 0
-835 -837 0
-836 -837 0
-838 -839 0
-838 -840 0
-839 -840 0
-841 -842 0
-841 -843 0
-842 -843 0
-844 -845 0
-844 -846 0
-845 -846 0
-847 -848 0
-847 -849 0
-848 -849 0
-850 -851 0
-850 -852 0
-851 -852 0
-853 -854 0
-853 -855 0
-854 -855 0
-856 -857 0
-856 -858 0
-857 -858 0
-859 -860 0
-859 -861 0
-860 -861 0
-862 -863 0
-862 -864 0
-863 -864 0
-865 -866 0
-865 -867 0
-866 -867 0
-868 -869 0
-868 -870 0
-869 -870 0
-871 -872 0
-871 -873 0
-872 -873 0
-874 -875 0
-874 -876 0
-875 -876 0
-877 -878 0
-877 -879 0
-878 -879 0
-880 -881 0
-880 -882 0
-881 -882 0
-883 -884 0
-883 -885 0
-884 -885 0
-886 -887 0
-886 -888 0
-887 -888 0
-889 -890 0
-889 -891 0
-890 -891 0
-892 -893 0
-892 -894 0
-893 -894 0
-895 -896 0
-895 -897 0
-896 -897 0
-898 -899 0
-898 -900 0
-899 -900 0
-901 -902 0
-901 -903 0
-902 -903 0
-904 -905 0
-904 -906 0
-905 -906 0
-907 -908 0
-907 -909 0
-908 -909 0
-910 -911 0
-910 -912 0
-911 -912 0
-913 -914 0
-913 -915 0
-914 -915 0
-916 -917 0
-916 -918 0
-917 -918 0
-919 -920 0
-919 -921 0
-920 -921 0
-922 -923 0
-922 -924 0
-923 -924 0
-925 -926 0
-925 -927 0
-926 -927 0
-928 -929 0
-928 -930 0
-929 -930 0
-931 -932 0
-931 -933 0
-932 -933 0
-934 -935 0
-934 -936 0
-935 -936 0
-937 -938 0
-937 -939 0
-938 -939 0
-940 -941 0
-940 -942 0
-941 -942 0
-943 -944 0
-943 -945 0
-944 -945 0
-946 -947 0
-946 -948 0
-947 -948 0
-949 -950 0
-949 -951 0
-950 -951 0
-952 -953 0
-952 -954 0
-953 -954 0
-955 -956 0
-955 -957 0
-956 -957 0
-958 -959 0
-958 -960 0
-959 -960 0
-961 -962 0
-961 -963 0
-962 -963 0
-964 -965 0
-964 -966 0
-965 -966 0
-967 -968 0
-967 -969 0
-968 -969 0
-970 -971 0
-970 -972 0
-971 -972 0
-973 -974 0
-973 -975 0
-974 -975 0
-976 -977 0
-976 -978 0
-977 -978 0
-979 -980 0
-979 -981 0
-980 -981 0
-982 -983 0
-982 -984 0
-983 -984 0
-985 -986 0
-985 -987 0
-986 -987 0
-988 -989 0
-988 -990 0
-989 -990 0
-991 -992 0
-991 -993 0
-992 -993 0
-994 -995 0
-994 -996 0
-995 -996 0
-997 -998 0
-997 -999 0
-998 -999 0
-1000 -1001 0
-1000 -1002 0
-1001 -1002 0
-1003 -1004 0
-1003 -1005 0
-1004 -1005 0
-1006 -1007 0
-1006 -1008 0
-1007 -1008 0
-1009 -1010 0
-1009 -1011 0
-1010 -1011 0
-1012 -1013 0
-1012 -1014 0
-1013 -1014 0
-1015 -1016 0
-1015 -1017 0
-1016 -1017 0
-1018 -1019 0
-1018 -1020 0
-1019 -1020 0
-1021 -1022 0
-1021 -1023 0
-1022 -1023 0
-1024 -1025 0
-1024 -1026 0
-1025 -1026 0
-1027 -1028 0
-1027 -1029 0
-1028 -1029 0
-1030 -1031 0
-1030 -1032 0
-1031 -1032 0
-1033 -1034 0
-1033 -1035 0
-1034 -1035 0
-1036 -1037 0
-1036 -1038 0
-1037 -1038 0
-1039 -1040 0
-1039 -1041 0
-1040 -1041 0
-1042 -1043 0
-1042 -1044 0
-1043 -1044 0
-1045 -1046 0
-1045 -1047 0
-1046 -1047 0
-1048 -1049 0
-1048 -1050 0
-1049 -1050 0
-1051 -1052 0
-1051 -1053 0
-1052 -1053 0
-1054 -1055 0
-1054 -1056 0
-1055 -1056 0
-1057 -1058 0
-1057 -1059 0
-1058 -1059 0
-1060 -1061 0
-1060 -1062 0
-1061 -1062 0
-1063 -1064 0
-1063 -1065 0
-1064 -1065 0
-1066 -1067 0
-1066 -1068 0
-1067 -1068 0
-1069 -1070 0
-1069 -1071 0
-1070 -1071 0
-1072 -1073 0
-1072 -1074 0
-1073 -1074 0
-1075 -1076 0
-1075 -1077 0
-1076 -1077 0
-1078 -1079 0
-1078 -1080 0
-1079 -1080 0
-1081 -1082 0
-1081 -1083 0
-1082 -1083 0
-1084 -1085 0
-1084 -1086 0
-1085 -1086 0
-1087 -1088 0
-1087 -1089 0
-1088 -1089 0
-1090 -1091 0
-1090 -1092 0
-1091 -1092 0
-1093 -1094 0
-1093 -1095 0
-1094 -1095 0
-1096 -1097 0
-1096 -1098 0
-1097 -1098 0
-1099 -1100 0
-1099 -1101 0
-1100 -1101 0
-1102 -1103 0
-1102 -1104 0
-1103 -1104 0
-1105 -1106 0
-1105 -1107 0
-1106 -1107 0
-1108 -1109 0
-1108 -1110 0
-1109 -1110 0
-1111 -1112 0
-1111 -1113 0
-1112 -1113 0
-1114 -1115 0
-1114 -1116 0
-1115 -1116 0
-1117 -1118 0
-1117 -1119 0
-1118 -1119 0
-1120 -1121 0
-1120 -1122 0
-1121 -1122 0
-1123 -1124 0
-1123 -1125 0
-1124 -1125 0
-1126 -1127 0
-1126 -1128 0
-1127 -1128 0
-1129 -1130 0
-1129 -1131 0
-1130 -1131 0
-1132 -1133 0
-1132 -1134 0
-1133 -1134 0
-1135 -1136 0
-1135 -1137 0
-1136 -1137 0
-1138 -1139 0
-1138 -1140 0
-1139 -1140 0
-1141 -1142 0
-1141 -1143 0
-1142 -1143 0
-1144 -1145 0
-1144 -1146 0
-1145 -1146 0
-1147 -1148 0
-1147 -1149 0
-1148 -1149 0
-1150 -1151 0
-1150 -1152 0
-1151 -1152 0
-1153 -1154 0
-1153 -1155 0
-1154 -1155 0
-1156 -1157 0
-1156 -1158 0
-1157 -1158 0
-1159 -1160 0
-1159 -1161 0
-1160 -1161 0
-1162 -1163 0
-1162 -1164 0
-1163 -1164 0
-1165 -1166 0
-1165 -1167 0
-1166 -1167 0
-1168 -1169 0
-1168 -1170 0
-1169 -1170 0
-1171 -1172 0
-1171 -1173 0
-1172 -1173 0
-1174 -1175 0
-1174 -1176 0
-1175 -1176 0
-1177 -1178 0
-1177 -1179 0
-1178 -1179 0
-1180 -1181 0
-1180 -1182 0
-1181 -1182 0
-1183 -1184 0
-1183 -1185 0
-1184 -1185 0
-1186 -1187 0
-1186 -1188 0
-1187 -1188 0
-1189 -1190 0
-1189 -1191 0
-1190 -1191 0
-1192 -1193 0
-1192 -1194 0
-1193 -1194 0
-1195 -1196 0
-1195 -1197 0
-1196 -1197 0
-1198 -1199 0
-1198 -1200 0
-1199 -1200 0
-1201 -1202 0
-1201 -1203 0
-1202 -1203 0
-1204 -1205 0
-1204 -1206 0
-1205 -1206 0
-1207 -1208 0
-1207 -1209 0
-1208 -1209 0
-1210 -1211 0
-1210 -1212 0
-1211 -1212 0
-1213 -1214 0
-1213 -1215 0
-1214 -1215 0
-1216 -1217 0
-1216 -1218 0
-1217 -1218 0
-1219 -1220 0
-1219 -1221 0
-1220 -1221 0
-1222 -1223 0
-1222 -1224 0
-1223 -1224 0
-1225 -1226 0
-1225 -1227 0
-1226 -1227 0
-1228 -1229 0
-1228 -1230 0
-1229 -1230 0
-1231 -1232 0
-1231 -1233 0
-1232 -1233 0
-1234 -1235 0
-1234 -1236 0
-1235 -1236 0
-1237 -1238 0
-1237 -1239 0
-1238 -1239 0
-1240 -1241 0
-1240 -1242 0
-1241 -1242 0
-1243 -1244 0
-1243 -1245 0
-1244 -1245 0
-1246 -1247 0
-1246 -1248 0
-1247 -1248 0
-1249 -1250 0
-1249 -1251 0
-1250 -1251 0
-1252 -1253 0
-1252 -1254 0
-1253 -1254 0
-1255 -1256 0
-1255 -1257 0
-1256 -1257 0
-1258 -1259 0
-1258 -1260 0
-1259 -1260 0
-1261 -1262 0
-1261 -1263 0
-1262 -1263 0
-1264 -1265 0
-1264 -1266 0
-1265 -1266 0
-1267 -1268 0
-1267 -1269 0
-1268 -1269 0
-1270 -1271 0
-1270 -1272 0
-1271 -1272 0
-1273 -1274 0
-1273 -1275 0
-1274 -1275 0
-1276 -1277 0
-1276 -1278 0
-1277 -1278 0
-1279 -1280 0
-1279 -1281 0
-1280 -1281 0
-1282 -1283 0
-1282 -1284 0
-1283 -1284 0
-1285 -1286 0
-1285 -1287 0
-1286 -1287 0
-1288 -1289 0
-1288 -1290 0
-1289 -1290 0
-1291 -1292 0
-1291 -1293 0
-1292 -1293 0
-1294 -1295 0
-1294 -1296 0
-1295 -1296 0
-1297 -1298 0
-1297 -1299 0
-1298 -1299 0
-1300 -1301 0
-1300 -1302 0
-1301 -1302 0
-1303 -1304 0
-1303 -1305 0
-1304 -1305 0
-1306 -1307 0
-1306 -1308 0
-1307 -1308 0
-1309 -1310 0
-1309 -1311 0
-1310 -1311 0
-1312 -1313 0
-1312 -1314 0
-1313 -1314 0
-1315 -1316 0
-1315 -1317 0
-1316 -1317 0
-1318 -1319 0
-1318 -1320 0
-1319 -1320 0
-1321 -1322 0
-1321 -1323 0
-1322 -1323 0
-1324 -1325 0
-1324 -1326 0
-1325 -1326 0
-1327 -1328 0
-1327 -1329 0
-1328 -1329 0
-1330 -1331 0
-1330 -1332 0
-1331 -1332 0
-1333 -1334 0
-1333 -1335 0
-1334 -1335 0
-1336 -1337 0
-1336 -1338 0
-1337 -1338 0
-1339 -1340 0
-1339 -1341 0
-1340 -1341 0
-1342 -1343 0
-1342 -1344 0
-1343 -1344 0
-1345 -1346 0
-1345 -1347 0
-1346 -1347 0
-1348 -1349 0
-1348 -1350 0
-1349 -1350 0
-1351 -1352 0
-1351 -1353 0
-1352 -1353 0
-1354 -1355 0
-1354 -1356 0
-1355 -1356 0
-1357 -1358 0
-1357 -1359 0
-1358 -1359 0
-1360 -1361 0
-1360 -1362 0
-1361 -1362 0
-1363 -1364 0
-1363 -1365 0
-1364 -1365 0
-1366 -1367 0
-1366 -1368 0
-1367 -1368 0
-1369 -1370 0
-1369 -1371 0
-1370 -1371 0
-1372 -1373 0
-1372 -1374 0
-1373 -1374 0
-1375 -1376 0
-1375 -1377 0
-1376 -1377 0
-1378 -1379 0
-1378 -1380 0
-1379 -1380 0
-1381 -1382 0
-1381 -1383 0
-1382 -1383 0
-1384 -1385 0
-1384 -1386 0
-1385 -1386 0
-1387 -1388 0
-1387 -1389 0
-1388 -1389 0
-1390 -1391 0
-1390 -1392 0
-1391 -1392 0
-1393 -1394 0
-1393 -1395 0
-1394 -1395 0
-1396 -1397 0
-1396 -1398 0
-1397 -1398 0
-1399 -1400 0
-1399 -1401 0
-1400 -1401 0
-1402 -1403 0
-1402 -1404 0
-1403 -1404 0
-1405 -1406 0
-1405 -1407 0
-1406 -1407 0
-1408 -1409 0
-1408 -1410 0
-1409 -1410 0
-1411 -1412 0
-1411 -1413 0
-1412 -1413 0
-1414 -1415 0
-1414 -1416 0
-1415 -1416 0
-1417 -1418 0
-1417 -1419 0
-1418 -1419 0
-1420 -1421 0
-1420 -1422 0
-1421 -1422 0
-1423 -1424 0
-1423 -1425 0
-1424 -1425 0
-1426 -1427 0
-1426 -1428 0
-1427 -1428 0
-1429 -1430 0
-1429 -1431 0
-1430 -1431 0
-1432 -1433 0
-1432 -1434 0
-1433 -1434 0
-1435 -1436 0
-1435 -1437 0
-1436 -1437 0
-1438 -1439 0
-1438 -1440 0
-1439 -1440 0
-1441 -1442 0
-1441 -1443 0
-1442 -1443 0
-1444 -1445 0
-1444 -1446 0
-1445 -1446 0
-1447 -1448 0
-1447 -1449 0
-1448 -1449 0
-1450 -1451 0
-1450 -1452 0
-1451 -1452 0
-1453 -1454 0
-1453 -1455 0
-1454 -1455 0
-1456 -1457 0
-1456 -1458 0
-1457 -1458 0
-1459 -1460 0
-1459 -1461 0
-1460 -1461 0
-1462 -1463 0
-1462 -1464 0
-1463 -1464 0
-1465 -1466 0
-1465 -1467 0
-1466 -1467 0
-1468 -1469 0
-1468 -1470 0
-1469 -1470 0
-1471 -1472 0
-1471 -1473 0
-1472 -1473 0
-1474 -1475 0
-1474 -1476 0
-1475 -1476 0
-1477 -1478 0
-1477 -1479 0
-1478 -1479 0
-1480 -1481 0
-1480 -1482 0
-1481 -1482 0
-1483 -1484 0
-1483 -1485 0
-1484 -1485 0
-1486 -1487 0
-1486 -1488 0
-1487 -1488 0
-1489 -1490 0
-1489 -1491 0
-1490 -1491 0
-1492 -1493 0
-1492 -1494 0
-1493 -1494 0
-1495 -1496 0
-1495 -1497 0
-1496 -1497 0
-1498 -1499 0
-1498 -1500 0
-1499 -1500 0
-1 -4 0
-2 -5 0
-3 -6 0
-1 -43 0
-2 -44 0
-3 -45 0
-1 -58 0
-2 -59 0
-3 -60 0
-1 -466 0
-2 -467 0
-3 -468 0
-1 -1078 0
-2 -1079 0
-3 -1080 0
-1 -1207 0
-2 -1208 0
-3 -1209 0
-4 -313 0
-5 -314 0
-6 -315 0
-4 -415 0
-5 -416 0
-6 -417 0
-4 -1411 0
-5 -1412 0
-6 -1413 0
-4 -1462 0
-5 -1463 0
-6 -1464 0
-7 -28 0
-8 -29 0
-9 -30 0
-7 -37 0
-8 -38 0
-9 -39 0
-7 -310 0
-8 -311 0
-9 -312 0
-7 -385 0
-8 -386 0
-9 -387 0
-7 -388 0
-8 -389 0
-9 -390 0
-7 -997 0
-8 -998 0
-9 -999 0
-7 -1024 0
-8 -1025 0
-9 -1026 0
-7 -1321 0
-8 -1322 0
-9 -1323 0
-7 -1327 0
-8 -1328 0
-9 -1329 0
-10 -139 0
-11 -140 0
-12 -141 0
-10 -562 0
-11 -563 0
-12 -564 0
-10 -607 0
-11 -608 0
-12 -609 0
-10 -796 0
-11 -797 0
-12 -798 0
-10 -934 0
-11 -935 0
-12 -936 0
-10 -1402 0
-11 -1403 0
-12 -1404 0
-10 -1480 0
-11 -1481 0
-12 -1482 0
-13 -40 0
-14 -41 0
-15 -42 0
-13 -244 0
-14 -245 0
-15 -246 0
-13 -664 0
-14 -665 0
-15 -666 0
-13 -1078 0
-14 -1079 0
-15 -1080 0
-16 -712 0
-17 -713 0
-18 -714 0
-16 -1357 0
-17 -1358 0
-18 -1359 0
-19 -328 0
-20 -329 0
-21 -330 0
-19 -361 0
-20 -362 0
-21 -363 0
-19 -1276 0
-20 -1277 0
-21 -1278 0
-22 -334 0
-23 -335 0
-24 -336 0
-22 -682 0
-23 -683 0
-24 -684 0
-22 -1183 0
-23 -1184 0
-24 -1185 0
-22 -1222 0
-23 -1223 0
-24 -1224 0
-22 -1405 0
-23 -1406 0
-24 -1407 0
-25 -178 0
-26 -179 0
-27 -180 0
-25 -346 0
-26 -347 0
-27 -348 0
-25 -451 0
-26 -452 0
-27 -453 0
-25 -769 0
-26 -770 0
-27 -771 0
-25 -1030 0
-26 -1031 0
-27 -1032 0
-25 -1207 0
-26 -1208 0
-27 -1209 0
-25 -1309 0
-26 -1310 0
-27 -1311 0
-28 -346 0
-29 -347 0
-30 -348 0
-28 -556 0
-29 -557 0
-30 -558 0
-28 -679 0
-29 -680 0
-30 -681 0
-28 -958 0
-29 -959 0
-30 -960 0
-31 -43 0
-32 -44 0
-33 -45 0
-31 -322 0
-32 -323 0
-33 -324 0
-31 -469 0
-32 -470 0
-33 -471 0
-31 -487 0
-32 -488 0
-33 -489 0
-31 -523 0
-32 -524 0
-33 -525 0
-31 -577 0
-32 -578 0
-33 -579 0
-31 -967 0
-32 -968 0
-33 -969 0
-31 -1315 0
-32 -1316 0
-33 -1317 0
-31 -1465 0
-32 -1466 0
-33 -1467 0
-34 -310 0
-35 -311 0
-36 -312 0
-34 -331 0
-35 -332 0
-36 -333 0
-34 -343 0
-35 -344 0
-36 -345 0
-34 -718 0
-35 -719 0
-36 -720 0
-34 -763 0
-35 -764 0
-36 -765 0
-37 -247 0
-38 -248 0
-39 -249 0
-37 -382 0
-38 -383 0
-39 -384 0
-37 -502 0
-38 -503 0
-39 -504 0
-37 -589 0
-38 -590 0
-39 -591 0
-37 -862 0
-38 -863 0
-39 -864 0
-37 -871 0
-38 -872 0
-39 -873 0
-37 -943 0
-38 -944 0
-39 -945 0
-40 -601 0
-41 -602 0
-42 -603 0
-40 -1195 0
-41 -1196 0
-42 -1197 0
-43 -625 0
-44 -626 0
-45 -627 0
-43 -673 0
-44 -674 0
-45 -675 0
-43 -679 0
-44 -680 0
-45 -681 0
-43 -1051 0
-44 -1052 0
-45 -1053 0
-43 -1459 0
-44 -1460 0
-45 -1461 0
-43 -1492 0
-44 -1493 0
-45 -1494 0
-46 -586 0
-47 -587 0
-48 -588 0
-46 -622 0
-47 -623 0
-48 -624 0
-46 -886 0
-47 -887 0
-48 -888 0
-46 -1189 0
-47 -1190 0
-48 -1191 0
-46 -1270 0
-47 -1271 0
-48 -1272 0
-49 -154 0
-50 -155 0
-51 -156 0
-49 -355 0
-50 -356 0
-51 -357 0
-49 -364 0
-50 -365 0
-51 -366 0
-49 -622 0
-50 -623 0
-51 -624 0
-49 -1252 0
-50 -1253 0
-51 -1254 0
-49 -1408 0
-50 -1409 0
-51 -1410 0
-52 -1261 0
-53 -1262 0
-54 -1263 0
-52 -1360 0
-53 -1361 0
-54 -1362 0
-55 -196 0
-56 -197 0
-57 -198 0
-55 -424 0
-56 -425 0
-57 -426 0
-55 -463 0
-56 -464 0
-57 -465 0
-55 -622 0
-56 -623 0
-57 -624 0
-55 -685 0
-56 -686 0
-57 -687 0
-55 -1180 0
-56 -1181 0
-57 -1182 0
-55 -1390 0
-56 -1391 0
-57 -1392 0
-58 -541 0
-59 -542 0
-60 -543 0
-58 -1000 0
-59 -1001 0
-60 -1002 0
-58 -1006 0
-59 -1007 0
-60 -1008 0
-58 -1132 0
-59 -1133 0
-60 -1134 0
-58 -1216 0
-59 -1217 0
-60 -1218 0
-58 -1468 0
-59 -1469 0
-60 -1470 0
-61 -622 0
-62 -623 0
-63 -624 0
-61 -694 0
-62 -695 0
-63 -696 0
-61 -814 0
-62 -815 0
-63 -816 0
-61 -1336 0
-62 -1337 0
-63 -1338 0
-64 -376 0
-65 -377 0
-66 -378 0
-64 -415 0
-65 -416 0
-66 -417 0
-64 -445 0
-65 -446 0
-66 -447 0
-64 -466 0
-65 -467 0
-66 -468 0
-64 -628 0
-65 -629 0
-66 -630 0
-64 -685 0
-65 -686 0
-66 -687 0
-64 -769 0
-65 -770 0
-66 -771 0
-67 -205 0
-68 -206 0
-69 -207 0
-67 -340 0
-68 -341 0
-69 -342 0
-67 -406 0
-68 -407 0
-69 -408 0
-67 -934 0
-68 -935 0
-69 -936 0
-67 -1054 0
-68 -1055 0
-69 -1056 0
-70 -319 0
-71 -320 0
-72 -321 0
-70 -934 0
-71 -935 0
-72 -936 0
-70 -979 0
-71 -980 0
-72 -981 0
-73 -121 0
-74 -122 0
-75 -123 0
-73 -1045 0
-74 -1046 0
-75 -1047 0
-76 -526 0
-77 -527 0
-78 -528 0
-76 -658 0
-77 -659 0
-78 -660 0
-76 -811 0
-77 -812 0
-78 -813 0
-76 -853 0
-77 -854 0
-78 -855 0
-76 -1300 0
-77 -1301 0
-78 -1302 0
-76 -1396 0
-77 -1397 0
-78 -1398 0
-79 -517 0
-80 -518 0
-81 -519 0
-79 -604 0
-80 -605 0
-81 -606 0
-79 -997 0
-80 -998 0
-81 -999 0
-79 -1081 0
-80 -1082 0
-81 -1083 0
-79 -1099 0
-80 -1100 0
-81 -1101 0
-79 -1123 0
-80 -1124 0
-81 -1125 0
-79 -1171 0
-80 -1172 0
-81 -1173 0
-82 -190 0
-83 -191 0
-84 -192 0
-82 -307 0
-83 -308 0
-84 -309 0
-85 -139 0
-86 -140 0
-87 -141 0
-85 -730 0
-86 -731 0
-87 -732 0
-88 -139 0
-89 -140 0
-90 -141 0
-88 -259 0
-89 -260 0
-90 -261 0
-88 -550 0
-89 -551 0
-90 -552 0
-88 -631 0
-89 -632 0
-90 -633 0
-88 -727 0
-89 -728 0
-90 -729 0
-88 -802 0
-89 -803 0
-90 -804 0
-88 -925 0
-89 -926 0
-90 -927 0
-88 -1153 0
-89 -1154 0
-90 -1155 0
-91 -487 0
-92 -488 0
-93 -489 0
-91 -664 0
-92 -665 0
-93 -666 0
-91 -820 0
-92 -821 0
-93 -822 0
-91 -916 0
-92 -917 0
-93 -918 0
-91 -928 0
-92 -929 0
-93 -930 0
-91 -1138 0
-92 -1139 0
-93 -1140 0
-91 -1384 0
-92 -1385 0
-93 -1386 0
-94 -115 0
-95 -116 0
-96 -117 0
-94 -553 0
-95 -554 0
-96 -555 0
-94 -688 0
-95 -689 0
-96 -690 0
-94 -751 0
-95 -752 0
-96 -753 0
-94 -1171 0
-95 -1172 0
-96 -1173 0
-94 -1252 0
-95 -1253 0
-96 -1254 0
-97 -226 0
-98 -227 0
-99 -228 0
-97 -760 0
-98 -761 0
-99 -762 0
-97 -1324 0
-98 -1325 0
-99 -1326 0
-100 -256 0
-101 -257 0
-102 -258 0
-100 -430 0
-101 -431 0
-102 -432 0
-100 -442 0
-101 -443 0
-102 -444 0
-100 -973 0
-101 -974 0
-102 -975 0
-100 -1411 0
-101 -1412 0
-102 -1413 0
-103 -157 0
-104 -158 0
-105 -159 0
-103 -664 0
-104 -665 0
-105 -666 0
-103 -1120 0
-104 -1121 0
-105 -1122 0
-106 -793 0
-107 -794 0
-108 -795 0
-106 -937 0
-107 -938 0
-108 -939 0
-109 -616 0
-110 -617 0
-111 -618 0
-109 -646 0
-110 -647 0
-111 -648 0
-109 -727 0
-110 -728 0
-111 -729 0
-109 -907 0
-110 -908 0
-111 -909 0
-109 -946 0
-110 -947 0
-111 -948 0
-109 -1042 0
-110 -1043 0
-111 -1044 0
-109 -1093 0
-110 -1094 0
-111 -1095 0
-109 -1249 0
-110 -1250 0
-111 -1251 0
-112 -307 0
-113 -308 0
-114 -309 0
-112 -844 0
-113 -845 0
-114 -846 0
-112 -847 0
-113 -848 0
-114 -849 0
-112 -916 0
-113 -917 0
-114 -918 0
-112 -1384 0
-113 -1385 0
-114 -1386 0
-115 -247 0
-116 -248 0
-117 -249 0
-115 -421 0
-116 -422 0
-117 -423 0
-115 -460 0
-116 -461 0
-117 -462 0
-115 -589 0
-116 -590 0
-117 -591 0
-115 -1009 0
-116 -1010 0
-117 -1011 0
-115 -1015 0
-116 -1016 0
-117 -1017 0
-115 -1084 0
-116 -1085 0
-117 -1086 0
-115 -1138 0
-116 -1139 0
-117 -1140 0
-115 -1345 0
-116 -1346 0
-117 -1347 0
-118 -1210 0
-119 -1211 0
-120 -1212 0
-118 -1357 0
-119 -1358 0
-120 -1359 0
-121 -565 0
-122 -566 0
-123 -567 0
-121 -589 0
-122 -590 0
-123 -591 0
-121 -709 0
-122 -710 0
-123 -711 0
-121 -1390 0
-122 -1391 0
-123 -1392 0
-124 -562 0
-125 -563 0
-126 -564 0
-124 -637 0
-125 -638 0
-126 -639 0
-124 -1192 0
-125 -1193 0
-126 -1194 0
-124 -1201 0
-125 -1202 0
-126 -1203 0
-124 -1486 0
-125 -1487 0
-126 -1488 0
-127 -796 0
-128 -797 0
-129 -798 0
-127 -988 0
-128 -989 0
-129 -990 0
-130 -625 0
-131 -626 0
-132 -627 0
-130 -1156 0
-131 -1157 0
-132 -1158 0
-130 -1441 0
-131 -1442 0
-132 -1443 0
-133 -937 0
-134 -938 0
-135 -939 0
-133 -997 0
-134 -998 0
-135 -999 0
-133 -1090 0
-134 -1091 0
-135 -1092 0
-133 -1276 0
-134 -1277 0
-135 -1278 0
-136 -607 0
-137 -608 0
-138 -609 0
-136 -862 0
-137 -863 0
-138 -864 0
-136 -961 0
-137 -962 0
-138 -963 0
-136 -1087 0
-137 -1088 0
-138 -1089 0
-136 -1150 0
-137 -1151 0
-138 -1152 0
-136 -1159 0
-137 -1160 0
-138 -1161 0
-136 -1312 0
-137 -1313 0
-138 -1314 0
-136 -1447 0
-137 -1448 0
-138 -1449 0
-139 -592 0
-140 -593 0
-141 -594 0
-139 -646 0
-140 -647 0
-141 -648 0
-139 -1348 0
-140 -1349 0
-141 -1350 0
-142 -193 0
-143 -194 0
-144 -195 0
-142 -280 0
-143 -281 0
-144 -282 0
-142 -343 0
-143 -344 0
-144 -345 0
-142 -784 0
-143 -785 0
-144 -786 0
-142 -1048 0
-143 -1049 0
-144 -1050 0
-145 -334 0
-146 -335 0
-147 -336 0
-145 -880 0
-146 -881 0
-147 -882 0
-145 -1189 0
-146 -1190 0
-147 -1191 0
-145 -1390 0
-146 -1391 0
-147 -1392 0
-148 -724 0
-149 -725 0
-150 -726 0
-148 -784 0
-149 -785 0
-150 -786 0
-148 -964 0
-149 -965 0
-150 -966 0
-148 -1312 0
-149 -1313 0
-150 -1314 0
-151 -514 0
-152 -515 0
-153 -516 0
-151 -547 0
-152 -548 0
-153 -549 0
-151 -649 0
-152 -650 0
-153 -651 0
-151 -742 0
-152 -743 0
-153 -744 0
-151 -1129 0
-152 -1130 0
-153 -1131 0
-151 -1480 0
-152 -1481 0
-153 -1482 0
-154 -430 0
-155 -431 0
-156 -432 0
-154 -973 0
-155 -974 0
-156 -975 0
-154 -1111 0
-155 -1112 0
-156 -1113 0
-157 -583 0
-158 -584 0
-159 -585 0
-157 -655 0
-158 -656 0
-159 -657 0
-157 -679 0
-158 -680 0
-159 -681 0
-157 -751 0
-158 -752 0
-159 -753 0
-157 -760 0
-158 -761 0
-159 -762 0
-157 -826 0
-158 -827 0
-159 -828 0
-157 -985 0
-158 -986 0
-159 -987 0
-157 -1450 0
-158 -1451 0
-159 -1452 0
-157 -1477 0
-158 -1478 0
-159 -1479 0
-160 -568 0
-161 -569 0
-162 -570 0
-160 -631 0
-161 -632 0
-162 -633 0
-160 -1423 0
-161 -1424 0
-162 -1425 0
-163 -208 0
-164 -209 0
-165 -210 0
-163 -844 0
-164 -845 0
-165 -846 0
-163 -982 0
-164 -983 0
-165 -984 0
-163 -1213 0
-164 -1214 0
-165 -1215 0
-163 -1375 0
-164 -1376 0
-165 -1377 0
-166 -439 0
-167 -440 0
-168 -441 0
-166 -463 0
-167 -464 0
-168 -465 0
-166 -919 0
-167 -920 0
-168 -921 0
-166 -1021 0
-167 -1022 0
-168 -1023 0
-166 -1213 0
-167 -1214 0
-168 -1215 0
-166 -1300 0
-167 -1301 0
-168 -1302 0
-166 -1444 0
-167 -1445 0
-168 -1446 0
-166 -1498 0
-167 -1499 0
-168 -1500 0
-169 -337 0
-170 -338 0
-171 -339 0
-169 -553 0
-170 -554 0
-171 -555 0
-169 -802 0
-170 -803 0
-171 -804 0
-169 -982 0
-170 -983 0
-171 -984 0
-169 -1117 0
-170 -1118 0
-171 -1119 0
-169 -1123 0
-170 -1124 0
-171 -1125 0
-172 -1270 0
-173 -1271 0
-174 -1272 0
-172 -1366 0
-173 -1367 0
-174 -1368 0
-172 -1381 0
-173 -1382 0
-174 -1383 0
-175 -556 0
-176 -557 0
-177 -558 0
-175 -679 0
-176 -680 0
-177 -681 0
-175 -1285 0
-176 -1286 0
-177 -1287 0
-178 -262 0
-179 -263 0
-180 -264 0
-178 -415 0
-179 -416 0
-180 -417 0
-178 -1000 0
-179 -1001 0
-180 -1002 0
-181 -238 0
-182 -239 0
-183 -240 0
-181 -262 0
-182 -263 0
-183 -264 0
-181 -427 0
-182 -428 0
-183 -429 0
-181 -874 0
-182 -875 0
-183 -876 0
-181 -937 0
-182 -938 0
-183 -939 0
-181 -973 0
-182 -974 0
-183 -975 0
-184 -241 0
-185 -242 0
-186 -243 0
-184 -244 0
-185 -245 0
-186 -246 0
-184 -622 0
-185 -623 0
-186 -624 0
-184 -634 0
-185 -635 0
-186 -636 0
-184 -841 0
-185 -842 0
-186 -843 0
-184 -961 0
-185 -962 0
-186 -963 0
-184 -1072 0
-185 -1073 0
-186 -1074 0
-184 -1141 0
-185 -1142 0
-186 -1143 0
-184 -1288 0
-185 -1289 0
-186 -1290 0
-187 -604 0
-188 -605 0
-189 -606 0
-187 -697 0
-188 -698 0
-189 -699 0
-187 -964 0
-188 -965 0
-189 -966 0
-187 -1132 0
-188 -1133 0
-189 -1134 0
-187 -1213 0
-188 -1214 0
-189 -1215 0
-190 -580 0
-191 -581 0
-192 -582 0
-190 -652 0
-191 -653 0
-192 -654 0
-190 -895 0
-191 -896 0
-192 -897 0
-193 -310 0
-194 -311 0
-195 -312 0
-193 -478 0
-194 -479 0
-195 -480 0
-193 -709 0
-194 -710 0
-195 -711 0
-193 -1117 0
-194 -1118 0
-195 -1119 0
-193 -1171 0
-194 -1172 0
-195 -1173 0
-196 -385 0
-197 -386 0
-198 -387 0
-199 -334 0
-200 -335 0
-201 -336 0
-199 -562 0
-200 -563 0
-201 -564 0
-199 -1216 0
-200 -1217 0
-201 -1218 0
-199 -1294 0
-200 -1295 0
-201 -1296 0
-199 -1441 0
-200 -1442 0
-201 -1443 0
-202 -415 0
-203 -416 0
-204 -417 0
-202 -565 0
-203 -566 0
-204 -567 0
-202 -772 0
-203 -773 0
-204 -774 0
-202 -874 0
-203 -875 0
-204 -876 0
-202 -913 0
-203 -914 0
-204 -915 0
-202 -1012 0
-203 -1013 0
-204 -1014 0
-205 -1264 0
-206 -1265 0
-207 -1266 0
-205 -1273 0
-206 -1274 0
-207 -1275 0
-205 -1321 0
-206 -1322 0
-207 -1323 0
-208 -544 0
-209 -545 0
-210 -546 0
-208 -634 0
-209 -635 0
-210 -636 0
-208 -937 0
-209 -938 0
-210 -939 0
-208 -1084 0
-209 -1085 0
-210 -1086 0
-208 -1165 0
-209 -1166 0
-210 -1167 0
-208 -1288 0
-209 -1289 0
-210 -1290 0
-208 -1450 0
-209 -1451 0
-210 -1452 0
-208 -1468 0
-209 -1469 0
-210 -1470 0
-211 -490 0
-212 -491 0
-213 -492 0
-211 -523 0
-212 -524 0
-213 -525 0
-211 -772 0
-212 -773 0
-213 -774 0
-211 -778 0
-212 -779 0
-213 -780 0
-211 -796 0
-212 -797 0
-213 -798 0
-211 -907 0
-212 -908 0
-213 -909 0
-211 -1417 0
-212 -1418 0
-213 -1419 0
-214 -358 0
-215 -359 0
-216 -360 0
-214 -727 0
-215 -728 0
-216 -729 0
-214 -850 0
-215 -851 0
-216 -852 0
-214 -994 0
-215 -995 0
-216 -996 0
-214 -1090 0
-215 -1091 0
-216 -1092 0
-214 -1126 0
-215 -1127 0
-216 -1128 0
-214 -1366 0
-215 -1367 0
-216 -1368 0
-214 -1459 0
-215 -1460 0
-216 -1461 0
-217 -1027 0
-218 -1028 0
-219 -1029 0
-220 -304 0
-221 -305 0
-222 -306 0
-220 -358 0
-221 -359 0
-222 -360 0
-220 -898 0
-221 -899 0
-222 -900 0
-220 -1030 0
-221 -1031 0
-222 -1032 0
-220 -1087 0
-221 -1088 0
-222 -1089 0
-220 -1402 0
-221 -1403 0
-222 -1404 0
-223 -640 0
-224 -641 0
-225 -642 0
-223 -1054 0
-224 -1055 0
-225 -1056 0
-226 -283 0
-227 -284 0
-228 -285 0
-226 -1489 0
-227 -1490 0
-228 -1491 0
-229 -277 0
-230 -278 0
-231 -279 0
-229 -313 0
-230 -314 0
-231 -315 0
-229 -568 0
-230 -569 0
-231 -570 0
-229 -1012 0
-230 -1013 0
-231 -1014 0
-229 -1165 0
-230 -1166 0
-231 -1167 0
-229 -1462 0
-230 -1463 0
-231 -1464 0
-232 -469 0
-233 -470 0
-234 -471 0
-232 -643 0
-233 -644 0
-234 -645 0
-232 -1093 0
-233 -1094 0
-234 -1095 0
-235 -340 0
-236 -341 0
-237 -342 0
-235 -1165 0
-236 -1166 0
-237 -1167 0
-235 -1234 0
-236 -1235 0
-237 -1236 0
-238 -445 0
-239 -446 0
-240 -447 0
-238 -508 0
-239 -509 0
-240 -510 0
-238 -649 0
-239 -650 0
-240 -651 0
-238 -700 0
-239 -701 0
-240 -702 0
-238 -970 0
-239 -971 0
-240 -972 0
-238 -1171 0
-239 -1172 0
-240 -1173 0
-238 -1264 0
-239 -1265 0
-240 -1266 0
-241 -352 0
-242 -353 0
-243 -354 0
-241 -358 0
-242 -359 0
-243 -360 0
-241 -463 0
-242 -464 0
-243 -465 0
-241 -1264 0
-242 -1265 0
-243 -1266 0
-244 -1027 0
-245 -1028 0
-246 -1029 0
-244 -1081 0
-245 -1082 0
-246 -1083 0
-247 -1156 0
-248 -1157 0
-249 -1158 0
-247 -1180 0
-248 -1181 0
-249 -1182 0
-250 -493 0
-251 -494 0
-252 -495 0
-250 -718 0
-251 -719 0
-252 -720 0
-250 -877 0
-251 -878 0
-252 -879 0
-250 -898 0
-251 -899 0
-252 -900 0
-250 -1318 0
-251 -1319 0
-252 -1320 0
-250 -1435 0
-251 -1436 0
-252 -1437 0
-253 -970 0
-254 -971 0
-255 -972 0
-256 -946 0
-257 -947 0
-258 -948 0
-259 -397 0
-260 -398 0
-261 -399 0
-259 -1198 0
-260 -1199 0
-261 -1200 0
-259 -1282 0
-260 -1283 0
-261 -1284 0
-265 -1477 0
-266 -1478 0
-267 -1479 0
-268 -271 0
-269 -272 0
-270 -273 0
-268 -844 0
-269 -845 0
-270 -846 0
-268 -1360 0
-269 -1361 0
-270 -1362 0
-271 -280 0
-272 -281 0
-273 -282 0
-271 -727 0
-272 -728 0
-273 -729 0
-271 -880 0
-272 -881 0
-273 -882 0
-271 -1075 0
-272 -1076 0
-273 -1077 0
-271 -1435 0
-272 -1436 0
-273 -1437 0
-274 -316 0
-275 -317 0
-276 -318 0
-274 -901 0
-275 -902 0
-276 -903 0
-274 -991 0
-275 -992 0
-276 -993 0
-274 -1132 0
-275 -1133 0
-276 -1134 0
-274 -1303 0
-275 -1304 0
-276 -1305 0
-277 -634 0
-278 -635 0
-279 -636 0
-277 -979 0
-278 -980 0
-279 -981 0
-277 -1129 0
-278 -1130 0
-279 -1131 0
-277 -1141 0
-278 -1142 0
-279 -1143 0
-280 -307 0
-281 -308 0
-282 -309 0
-280 -961 0
-281 -962 0
-282 -963 0
-280 -1120 0
-281 -1121 0
-282 -1122 0
-280 -1228 0
-281 -1229 0
-282 -1230 0
-280 -1255 0
-281 -1256 0
-282 -1257 0
-280 -1477 0
-281 -1478 0
-282 -1479 0
-283 -595 0
-284 -596 0
-285 -597 0
-283 -934 0
-284 -935 0
-285 -936 0
-283 -1420 0
-284 -1421 0
-285 -1422 0
-286 -598 0
-287 -599 0
-288 -600 0
-286 -853 0
-287 -854 0
-288 -855 0
-286 -1135 0
-287 -1136 0
-288 -1137 0
-286 -1435 0
-287 -1436 0
-288 -1437 0
-289 -337 0
-290 -338 0
-291 -339 0
-289 -694 0
-290 -695 0
-291 -696 0
-289 -817 0
-290 -818 0
-291 -819 0
-289 -1042 0
-290 -1043 0
-291 -1044 0
-289 -1090 0
-290 -1091 0
-291 -1092 0
-289 -1198 0
-290 -1199 0
-291 -1200 0
-289 -1225 0
-290 -1226 0
-291 -1227 0
-289 -1321 0
-290 -1322 0
-291 -1323 0
-289 -1378 0
-290 -1379 0
-291 -1380 0
-292 -400 0
-293 -401 0
-294 -402 0
-292 -406 0
-293 -407 0
-294 -408 0
-292 -457 0
-293 -458 0
-294 -459 0
-292 -595 0
-293 -596 0
-294 -597 0
-292 -838 0
-293 -839 0
-294 -840 0
-292 -925 0
-293 -926 0
-294 -927 0
-292 -1144 0
-293 -1145 0
-294 -1146 0
-295 -1009 0
-296 -1010 0
-297 -1011 0
-295 -1249 0
-296 -1250 0
-297 -1251 0
-295 -1414 0
-296 -1415 0
-297 -1416 0
-298 -802 0
-299 -803 0
-300 -804 0
-298 -970 0
-299 -971 0
-300 -972 0
-298 -994 0
-299 -995 0
-300 -996 0
-298 -1027 0
-299 -1028 0
-300 -1029 0
-298 -1279 0
-299 -1280 0
-300 -1281 0
-301 -865 0
-302 -866 0
-303 -867 0
-301 -1153 0
-302 -1154 0
-303 -1155 0
-301 -1219 0
-302 -1220 0
-303 -1221 0
-301 -1297 0
-302 -1298 0
-303 -1299 0
-301 -1393 0
-302 -1394 0
-303 -1395 0
-304 -700 0
-305 -701 0
-306 -702 0
-304 -895 0
-305 -896 0
-306 -897 0
-307 -382 0
-308 -383 0
-309 -384 0
-307 -394 0
-308 -395 0
-309 -396 0
-307 -1237 0
-308 -1238 0
-309 -1239 0
-310 -382 0
-311 -383 0
-312 -384 0
-310 -535 0
-311 -536 0
-312 -537 0
-310 -931 0
-311 -932 0
-312 -933 0
-313 -355 0
-314 -356 0
-315 -357 0
-313 -616 0
-314 -617 0
-315 -618 0
-313 -943 0
-314 -944 0
-315 -945 0
-313 -1024 0
-314 -1025 0
-315 -1026 0
-313 -1342 0
-314 -1343 0
-315 -1344 0
-316 -343 0
-317 -344 0
-318 -345 0
-316 -346 0
-317 -347 0
-318 -348 0
-316 -379 0
-317 -380 0
-318 -381 0
-316 -622 0
-317 -623 0
-318 -624 0
-316 -832 0
-317 -833 0
-318 -834 0
-316 -916 0
-317 -917 0
-318 -918 0
-316 -1090 0
-317 -1091 0
-318 -1092 0
-316 -1225 0
-317 -1226 0
-318 -1227 0
-316 -1483 0
-317 -1484 0
-318 -1485 0
-319 -406 0
-320 -407 0
-321 -408 0
-319 -502 0
-320 -503 0
-321 -504 0
-319 -679 0
-320 -680 0
-321 -681 0
-319 -721 0
-320 -722 0
-321 -723 0
-319 -1060 0
-320 -1061 0
-321 -1062 0
-322 -613 0
-323 -614 0
-324 -615 0
-322 -820 0
-323 -821 0
-324 -822 0
-322 -1111 0
-323 -1112 0
-324 -1113 0
-325 -724 0
-326 -725 0
-327 -726 0
-325 -742 0
-326 -743 0
-327 -744 0
-325 -931 0
-326 -932 0
-327 -933 0
-325 -985 0
-326 -986 0
-327 -987 0
-325 -1243 0
-326 -1244 0
-327 -1245 0
-328 -613 0
-329 -614 0
-330 -615 0
-328 -892 0
-329 -893 0
-330 -894 0
-328 -958 0
-329 -959 0
-330 -960 0
-328 -1096 0
-329 -1097 0
-330 -1098 0
-328 -1165 0
-329 -1166 0
-330 -1167 0
-328 -1432 0
-329 -1433 0
-330 -1434 0
-331 -487 0
-332 -488 0
-333 -489 0
-331 -976 0
-332 -977 0
-333 -978 0
-331 -1195 0
-332 -1196 0
-333 -1197 0
-331 -1384 0
-332 -1385 0
-333 -1386 0
-334 -733 0
-335 -734 0
-336 -735 0
-334 -841 0
-335 -842 0
-336 -843 0
-337 -586 0
-338 -587 0
-339 -588 0
-337 -988 0
-338 -989 0
-339 -990 0
-337 -1039 0
-338 -1040 0
-339 -1041 0
-337 -1054 0
-338 -1055 0
-339 -1056 0
-337 -1078 0
-338 -1079 0
-339 -1080 0
-340 -655 0
-341 -656 0
-342 -657 0
-340 -763 0
-341 -764 0
-342 -765 0
-340 -1381 0
-341 -1382 0
-342 -1383 0
-343 -526 0
-344 -527 0
-345 -528 0
-343 -1006 0
-344 -1007 0
-345 -1008 0
-343 -1297 0
-344 -1298 0
-345 -1299 0
-343 -1498 0
-344 -1499 0
-345 -1500 0
-346 -391 0
-347 -392 0
-348 -393 0
-346 -1162 0
-347 -1163 0
-348 -1164 0
-346 -1252 0
-347 -1253 0
-348 -1254 0
-349 -535 0
-350 -536 0
-351 -537 0
-349 -655 0
-350 -656 0
-351 -657 0
-349 -805 0
-350 -806 0
-351 -807 0
-349 -988 0
-350 -989 0
-351 -990 0
-349 -1237 0
-350 -1238 0
-351 -1239 0
-352 -778 0
-353 -779 0
-354 -780 0
-352 -1195 0
-353 -1196 0
-354 -1197 0
-355 -598 0
-356 -599 0
-357 -600 0
-358 -397 0
-359 -398 0
-360 -399 0
-358 -586 0
-359 -587 0
-360 -588 0
-358 -1291 0
-359 -1292 0
-360 -1293 0
-361 -427 0
-362 -428 0
-363 -429 0
-361 -469 0
-362 -470 0
-363 -471 0
-361 -637 0
-362 -638 0
-363 -639 0
-361 -652 0
-362 -653 0
-363 -654 0
-361 -1495 0
-362 -1496 0
-363 -1497 0
-364 -649 0
-365 -650 0
-366 -651 0
-364 -1264 0
-365 -1265 0
-366 -1266 0
-364 -1354 0
-365 -1355 0
-366 -1356 0
-364 -1375 0
-365 -1376 0
-366 -1377 0
-367 -742 0
-368 -743 0
-369 -744 0
-367 -1117 0
-368 -1118 0
-369 -1119 0
-367 -1465 0
-368 -1466 0
-369 -1467 0
-370 -502 0
-371 -503 0
-372 -504 0
-370 -580 0
-371 -581 0
-372 -582 0
-370 -697 0
-371 -698 0
-372 -699 0
-370 -781 0
-371 -782 0
-372 -783 0
-370 -1006 0
-371 -1007 0
-372 -1008 0
-370 -1012 0
-371 -1013 0
-372 -1014 0
-370 -1312 0
-371 -1313 0
-372 -1314 0
-370 -1414 0
-371 -1415 0
-372 -1416 0
-373 -769 0
-374 -770 0
-375 -771 0
-373 -1468 0
-374 -1469 0
-375 -1470 0
-376 -685 0
-377 -686 0
-378 -687 0
-376 -763 0
-377 -764 0
-378 -765 0
-376 -1258 0
-377 -1259 0
-378 -1260 0
-379 -1318 0
-380 -1319 0
-381 -1320 0
-382 -805 0
-383 -806 0
-384 -807 0
-382 -1366 0
-383 -1367 0
-384 -1368 0
-382 -1435 0
-383 -1436 0
-384 -1437 0
-385 -418 0
-386 -419 0
-387 -420 0
-385 -670 0
-386 -671 0
-387 -672 0
-385 -835 0
-386 -836 0
-387 -837 0
-385 -976 0
-386 -977 0
-387 -978 0
-385 -1021 0
-386 -1022 0
-387 -1023 0
-385 -1357 0
-386 -1358 0
-387 -1359 0
-385 -1468 0
-386 -1469 0
-387 -1470 0
-388 -421 0
-389 -422 0
-390 -423 0
-388 -469 0
-389 -470 0
-390 -471 0
-388 -523 0
-389 -524 0
-390 -525 0
-388 -988 0
-389 -989 0
-390 -990 0
-391 -463 0
-392 -464 0
-393 -465 0
-391 -709 0
-392 -710 0
-393 -711 0
-391 -868 0
-392 -869 0
-393 -870 0
-391 -1399 0
-392 -1400 0
-393 -1401 0
-391 -1459 0
-392 -1460 0
-393 -1461 0
-394 -835 0
-395 -836 0
-396 -837 0
-394 -1273 0
-395 -1274 0
-396 -1275 0
-394 -1279 0
-395 -1280 0
-396 -1281 0
-394 -1474 0
-395 -1475 0
-396 -1476 0
-397 -700 0
-398 -701 0
-399 -702 0
-397 -988 0
-398 -989 0
-399 -990 0
-397 -1282 0
-398 -1283 0
-399 -1284 0
-403 -445 0
-404 -446 0
-405 -447 0
-403 -742 0
-404 -743 0
-405 -744 0
-403 -949 0
-404 -950 0
-405 -951 0
-403 -1033 0
-404 -1034 0
-405 -1035 0
-403 -1066 0
-404 -1067 0
-405 -1068 0
-403 -1183 0
-404 -1184 0
-405 -1185 0
-406 -631 0
-407 -632 0
-408 -633 0
-406 -841 0
-407 -842 0
-408 -843 0
-406 -1138 0
-407 -1139 0
-408 -1140 0
-406 -1321 0
-407 -1322 0
-408 -1323 0
-409 -424 0
-410 -425 0
-411 -426 0
-409 -490 0
-410 -491 0
-411 -492 0
-409 -823 0
-410 -824 0
-411 -825 0
-409 -1234 0
-410 -1235 0
-411 -1236 0
-409 -1453 0
-410 -1454 0
-411 -1455 0
-412 -919 0
-413 -920 0
-414 -921 0
-415 -454 0
-416 -455 0
-417 -456 0
-415 -955 0
-416 -956 0
-417 -957 0
-415 -997 0
-416 -998 0
-417 -999 0
-415 -1228 0
-416 -1229 0
-417 -1230 0
-418 -475 0
-419 -476 0
-420 -477 0
-418 -487 0
-419 -488 0
-420 -489 0
-418 -610 0
-419 -611 0
-420 -612 0
-418 -757 0
-419 -758 0
-420 -759 0
-418 -766 0
-419 -767 0
-420 -768 0
-418 -841 0
-419 -842 0
-420 -843 0
-418 -844 0
-419 -845 0
-420 -846 0
-418 -1054 0
-419 -1055 0
-420 -1056 0
-418 -1222 0
-419 -1223 0
-420 -1224 0
-418 -1270 0
-419 -1271 0
-420 -1272 0
-418 -1354 0
-419 -1355 0
-420 -1356 0
-418 -1372 0
-419 -1373 0
-420 -1374 0
-421 -430 0
-422 -431 0
-423 -432 0
-421 -496 0
-422 -497 0
-423 -498 0
-421 -565 0
-422 -566 0
-423 -567 0
-421 -598 0
-422 -599 0
-423 -600 0
-421 -601 0
-422 -602 0
-423 -603 0
-421 -1066 0
-422 -1067 0
-423 -1068 0
-421 -1141 0
-422 -1142 0
-423 -1143 0
-424 -1180 0
-425 -1181 0
-426 -1182 0
-427 -1123 0
-428 -1124 0
-429 -1125 0
-427 -1243 0
-428 -1244 0
-429 -1245 0
-430 -448 0
-431 -449 0
-432 -450 0
-430 -637 0
-431 -638 0
-432 -639 0
-430 -667 0
-431 -668 0
-432 -669 0
-430 -706 0
-431 -707 0
-432 -708 0
-430 -1219 0
-431 -1220 0
-432 -1221 0
-430 -1390 0
-431 -1391 0
-432 -1392 0
-433 -1072 0
-434 -1073 0
-435 -1074 0
-433 -1153 0
-434 -1154 0
-435 -1155 0
-436 -793 0
-437 -794 0
-438 -795 0
-436 -1207 0
-437 -1208 0
-438 -1209 0
-442 -616 0
-443 -617 0
-444 -618 0
-442 -1012 0
-443 -1013 0
-444 -1014 0
-442 -1303 0
-443 -1304 0
-444 -1305 0
-445 -946 0
-446 -947 0
-447 -948 0
-445 -985 0
-446 -986 0
-447 -987 0
-445 -1480 0
-446 -1481 0
-447 -1482 0
-448 -832 0
-449 -833 0
-450 -834 0
-448 -1372 0
-449 -1373 0
-450 -1374 0
-448 -1465 0
-449 -1466 0
-450 -1467 0
-451 -517 0
-452 -518 0
-453 -519 0
-451 -856 0
-452 -857 0
-453 -858 0
-451 -1228 0
-452 -1229 0
-453 -1230 0
-454 -1357 0
-455 -1358 0
-456 -1359 0
-454 -1396 0
-455 -1397 0
-456 -1398 0
-457 -826 0
-458 -827 0
-459 -828 0
-457 -859 0
-458 -860 0
-459 -861 0
-460 -496 0
-461 -497 0
-462 -498 0
-460 -589 0
-461 -590 0
-462 -591 0
-460 -742 0
-461 -743 0
-462 -744 0
-460 -913 0
-461 -914 0
-462 -915 0
-460 -1306 0
-461 -1307 0
-462 -1308 0
-460 -1420 0
-461 -1421 0
-462 -1422 0
-463 -577 0
-464 -578 0
-465 -579 0
-466 -487 0
-467 -488 0
-468 -489 0
-466 -1018 0
-467 -1019 0
-468 -1020 0
-466 -1174 0
-467 -1175 0
-468 -1176 0
-469 -508 0
-470 -509 0
-471 -510 0
-469 -709 0
-470 -710 0
-471 -711 0
-469 -1063 0
-470 -1064 0
-471 -1065 0
-469 -1195 0
-470 -1196 0
-471 -1197 0
-472 -511 0
-473 -512 0
-474 -513 0
-472 -1324 0
-473 -1325 0
-474 -1326 0
-472 -1369 0
-473 -1370 0
-474 -1371 0
-472 -1471 0
-473 -1472 0
-474 -1473 0
-475 -799 0
-476 -800 0
-477 -801 0
-475 -964 0
-476 -965 0
-477 -966 0
-478 -1453 0
-479 -1454 0
-480 -1455 0
-481 -823 0
-482 -824 0
-483 -825 0
-481 -1030 0
-482 -1031 0
-483 -1032 0
-481 -1153 0
-482 -1154 0
-483 -1155 0
-481 -1177 0
-482 -1178 0
-483 -1179 0
-481 -1345 0
-482 -1346 0
-483 -1347 0
-484 -745 0
-485 -746 0
-486 -747 0
-484 -850 0
-485 -851 0
-486 -852 0
-484 -1369 0
-485 -1370 0
-486 -1371 0
-487 -1189 0
-488 -1190 0
-489 -1191 0
-487 -1207 0
-488 -1208 0
-489 -1209 0
-487 -1285 0
-488 -1286 0
-489 -1287 0
-487 -1444 0
-488 -1445 0
-489 -1446 0
-490 -505 0
-491 -506 0
-492 -507 0
-493 -733 0
-494 -734 0
-495 -735 0
-493 -772 0
-494 -773 0
-495 -774 0
-493 -967 0
-494 -968 0
-495 -969 0
-496 -718 0
-497 -719 0
-498 -720 0
-499 -1054 0
-500 -1055 0
-501 -1056 0
-499 -1123 0
-500 -1124 0
-501 -1125 0
-499 -1261 0
-500 -1262 0
-501 -1263 0
-499 -1315 0
-500 -1316 0
-501 -1317 0
-502 -1117 0
-503 -1118 0
-504 -1119 0
-502 -1270 0
-503 -1271 0
-504 -1272 0
-502 -1276 0
-503 -1277 0
-504 -1278 0
-505 -880 0
-506 -881 0
-507 -882 0
-505 -1051 0
-506 -1052 0
-507 -1053 0
-505 -1198 0
-506 -1199 0
-507 -1200 0
-505 -1345 0
-506 -1346 0
-507 -1347 0
-508 -688 0
-509 -689 0
-510 -690 0
-508 -841 0
-509 -842 0
-510 -843 0
-508 -1036 0
-509 -1037 0
-510 -1038 0
-514 -793 0
-515 -794 0
-516 -795 0
-514 -808 0
-515 -809 0
-516 -810 0
-514 -1216 0
-515 -1217 0
-516 -1218 0
-517 -847 0
-518 -848 0
-519 -849 0
-517 -1000 0
-518 -1001 0
-519 -1002 0
-517 -1396 0
-518 -1397 0
-519 -1398 0
-520 -847 0
-521 -848 0
-522 -849 0
-520 -1336 0
-521 -1337 0
-522 -1338 0
-520 -1360 0
-521 -1361 0
-522 -1362 0
-520 -1408 0
-521 -1409 0
-522 -1410 0
-523 -544 0
-524 -545 0
-525 -546 0
-523 -574 0
-524 -575 0
-525 -576 0
-523 -640 0
-524 -641 0
-525 -642 0
-523 -790 0
-524 -791 0
-525 -792 0
-523 -1105 0
-524 -1106 0
-525 -1107 0
-526 -550 0
-527 -551 0
-528 -552 0
-526 -895 0
-527 -896 0
-528 -897 0
-526 -1339 0
-527 -1340 0
-528 -1341 0
-526 -1366 0
-527 -1367 0
-528 -1368 0
-526 -1414 0
-527 -1415 0
-528 -1416 0
-529 -688 0
-530 -689 0
-531 -690 0
-529 -1450 0
-530 -1451 0
-531 -1452 0
-532 -613 0
-533 -614 0
-534 -615 0
-532 -1030 0
-533 -1031 0
-534 -1032 0
-532 -1177 0
-533 -1178 0
-534 -1179 0
-532 -1219 0
-533 -1220 0
-534 -1221 0
-535 -667 0
-536 -668 0
-537 -669 0
-535 -715 0
-536 -716 0
-537 -717 0
-535 -907 0
-536 -908 0
-537 -909 0
-538 -799 0
-539 -800 0
-540 -801 0
-538 -898 0
-539 -899 0
-540 -900 0
-538 -1048 0
-539 -1049 0
-540 -1050 0
-541 -724 0
-542 -725 0
-543 -726 0
-541 -832 0
-542 -833 0
-543 -834 0
-541 -913 0
-542 -914 0
-543 -915 0
-541 -1333 0
-542 -1334 0
-543 -1335 0
-544 -676 0
-545 -677 0
-546 -678 0
-544 -706 0
-545 -707 0
-546 -708 0
-544 -799 0
-545 -800 0
-546 -801 0
-544 -817 0
-545 -818 0
-546 -819 0
-544 -943 0
-545 -944 0
-546 -945 0
-547 -619 0
-548 -620 0
-549 -621 0
-547 -769 0
-548 -770 0
-549 -771 0
-547 -994 0
-548 -995 0
-549 -996 0
-547 -1363 0
-548 -1364 0
-549 -1365 0
-550 -1084 0
-551 -1085 0
-552 -1086 0
-550 -1357 0
-551 -1358 0
-552 -1359 0
-550 -1360 0
-551 -1361 0
-552 -1362 0
-550 -1429 0
-551 -1430 0
-552 -1431 0
-553 -679 0
-554 -680 0
-555 -681 0
-556 -730 0
-557 -731 0
-558 -732 0
-556 -952 0
-557 -953 0
-558 -954 0
-556 -1069 0
-557 -1070 0
-558 -1071 0
-559 -1153 0
-560 -1154 0
-561 -1155 0
-559 -1294 0
-560 -1295 0
-561 -1296 0
-562 -643 0
-563 -644 0
-564 -645 0
-562 -1219 0
-563 -1220 0
-564 -1221 0
-562 -1396 0
-563 -1397 0
-564 -1398 0
-565 -619 0
-566 -620 0
-567 -621 0
-565 -676 0
-566 -677 0
-567 -678 0
-565 -712 0
-566 -713 0
-567 -714 0
-565 -1267 0
-566 -1268 0
-567 -1269 0
-568 -1018 0
-569 -1019 0
-570 -1020 0
-568 -1201 0
-569 -1202 0
-570 -1203 0
-568 -1294 0
-569 -1295 0
-570 -1296 0
-568 -1432 0
-569 -1433 0
-570 -1434 0
-571 -805 0
-572 -806 0
-573 -807 0
-571 -856 0
-572 -857 0
-573 -858 0
-571 -928 0
-572 -929 0
-573 -930 0
-571 -1264 0
-572 -1265 0
-573 -1266 0
-574 -772 0
-575 -773 0
-576 -774 0
-574 -1114 0
-575 -1115 0
-576 -1116 0
-574 -1468 0
-575 -1469 0
-576 -1470 0
-577 -796 0
-578 -797 0
-579 -798 0
-577 -1150 0
-578 -1151 0
-579 -1152 0
-577 -1222 0
-578 -1223 0
-579 -1224 0
-577 -1270 0
-578 -1271 0
-579 -1272 0
-577 -1297 0
-578 -1298 0
-579 -1299 0
-577 -1393 0
-578 -1394 0
-579 -1395 0
-580 -619 0
-581 -620 0
-582 -621 0
-580 -850 0
-581 -851 0
-582 -852 0
-580 -862 0
-581 -863 0
-582 -864 0
-580 -1312 0
-581 -1313 0
-582 -1314 0
-583 -670 0
-584 -671 0
-585 -672 0
-583 -787 0
-584 -788 0
-585 -789 0
-583 -1186 0
-584 -1187 0
-585 -1188 0
-586 -721 0
-587 -722 0
-588 -723 0
-586 -733 0
-587 -734 0
-588 -735 0
-586 -1429 0
-587 -1430 0
-588 -1431 0
-589 -658 0
-590 -659 0
-591 -660 0
-589 -1087 0
-590 -1088 0
-591 -1089 0
-589 -1096 0
-590 -1097 0
-591 -1098 0
-589 -1255 0
-590 -1256 0
-591 -1257 0
-592 -649 0
-593 -650 0
-594 -651 0
-592 -718 0
-593 -719 0
-594 -720 0
-595 -841 0
-596 -842 0
-597 -843 0
-595 -1000 0
-596 -1001 0
-597 -1002 0
-595 -1279 0
-596 -1280 0
-597 -1281 0
-595 -1480 0
-596 -1481 0
-597 -1482 0
-598 -796 0
-599 -797 0
-600 -798 0
-601 -1300 0
-602 -1301 0
-603 -1302 0
-601 -1474 0
-602 -1475 0
-603 -1476 0
-604 -1117 0
-605 -1118 0
-606 -1119 0
-604 -1177 0
-605 -1178 0
-606 -1179 0
-607 -1003 0
-608 -1004 0
-609 -1005 0
-607 -1144 0
-608 -1145 0
-609 -1146 0
-610 -685 0
-611 -686 0
-612 -687 0
-613 -706 0
-614 -707 0
-615 -708 0
-613 -1168 0
-614 -1169 0
-615 -1170 0
-616 -1255 0
-617 -1256 0
-618 -1257 0
-616 -1423 0
-617 -1424 0
-618 -1425 0
-619 -907 0
-620 -908 0
-621 -909 0
-619 -976 0
-620 -977 0
-621 -978 0
-619 -1315 0
-620 -1316 0
-621 -1317 0
-622 -751 0
-623 -752 0
-624 -753 0
-622 -913 0
-623 -914 0
-624 -915 0
-622 -1198 0
-623 -1199 0
-624 -1200 0
-622 -1441 0
-623 -1442 0
-624 -1443 0
-625 -709 0
-626 -710 0
-627 -711 0
-625 -1282 0
-626 -1283 0
-627 -1284 0
-631 -1171 0
-632 -1172 0
-633 -1173 0
-634 -976 0
-635 -977 0
-636 -978 0
-637 -886 0
-638 -887 0
-639 -888 0
-637 -1342 0
-638 -1343 0
-639 -1344 0
-640 -892 0
-641 -893 0
-642 -894 0
-640 -1378 0
-641 -1379 0
-642 -1380 0
-643 -1285 0
-644 -1286 0
-645 -1287 0
-643 -1306 0
-644 -1307 0
-645 -1308 0
-646 -946 0
-647 -947 0
-648 -948 0
-646 -1363 0
-647 -1364 0
-648 -1365 0
-646 -1372 0
-647 -1373 0
-648 -1374 0
-646 -1450 0
-647 -1451 0
-648 -1452 0
-652 -748 0
-653 -749 0
-654 -750 0
-652 -946 0
-653 -947 0
-654 -948 0
-655 -928 0
-656 -929 0
-657 -930 0
-658 -667 0
-659 -668 0
-660 -669 0
-658 -880 0
-659 -881 0
-660 -882 0
-658 -892 0
-659 -893 0
-660 -894 0
-658 -1147 0
-659 -1148 0
-660 -1149 0
-661 -970 0
-662 -971 0
-663 -972 0
-661 -1414 0
-662 -1415 0
-663 -1416 0
-664 -1180 0
-665 -1181 0
-666 -1182 0
-667 -676 0
-668 -677 0
-669 -678 0
-667 -688 0
-668 -689 0
-669 -690 0
-667 -865 0
-668 -866 0
-669 -867 0
-667 -1342 0
-668 -1343 0
-669 -1344 0
-667 -1405 0
-668 -1406 0
-669 -1407 0
-667 -1426 0
-668 -1427 0
-669 -1428 0
-670 -916 0
-671 -917 0
-672 -918 0
-670 -1054 0
-671 -1055 0
-672 -1056 0
-670 -1153 0
-671 -1154 0
-672 -1155 0
-673 -721 0
-674 -722 0
-675 -723 0
-673 -868 0
-674 -869 0
-675 -870 0
-673 -874 0
-674 -875 0
-675 -876 0
-673 -910 0
-674 -911 0
-675 -912 0
-676 -907 0
-677 -908 0
-678 -909 0
-676 -997 0
-677 -998 0
-678 -999 0
-676 -1426 0
-677 -1427 0
-678 -1428 0
-679 -889 0
-680 -890 0
-681 -891 0
-682 -1219 0
-683 -1220 0
-684 -1221 0
-682 -1360 0
-683 -1361 0
-684 -1362 0
-685 -781 0
-686 -782 0
-687 -783 0
-685 -823 0
-686 -824 0
-687 -825 0
-688 -1027 0
-689 -1028 0
-690 -1029 0
-688 -1366 0
-689 -1367 0
-690 -1368 0
-691 -793 0
-692 -794 0
-693 -795 0
-691 -1057 0
-692 -1058 0
-693 -1059 0
-691 -1069 0
-692 -1070 0
-693 -1071 0
-694 -949 0
-695 -950 0
-696 -951 0
-694 -1303 0
-695 -1304 0
-696 -1305 0
-697 -787 0
-698 -788 0
-699 -789 0
-697 -841 0
-698 -842 0
-699 -843 0
-697 -1153 0
-698 -1154 0
-699 -1155 0
-697 -1330 0
-698 -1331 0
-699 -1332 0
-700 -835 0
-701 -836 0
-702 -837 0
-703 -754 0
-704 -755 0
-705 -756 0
-703 -889 0
-704 -890 0
-705 -891 0
-706 -781 0
-707 -782 0
-708 -783 0
-709 -784 0
-710 -785 0
-711 -786 0
-709 -982 0
-710 -983 0
-711 -984 0
-709 -1138 0
-710 -1139 0
-711 -1140 0
-709 -1471 0
-710 -1472 0
-711 -1473 0
-712 -1318 0
-713 -1319 0
-714 -1320 0
-715 -1027 0
-716 -1028 0
-717 -1029 0
-715 -1135 0
-716 -1136 0
-717 -1137 0
-715 -1246 0
-716 -1247 0
-717 -1248 0
-718 -1324 0
-719 -1325 0
-720 -1326 0
-721 -940 0
-722 -941 0
-723 -942 0
-721 -1000 0
-722 -1001 0
-723 -1002 0
-721 -1114 0
-722 -1115 0
-723 -1116 0
-721 -1261 0
-722 -1262 0
-723 -1263 0
-721 -1465 0
-722 -1466 0
-723 -1467 0
-724 -760 0
-725 -761 0
-726 -762 0
-724 -940 0
-725 -941 0
-726 -942 0
-724 -1177 0
-725 -1178 0
-726 -1179 0
-724 -1192 0
-725 -1193 0
-726 -1194 0
-724 -1378 0
-725 -1379 0
-726 -1380 0
-727 -886 0
-728 -887 0
-729 -888 0
-730 -817 0
-731 -818 0
-732 -819 0
-730 -1099 0
-731 -1100 0
-732 -1101 0
-730 -1327 0
-731 -1328 0
-732 -1329 0
-733 -1006 0
-734 -1007 0
-735 -1008 0
-733 -1156 0
-734 -1157 0
-735 -1158 0
-736 -853 0
-737 -854 0
-738 -855 0
-739 -982 0
-740 -983 0
-741 -984 0
-739 -1228 0
-740 -1229 0
-741 -1230 0
-742 -775 0
-743 -776 0
-744 -777 0
-745 -781 0
-746 -782 0
-747 -783 0
-745 -931 0
-746 -932 0
-747 -933 0
-745 -1270 0
-746 -1271 0
-747 -1272 0
-745 -1318 0
-746 -1319 0
-747 -1320 0
-745 -1402 0
-746 -1403 0
-747 -1404 0
-748 -1000 0
-749 -1001 0
-750 -1002 0
-748 -1093 0
-749 -1094 0
-750 -1095 0
-751 -1399 0
-752 -1400 0
-753 -1401 0
-751 -1477 0
-752 -1478 0
-753 -1479 0
-754 -862 0
-755 -863 0
-756 -864 0
-754 -982 0
-755 -983 0
-756 -984 0
-754 -988 0
-755 -989 0
-756 -990 0
-754 -1015 0
-755 -1016 0
-756 -1017 0
-757 -859 0
-758 -860 0
-759 -861 0
-757 -1105 0
-758 -1106 0
-759 -1107 0
-757 -1267 0
-758 -1268 0
-759 -1269 0
-757 -1276 0
-758 -1277 0
-759 -1278 0
-760 -910 0
-761 -911 0
-762 -912 0
-760 -982 0
-761 -983 0
-762 -984 0
-763 -1423 0
-764 -1424 0
-765 -1425 0
-766 -931 0
-767 -932 0
-768 -933 0
-766 -1180 0
-767 -1181 0
-768 -1182 0
-766 -1219 0
-767 -1220 0
-768 -1221 0
-766 -1246 0
-767 -1247 0
-768 -1248 0
-766 -1405 0
-767 -1406 0
-768 -1407 0
-769 -988 0
-770 -989 0
-771 -990 0
-769 -1282 0
-770 -1283 0
-771 -1284 0
-769 -1369 0
-770 -1370 0
-771 -1371 0
-769 -1435 0
-770 -1436 0
-771 -1437 0
-769 -1489 0
-770 -1490 0
-771 -1491 0
-772 -877 0
-773 -878 0
-774 -879 0
-772 -949 0
-773 -950 0
-774 -951 0
-772 -1165 0
-773 -1166 0
-774 -1167 0
-772 -1450 0
-773 -1451 0
-774 -1452 0
-775 -802 0
-776 -803 0
-777 -804 0
-775 -907 0
-776 -908 0
-777 -909 0
-775 -940 0
-776 -941 0
-777 -942 0
-775 -958 0
-776 -959 0
-777 -960 0
-775 -1096 0
-776 -1097 0
-777 -1098 0
-775 -1192 0
-776 -1193 0
-777 -1194 0
-778 -1318 0
-779 -1319 0
-780 -1320 0
-781 -823 0
-782 -824 0
-783 -825 0
-781 -931 0
-782 -932 0
-783 -933 0
-781 -1420 0
-782 -1421 0
-783 -1422 0
-781 -1429 0
-782 -1430 0
-783 -1431 0
-781 -1486 0
-782 -1487 0
-783 -1488 0
-784 -1030 0
-785 -1031 0
-786 -1032 0
-787 -949 0
-788 -950 0
-789 -951 0
-787 -1021 0
-788 -1022 0
-789 -1023 0
-787 -1093 0
-788 -1094 0
-789 -1095 0
-787 -1135 0
-788 -1136 0
-789 -1137 0
-787 -1288 0
-788 -1289 0
-789 -1290 0
-787 -1423 0
-788 -1424 0
-789 -1425 0
-790 -1306 0
-791 -1307 0
-792 -1308 0
-790 -1354 0
-791 -1355 0
-792 -1356 0
-793 -1171 0
-794 -1172 0
-795 -1173 0
-793 -1219 0
-794 -1220 0
-795 -1221 0
-793 -1246 0
-794 -1247 0
-795 -1248 0
-793 -1300 0
-794 -1301 0
-795 -1302 0
-793 -1330 0
-794 -1331 0
-795 -1332 0
-793 -1408 0
-794 -1409 0
-795 -1410 0
-796 -919 0
-797 -920 0
-798 -921 0
-799 -1102 0
-800 -1103 0
-801 -1104 0
-799 -1324 0
-800 -1325 0
-801 -1326 0
-802 -1141 0
-803 -1142 0
-804 -1143 0
-802 -1156 0
-803 -1157 0
-804 -1158 0
-808 -913 0
-809 -914 0
-810 -915 0
-808 -919 0
-809 -920 0
-810 -921 0
-808 -952 0
-809 -953 0
-810 -954 0
-808 -1486 0
-809 -1487 0
-810 -1488 0
-811 -943 0
-812 -944 0
-813 -945 0
-811 -1204 0
-812 -1205 0
-813 -1206 0
-811 -1423 0
-812 -1424 0
-813 -1425 0
-814 -943 0
-815 -944 0
-816 -945 0
-814 -1135 0
-815 -1136 0
-816 -1137 0
-814 -1207 0
-815 -1208 0
-816 -1209 0
-814 -1216 0
-815 -1217 0
-816 -1218 0
-817 -1366 0
-818 -1367 0
-819 -1368 0
-820 -1186 0
-821 -1187 0
-822 -1188 0
-823 -1051 0
-824 -1052 0
-825 -1053 0
-823 -1087 0
-824 -1088 0
-825 -1089 0
-826 -1270 0
-827 -1271 0
-828 -1272 0
-826 -1444 0
-827 -1445 0
-828 -1446 0
-829 -1186 0
-830 -1187 0
-831 -1188 0
-829 -1441 0
-830 -1442 0
-831 -1443 0
-832 -1057 0
-833 -1058 0
-834 -1059 0
-832 -1096 0
-833 -1097 0
-834 -1098 0
-832 -1147 0
-833 -1148 0
-834 -1149 0
-835 -1477 0
-836 -1478 0
-837 -1479 0
-841 -1012 0
-842 -1013 0
-843 -1014 0
-841 -1066 0
-842 -1067 0
-843 -1068 0
-841 -1330 0
-842 -1331 0
-843 -1332 0
-847 -1102 0
-848 -1103 0
-849 -1104 0
-850 -1396 0
-851 -1397 0
-852 -1398 0
-853 -1288 0
-854 -1289 0
-855 -1290 0
-853 -1483 0
-854 -1484 0
-855 -1485 0
-856 -1105 0
-857 -1106 0
-858 -1107 0
-856 -1465 0
-857 -1466 0
-858 -1467 0
-859 -1330 0
-860 -1331 0
-861 -1332 0
-862 -1066 0
-863 -1067 0
-864 -1068 0
-862 -1291 0
-863 -1292 0
-864 -1293 0
-865 -874 0
-866 -875 0
-867 -876 0
-865 -1174 0
-866 -1175 0
-867 -1176 0
-865 -1297 0
-866 -1298 0
-867 -1299 0
-868 -1087 0
-869 -1088 0
-870 -1089 0
-868 -1192 0
-869 -1193 0
-870 -1194 0
-868 -1210 0
-869 -1211 0
-870 -1212 0
-871 -1063 0
-872 -1064 0
-873 -1065 0
-874 -1363 0
-875 -1364 0
-876 -1365 0
-877 -1048 0
-878 -1049 0
-879 -1050 0
-877 -1468 0
-878 -1469 0
-879 -1470 0
-880 -964 0
-881 -965 0
-882 -966 0
-880 -1324 0
-881 -1325 0
-882 -1326 0
-880 -1369 0
-881 -1370 0
-882 -1371 0
-883 -949 0
-884 -950 0
-885 -951 0
-883 -1177 0
-884 -1178 0
-885 -1179 0
-883 -1468 0
-884 -1469 0
-885 -1470 0
-886 -1027 0
-887 -1028 0
-888 -1029 0
-886 -1225 0
-887 -1226 0
-888 -1227 0
-889 -1000 0
-890 -1001 0
-891 -1002 0
-892 -910 0
-893 -911 0
-894 -912 0
-892 -1096 0
-893 -1097 0
-894 -1098 0
-892 -1462 0
-893 -1463 0
-894 -1464 0
-895 -934 0
-896 -935 0
-897 -936 0
-895 -1144 0
-896 -1145 0
-897 -1146 0
-898 -1039 0
-899 -1040 0
-900 -1041 0
-898 -1135 0
-899 -1136 0
-900 -1137 0
-898 -1246 0
-899 -1247 0
-900 -1248 0
-898 -1348 0
-899 -1349 0
-900 -1350 0
-901 -1381 0
-902 -1382 0
-903 -1383 0
-904 -1153 0
-905 -1154 0
-906 -1155 0
-907 -1150 0
-908 -1151 0
-909 -1152 0
-907 -1267 0
-908 -1268 0
-909 -1269 0
-907 -1279 0
-908 -1280 0
-909 -1281 0
-910 -1165 0
-911 -1166 0
-912 -1167 0
-913 -1039 0
-914 -1040 0
-915 -1041 0
-913 -1279 0
-914 -1280 0
-915 -1281 0
-919 -1081 0
-920 -1082 0
-921 -1083 0
-922 -1084 0
-923 -1085 0
-924 -1086 0
-925 -1033 0
-926 -1034 0
-927 -1035 0
-925 -1333 0
-926 -1334 0
-927 -1335 0
-925 -1492 0
-926 -1493 0
-927 -1494 0
-931 -1288 0
-932 -1289 0
-933 -1290 0
-934 -1438 0
-935 -1439 0
-936 -1440 0
-937 -1126 0
-938 -1127 0
-939 -1128 0
-940 -1060 0
-941 -1061 0
-942 -1062 0
-943 -1024 0
-944 -1025 0
-945 -1026 0
-943 -1066 0
-944 -1067 0
-945 -1068 0
-946 -1198 0
-947 -1199 0
-948 -1200 0
-946 -1498 0
-947 -1499 0
-948 -1500 0
-952 -1018 0
-953 -1019 0
-954 -1020 0
-952 -1453 0
-953 -1454 0
-954 -1455 0
-955 -1000 0
-956 -1001 0
-957 -1002 0
-958 -982 0
-959 -983 0
-960 -984 0
-958 -1318 0
-959 -1319 0
-960 -1320 0
-961 -1099 0
-962 -1100 0
-963 -1101 0
-961 -1108 0
-962 -1109 0
-963 -1110 0
-964 -1003 0
-965 -1004 0
-966 -1005 0
-967 -1348 0
-968 -1349 0
-969 -1350 0
-970 -1021 0
-971 -1022 0
-972 -1023 0
-970 -1105 0
-971 -1106 0
-972 -1107 0
-970 -1228 0
-971 -1229 0
-972 -1230 0
-970 -1231 0
-971 -1232 0
-972 -1233 0
-970 -1492 0
-971 -1493 0
-972 -1494 0
-976 -1093 0
-977 -1094 0
-978 -1095 0
-976 -1294 0
-977 -1295 0
-978 -1296 0
-982 -1051 0
-983 -1052 0
-984 -1053 0
-982 -1099 0
-983 -1100 0
-984 -1101 0
-982 -1480 0
-983 -1481 0
-984 -1482 0
-985 -1204 0
-986 -1205 0
-987 -1206 0
-985 -1459 0
-986 -1460 0
-987 -1461 0
-988 -1171 0
-989 -1172 0
-990 -1173 0
-988 -1192 0
-989 -1193 0
-990 -1194 0
-988 -1378 0
-989 -1379 0
-990 -1380 0
-991 -1483 0
-992 -1484 0
-993 -1485 0
-994 -1483 0
-995 -1484 0
-996 -1485 0
-997 -1144 0
-998 -1145 0
-999 -1146 0
-997 -1288 0
-998 -1289 0
-999 -1290 0
-997 -1498 0
-998 -1499 0
-999 -1500 0
-1000 -1237 0
-1001 -1238 0
-1002 -1239 0
-1000 -1417 0
-1001 -1418 0
-1002 -1419 0
-1003 -1048 0
-1004 -1049 0
-1005 -1050 0
-1003 -1468 0
-1004 -1469 0
-1005 -1470 0
-1006 -1327 0
-1007 -1328 0
-1008 -1329 0
-1009 -1090 0
-1010 -1091 0
-1011 -1092 0
-1012 -1030 0
-1013 -1031 0
-1014 -1032 0
-1012 -1363 0
-1013 -1364 0
-1014 -1365 0
-1015 -1279 0
-1016 -1280 0
-1017 -1281 0
-1015 -1294 0
-1016 -1295 0
-1017 -1296 0
-1015 -1477 0
-1016 -1478 0
-1017 -1479 0
-1018 -1426 0
-1019 -1427 0
-1020 -1428 0
-1021 -1084 0
-1022 -1085 0
-1023 -1086 0
-1021 -1108 0
-1022 -1109 0
-1023 -1110 0
-1021 -1111 0
-1022 -1112 0
-1023 -1113 0
-1024 -1294 0
-1025 -1295 0
-1026 -1296 0
-1027 -1420 0
-1028 -1421 0
-1029 -1422 0
-1027 -1447 0
-1028 -1448 0
-1029 -1449 0
-1027 -1456 0
-1028 -1457 0
-1029 -1458 0
-1030 -1201 0
-1031 -1202 0
-1032 -1203 0
-1033 -1438 0
-1034 -1439 0
-1035 -1440 0
-1036 -1123 0
-1037 -1124 0
-1038 -1125 0
-1036 -1288 0
-1037 -1289 0
-1038 -1290 0
-1036 -1327 0
-1037 -1328 0
-1038 -1329 0
-1039 -1099 0
-1040 -1100 0
-1041 -1101 0
-1042 -1216 0
-1043 -1217 0
-1044 -1218 0
-1042 -1285 0
-1043 -1286 0
-1044 -1287 0
-1051 -1114 0
-1052 -1115 0
-1053 -1116 0
-1051 -1429 0
-1052 -1430 0
-1053 -1431 0
-1054 -1225 0
-1055 -1226 0
-1056 -1227 0
-1057 -1264 0
-1058 -1265 0
-1059 -1266 0
-1057 -1357 0
-1058 -1358 0
-1059 -1359 0
-1057 -1444 0
-1058 -1445 0
-1059 -1446 0
-1060 -1351 0
-1061 -1352 0
-1062 -1353 0
-1063 -1078 0
-1064 -1079 0
-1065 -1080 0
-1063 -1270 0
-1064 -1271 0
-1065 -1272 0
-1063 -1408 0
-1064 -1409 0
-1065 -1410 0
-1066 -1096 0
-1067 -1097 0
-1068 -1098 0
-1066 -1276 0
-1067 -1277 0
-1068 -1278 0
-1066 -1375 0
-1067 -1376 0
-1068 -1377 0
-1069 -1369 0
-1070 -1370 0
-1071 -1371 0
-1072 -1429 0
-1073 -1430 0
-1074 -1431 0
-1075 -1171 0
-1076 -1172 0
-1077 -1173 0
-1078 -1231 0
-1079 -1232 0
-1080 -1233 0
-1084 -1351 0
-1085 -1352 0
-1086 -1353 0
-1084 -1423 0
-1085 -1424 0
-1086 -1425 0
-1084 -1447 0
-1085 -1448 0
-1086 -1449 0
-1087 -1237 0
-1088 -1238 0
-1089 -1239 0
-1087 -1411 0
-1088 -1412 0
-1089 -1413 0
-1090 -1381 0
-1091 -1382 0
-1092 -1383 0
-1093 -1438 0
-1094 -1439 0
-1095 -1440 0
-1096 -1144 0
-1097 -1145 0
-1098 -1146 0
-1096 -1171 0
-1097 -1172 0
-1098 -1173 0
-1096 -1258 0
-1097 -1259 0
-1098 -1260 0
-1096 -1288 0
-1097 -1289 0
-1098 -1290 0
-1096 -1351 0
-1097 -1352 0
-1098 -1353 0
-1096 -1390 0
-1097 -1391 0
-1098 -1392 0
-1102 -1423 0
-1103 -1424 0
-1104 -1425 0
-1111 -1384 0
-1112 -1385 0
-1113 -1386 0
-1111 -1420 0
-1112 -1421 0
-1113 -1422 0
-1117 -1183 0
-1118 -1184 0
-1119 -1185 0
-1117 -1186 0
-1118 -1187 0
-1119 -1188 0
-1120 -1204 0
-1121 -1205 0
-1122 -1206 0
-1123 -1159 0
-1124 -1160 0
-1125 -1161 0
-1123 -1261 0
-1124 -1262 0
-1125 -1263 0
-1123 -1318 0
-1124 -1319 0
-1125 -1320 0
-1126 -1210 0
-1127 -1211 0
-1128 -1212 0
-1132 -1180 0
-1133 -1181 0
-1134 -1182 0
-1138 -1195 0
-1139 -1196 0
-1140 -1197 0
-1144 -1330 0
-1145 -1331 0
-1146 -1332 0
-1144 -1426 0
-1145 -1427 0
-1146 -1428 0
-1147 -1300 0
-1148 -1301 0
-1149 -1302 0
-1150 -1423 0
-1151 -1424 0
-1152 -1425 0
-1150 -1474 0
-1151 -1475 0
-1152 -1476 0
-1153 -1267 0
-1154 -1268 0
-1155 -1269 0
-1153 -1318 0
-1154 -1319 0
-1155 -1320 0
-1156 -1444 0
-1157 -1445 0
-1158 -1446 0
-1162 -1306 0
-1163 -1307 0
-1164 -1308 0
-1165 -1360 0
-1166 -1361 0
-1167 -1362 0
-1168 -1351 0
-1169 -1352 0
-1170 -1353 0
-1177 -1276 0
-1178 -1277 0
-1179 -1278 0
-1189 -1363 0
-1190 -1364 0
-1191 -1365 0
-1195 -1213 0
-1196 -1214 0
-1197 -1215 0
-1201 -1372 0
-1202 -1373 0
-1203 -1374 0
-1204 -1309 0
-1205 -1310 0
-1206 -1311 0
-1207 -1468 0
-1208 -1469 0
-1209 -1470 0
-1210 -1438 0
-1211 -1439 0
-1212 -1440 0
-1213 -1240 0
-1214 -1241 0
-1215 -1242 0
-1213 -1348 0
-1214 -1349 0
-1215 -1350 0
-1216 -1279 0
-1217 -1280 0
-1218 -1281 0
-1216 -1300 0
-1217 -1301 0
-1218 -1302 0
-1222 -1294 0
-1223 -1295 0
-1224 -1296 0
-1225 -1336 0
-1226 -1337 0
-1227 -1338 0
-1228 -1360 0
-1229 -1361 0
-1230 -1362 0
-1237 -1348 0
-1238 -1349 0
-1239 -1350 0
-1243 -1276 0
-1244 -1277 0
-1245 -1278 0
-1246 -1303 0
-1247 -1304 0
-1248 -1305 0
-1246 -1414 0
-1247 -1415 0
-1248 -1416 0
-1249 -1426 0
-1250 -1427 0
-1251 -1428 0
-1258 -1309 0
-1259 -1310 0
-1260 -1311 0
-1258 -1492 0
-1259 -1493 0
-1260 -1494 0
-1267 -1366 0
-1268 -1367 0
-1269 -1368 0
-1267 -1420 0
-1268 -1421 0
-1269 -1422 0
-1270 -1282 0
-1271 -1283 0
-1272 -1284 0
-1276 -1327 0
-1277 -1328 0
-1278 -1329 0
-1279 -1336 0
-1280 -1337 0
-1281 -1338 0
-1279 -1405 0
-1280 -1406 0
-1281 -1407 0
-1282 -1300 0
-1283 -1301 0
-1284 -1302 0
-1282 -1489 0
-1283 -1490 0
-1284 -1491 0
-1288 -1402 0
-1289 -1403 0
-1290 -1404 0
-1294 -1489 0
-1295 -1490 0
-1296 -1491 0
-1297 -1309 0
-1298 -1310 0
-1299 -1311 0
-1297 -1339 0
-1298 -1340 0
-1299 -1341 0
-1300 -1444 0
-1301 -1445 0
-1302 -1446 0
-1303 -1330 0
-1304 -1331 0
-1305 -1332 0
-1306 -1459 0
-1307 -1460 0
-1308 -1461 0
-1309 -1315 0
-1310 -1316 0
-1311 -1317 0
-1315 -1393 0
-1316 -1394 0
-1317 -1395 0
-1315 -1417 0
-1316 -1418 0
-1317 -1419 0
-1318 -1375 0
-1319 -1376 0
-1320 -1377 0
-1318 -1456 0
-1319 -1457 0
-1320 -1458 0
-1324 -1450 0
-1325 -1451 0
-1326 -1452 0
-1333 -1435 0
-1334 -1436 0
-1335 -1437 0
-1348 -1360 0
-1349 -1361 0
-1350 -1362 0
-1351 -1372 0
-1352 -1373 0
-1353 -1374 0
-1372 -1456 0
-1373 -1457 0
-1374 -1458 0
-1390 -1495 0
-1391 -1496 0
-1392 -1497 0
-1402 -1417 0
-1403 -1418 0
-1404 -1419 0
-1423 -1426 0
-1424 -1427 0
-1425 -1428 0
-1444 -1471 0
-1445 -1472 0
-1446 -1473 0
