p cnf 1500 5456
1 2 3 0
4 5 6 0
7 8 9 0
10 11 12 0
13 14 15 0
16 17 18 0
19 20 21 0
22 23 24 0
25 26 27 0
28 29 30 0
31 32 33 0
34 35 36 0
37 38 39 0
40 41 42 0
43 44 45 0
46 47 48 0
49 50 51 0
52 53 54 0
55 56 57 0
58 59 60 0
61 62 63 0
64 65 66 0
67 68 69 0
70 71 72 0
73 74 75 0
76 77 78 0
79 80 81 0
82 83 84 0
85 86 87 0
88 89 90 0
91 92 93 0
94 95 96 0
97 98 99 0
100 101 102 0
103 104 105 0
106 107 108 0
109 110 111 0
112 113 114 0
115 116 117 0
118 119 120 0
121 122 123 0
124 125 126 0
127 128 129 0
130 131 132 0
133 134 135 0
136 137 138 0
139 140 141 0
142 143 144 0
145 146 147 0
148 149 150 0
151 152 153 0
154 155 156 0
157 158 159 0
160 161 162 0
163 164 165 0
166 167 168 0
169 170 171 0
172 173 174 0
175 176 177 0
178 179 180 0
181 182 183 0
184 185 186 0
187 188 189 0
190 191 192 0
193 194 195 0
196 197 198 0
199 200 201 0
202 203 204 0
205 206 207 0
208 209 210 0
211 212 213 0
214 215 216 0
217 218 219 0
220 221 222 0
223 224 225 0
226 227 228 0
229 230 231 0
232 233 234 0
235 236 237 0
238 239 240 0
241 242 243 0
244 245 246 0
247 248 249 0
250 251 252 0
253 254 255 0
256 257 258 0
259 260 261 0
262 263 264 0
265 266 267 0
268 269 270 0
271 272 273 0
274 275 276 0
277 278 279 0
280 281 282 0
283 284 285 0
286 287 288 0
289 290 291 0
292 293 294 0
295 296 297 0
298 299 300 0
301 302 303 0
304 305 306 0
307 308 309 0
310 311 312 0
313 314 315 0
316 317 318 0
319 320 321 0
322 323 324 0
325 326 327 0
328 329 330 0
331 332 333 0
334 335 336 0
337 338 339 0
340 341 342 0
343 344 345 0
346 347 348 0
349 350 351 0
352 353 354 0
355 356 357 0
358 359 360 0
361 362 363 0
364 365 366 0
367 368 369 0
370 371 372 0
373 374 375 0
376 377 378 0
379 380 381 0
382 383 384 0
385 386 387 0
388 389 390 0
391 392 393 0
394 395 396 0
397 398 399 0
400 401 402 0
403 404 405 0
406 407 408 0
409 410 411 0
412 413 414 0
415 416 417 0
418 419 420 0
421 422 423 0
424 425 426 0
427 428 429 0
430 431 432 0
433 434 435 0
436 437 438 0
439 440 441 0
442 443 444 0
445 446 447 0
448 449 450 0
451 452 453 0
454 455 456 0
457 458 459 0
460 461 462 0
463 464 465 0
466 467 468 0
469 470 471 0
472 473 474 0
475 476 477 0
478 479 480 0
481 482 483 0
484 485 486 0
487 488 489 0
490 491 492 0
493 494 495 0
496 497 498 0
499 500 501 0
502 503 504 0
505 506 507 0
508 509 510 0
511 512 513 0
514 515 516 0
517 518 519 0
520 521 522 0
523 524 525 0
526 527 528 0
529 530 531 0
532 533 534 0
535 536 537 0
538 539 540 0
541 542 543 0
544 545 546 0
547 548 549 0
550 551 552 0
553 554 555 0
556 557 558 0
559 560 561 0
562 563 564 0
565 566 567 0
568 569 570 0
571 572 573 0
574 575 576 0
577 578 579 0
580 581 582 0
583 584 585 0
586 587 588 0
589 590 591 0
592 593 594 0
595 596 597 0
598 599 600 0
601 602 603 0
604 605 606 0
607 608 609 0
610 611 612 0
613 614 615 0
616 617 618 0
619 620 621 0
622 623 624 0
625 626 627 0
628 629 630 0
631 632 633 0
634 635 636 0
637 638 639 0
640 641 642 0
643 644 645 0
646 647 648 0
649 650 651 0
652 653 654 0
655 656 657 0
658 659 660 0
661 662 663 0
664 665 666 0
667 668 669 0
670 671 672 0
673 674 675 0
676 677 678 0
679 680 681 0
682 683 684 0
685 686 687 0
688 689 690 0
691 692 693 0
694 695 696 0
697 698 699 0
700 701 702 0
703 704 705 0
706 707 708 0
709 710 711 0
712 713 714 0
715 716 717 0
718 719 720 0
721 722 723 0
724 725 726 0
727 728 729 0
730 731 732 0
733 734 735 0
736 737 738 0
739 740 741 0
742 743 744 0
745 746 747 0
748 749 750 0
751 752 753 0
754 755 756 0
757 758 759 0
760 761 762 0
763 764 765 0
766 767 768 0
769 770 771 0
772 773 774 0
775 776 777 0
778 779 780 0
781 782 783 0
784 785 786 0
787 788 789 0
790 791 792 0
793 794 795 0
796 797 798 0
799 800 801 0
802 803 804 0
805 806 807 0
808 809 810 0
811 812 813 0
814 815 816 0
817 818 819 0
820 821 822 0
823 824 825 0
826 827 828 0
829 830 831 0
832 833 834 0
835 836 837 0
838 839 840 0
841 842 843 0
844 845 846 0
847 848 849 0
850 851 852 0
853 854 855 0
856 857 858 0
859 860 861 0
862 863 864 0
865 866 867 0
868 869 870 0
871 872 873 0
874 875 876 0
877 878 879 0
880 881 882 0
883 884 885 0
886 887 888 0
889 890 891 0
892 893 894 0
895 896 897 0
898 899 900 0
901 902 903 0
904 905 906 0
907 908 909 0
910 911 912 0
913 914 915 0
916 917 918 0
919 920 921 0
922 923 924 0
925 926 927 0
928 929 930 0
931 932 933 0
934 935 936 0
937 938 939 0
940 941 942 0
943 944 945 0
946 947 948 0
949 950 951 0
952 953 954 0
955 956 957 0
958 959 960 0
961 962 963 0
964 965 966 0
967 968 969 0
970 971 972 0
973 974 975 0
976 977 978 0
979 980 981 0
982 983 984 0
985 986 987 0
988 989 990 0
991 992 993 0
994 995 996 0
997 998 999 0
1000 1001 1002 0
1003 1004 1005 0
1006 1007 1008 0
1009 1010 1011 0
1012 1013 1014 0
1015 1016 1017 0
1018 1019 1020 0
1021 1022 1023 0
1024 1025 1026 0
1027 1028 1029 0
1030 1031 1032 0
1033 1034 1035 0
1036 1037 1038 0
1039 1040 1041 0
1042 1043 1044 0
1045 1046 1047 0
1048 1049 1050 0
1051 1052 1053 0
1054 1055 1056 0
1057 1058 1059 0
1060 1061 1062 0
1063 1064 1065 0
1066 1067 1068 0
1069 1070 1071 0
1072 1073 1074 0
1075 1076 1077 0
1078 1079 1080 0
1081 1082 1083 0
1084 1085 1086 0
1087 1088 1089 0
1090 1091 1092 0
1093 1094 1095 0
1096 1097 1098 0
1099 1100 1101 0
1102 1103 1104 0
1105 1106 1107 0
1108 1109 1110 0
1111 1112 1113 0
1114 1115 1116 0
1117 1118 1119 0
1120 1121 1122 0
1123 1124 1125 0
1126 1127 1128 0
1129 1130 1131 0
1132 1133 1134 0
1135 1136 1137 0
1138 1139 1140 0
1141 1142 1143 0
1144 1145 1146 0
1147 1148 1149 0
1150 1151 1152 0
1153 1154 1155 0
1156 1157 1158 0
1159 1160 1161 0
1162 1163 1164 0
1165 1166 1167 0
1168 1169 1170 0
1171 1172 1173 0
1174 1175 1176 0
1177 1178 1179 0
1180 1181 1182 0
1183 1184 1185 0
1186 1187 1188 0
1189 1190 1191 0
1192 1193 1194 0
1195 1196 1197 0
1198 1199 1200 0
1201 1202 1203 0
1204 1205 1206 0
1207 1208 1209 0
1210 1211 1212 0
1213 1214 1215 0
1216 1217 1218 0
1219 1220 1221 0
1222 1223 1224 0
1225 1226 1227 0
1228 1229 1230 0
1231 1232 1233 0
1234 1235 1236 0
1237 1238 1239 0
1240 1241 1242 0
1243 1244 1245 0
1246 1247 1248 0
1249 1250 1251 0
1252 1253 1254 0
1255 1256 1257 0
1258 1259 1260 0
1261 1262 1263 0
1264 1265 1266 0
1267 1268 1269 0
1270 1271 1272 0
1273 1274 1275 0
1276 1277 1278 0
1279 1280 1281 0
1282 1283 1284 0
1285 1286 1287 0
1288 1289 1290 0
1291 1292 1293 0
1294 1295 1296 0
1297 1298 1299 0
1300 1301 1302 0
1303 1304 1305 0
1306 1307 1308 0
1309 1310 1311 0
1312 1313 1314 0
1315 1316 1317 0
1318 1319 1320 0
1321 1322 1323 0
1324 1325 1326 0
1327 1328 1329 0
1330 1331 1332 0
1333 1334 1335 0
1336 1337 1338 0
1339 1340 1341 0
1342 1343 1344 0
1345 1346 1347 0
1348 1349 1350 0
1351 1352 1353 0
1354 1355 1356 0
1357 1358 1359 0
1360 1361 1362 0
1363 1364 1365 0
1366 1367 1368 0
1369 1370 1371 0
1372 1373 1374 0
1375 1376 1377 0
1378 1379 1380 0
1381 1382 1383 0
1384 1385 1386 0
1387 1388 1389 0
1390 1391 1392 0
1393 1394 1395 0
1396 1397 1398 0
1399 1400 1401 0
1402 1403 1404 0
1405 1406 1407 0
1408 1409 1410 0
1411 1412 1413 0
1414 1415 1416 0
1417 1418 1419 0
1420 1421 1422 0
1423 1424 1425 0
1426 1427 1428 0
1429 1430 1431 0
1432 1433 1434 0
1435 1436 1437 0
1438 1439 1440 0
1441 1442 1443 0
1444 1445 1446 0
1447 1448 1449 0
1450 1451 1452 0
1453 1454 1455 0
1456 1457 1458 0
1459 1460 1461 0
1462 1463 1464 0
1465 1466 1467 0
1468 1469 1470 0
1471 1472 1473 0
1474 1475 1476 0
1477 1478 1479 0
1480 1481 1482 0
1483 1484 1485 0
1486 1487 1488 0
1489 1490 1491 0
1492 1493 1494 0
1495 1496 1497 0
1498 1499 1500 0
-1 -2 0
-1 -3 0
-2 -3 0
-4 -5 0
-4 -6 0
-5 -6 0
-7 -8 0
-7 -9 0
-8 -9 0
-10 -11 0
-10 -12 0
-11 -12 0
-13 -14 0
-13 -15 0
-14 -15 0
-16 -17 0
-16 -18 0
-17 -18 0
-19 -20 0
-19 -21 0
-20 -21 0
-22 -23 0
-22 -24 0
-23 -24 0
-25 -26 0
-25 -27 0
-26 -27 0
-28 -29 0
-28 -30 0
-29 -30 0
-31 -32 0
-31 -33 0
-32 -33 0
-34 -35 0
-34 -36 0
-35 -36 0
-37 -38 0
-37 -39 0
-38 -39 0
-40 -41 0
-40 -42 0
-41 -42 0
-43 -44 0
-43 -45 0
-44 -45 0
-46 -47 0
-46 -48 0
-47 -48 0
-49 -50 0
-49 -51 0
-50 -51 0
-52 -53 0
-52 -54 0
-53 -54 0
-55 -56 0
-55 -57 0
-56 -57 0
-58 -59 0
-58 -60 0
-59 -60 0
-61 -62 0
-61 -63 0
-62 -63 0
-64 -65 0
-64 -66 0
-65 -66 0
-67 -68 0
-67 -69 0
-68 -69 0
-70 -71 0
-70 -72 0
-71 -72 0
-73 -74 0
-73 -75 0
-74 -75 0
-76 -77 0
-76 -78 0
-77 -78 0
-79 -80 0
-79 -81 0
-80 -81 0
-82 -83 0
-82 -84 0
-83 -84 0
-85 -86 0
-85 -87 0
-86 -87 0
-88 -89 0
-88 -90 0
-89 -90 0
-91 -92 0
-91 -93 0
-92 -93 0
-94 -95 0
-94 -96 0
-95 -96 0
-97 -98 0
-97 -99 0
-98 -99 0
-100 -101 0
-100 -102 0
-101 -102 0
-103 -104 0
-103 -105 0
-104 -105 0
-106 -107 0
-106 -108 0
-107 -108 0
-109 -110 0
-109 -111 0
-110 -111 0
-112 -113 0
-112 -114 0
-113 -114 0
-115 -116 0
-115 -117 0
-116 -117 0
-118 -119 0
-118 -120 0
-119 -120 0
-121 -122 0
-121 -123 0
-122 -123 0
-124 -125 0
-124 -126 0
-125 -126 0
-127 -128 0
-127 -129 0
-128 -129 0
-130 -131 0
-130 -132 0
-131 -132 0
-133 -134 0
-133 -135 0
-134 -135 0
-136 -137 0
-136 -138 0
-137 -138 0
-139 -140 0
-139 -141 0
-140 -141 0
-142 -143 0
-142 -144 0
-143 -144 0
-145 -146 0
-145 -147 0
-146 -147 0
-148 -149 0
-148 -150 0
-149 -150 0
-151 -152 0
-151 -153 0
-152 -153 0
-154 -155 0
-154 -156 0
-155 -156 0
-157 -158 0
-157 -159 0
-158 -159 0
-160 -161 0
-160 -162 0
-161 -162 0
-163 -164 0
-163 -165 0
-164 -165 0
-166 -167 0
-166 -168 0
-167 -168 0
-169 -170 0
-169 -171 0
-170 -171 0
-172 -173 0
-172 -174 0
-173 -174 0
-175 -176 0
-175 -177 0
-176 -177 0
-178 -179 0
-178 -180 0
-179 -180 0
-181 -182 0
-181 -183 0
-182 -183 0
-184 -185 0
-184 -186 0
-185 -186 0
-187 -188 0
-187 -189 0
-188 -189 0
-190 -191 0
-190 -192 0
-191 -192 0
-193 -194 0
-193 -195 0
-194 -195 0
-196 -197 0
-196 -198 0
-197 -198 0
-199 -200 0
-199 -201 0
-200 -201 0
-202 -203 0
-202 -204 0
-203 -204 0
-205 -206 0
-205 -207 0
-206 -207 0
-208 -209 0
-208 -210 0
-209 -210 0
-211 -212 0
-211 -213 0
-212 -213 0
-214 -215 0
-214 -216 0
-215 -216 0
-217 -218 0
-217 -219 0
-218 -219 0
-220 -221 0
-220 -222 0
-221 -222 0
-223 -224 0
-223 -225 0
-224 -225 0
-226 -227 0
-226 -228 0
-227 -228 0
-229 -230 0
-229 -231 0
-230 -231 0
-232 -233 0
-232 -234 0
-233 -234 0
-235 -236 0
-235 -237 0
-236 -237 0
-238 -239 0
-238 -240 0
-239 -240 0
-241 -242 0
-241 -243 0
-242 -243 0
-244 -245 0
-244 -246 0
-245 -246 0
-247 -248 0
-247 -249 0
-248 -249 0
-250 -251 0
-250 -252 0
-251 -252 0
-253 -254 0
-253 -255 0
-254 -255 0
-256 -257 0
-256 -258 0
-257 -258 0
-259 -260 0
-259 -261 0
-260 -261 0
-262 -263 0
-262 -264 0
-263 -264 0
-265 -266 0
-265 -267 0
-266 -267 0
-268 -269 0
-268 -270 0
-269 -270 0
-271 -272 0
-271 -273 0
-272 -273 0
-274 -275 0
-274 -276 0
-275 -276 0
-277 -278 0
-277 -279 0
-278 -279 0
-280 -281 0
-280 -282 0
-281 -282 0
-283 -284 0
-283 -285 0
-284 -285 0
-286 -287 0
-286 -288 0
-287 -288 0
-289 -290 0
-289 -291 0
-290 -291 0
-292 -293 0
-292 -294 0
-293 -294 0
-295 -296 0
-295 -297 0
-296 -297 0
-298 -299 0
-298 -300 0
-299 -300 0
-301 -302 0
-301 -303 0
-302 -303 0
-304 -305 0
-304 -306 0
-305 -306 0
-307 -308 0
-307 -309 0
-308 -309 0
-310 -311 0
-310 -312 0
-311 -312 0
-313 -314 0
-313 -315 0
-314 -315 0
-316 -317 0
-316 -318 0
-317 -318 0
-319 -320 0
-319 -321 0
-320 -321 0
-322 -323 0
-322 -324 0
-323 -324 0
-325 -326 0
-325 -327 0
-326 -327 0
-328 -329 0
-328 -330 0
-329 -330 0
-331 -332 0
-331 -333 0
-332 -333 0
-334 -335 0
-334 -336 0
-335 -336 0
-337 -338 0
-337 -339 0
-338 -339 0
-340 -341 0
-340 -342 0
-341 -342 0
-343 -344 0
-343 -345 0
-344 -345 0
-346 -347 0
-346 -348 0
-347 -348 0
-349 -350 0
-349 -351 0
-350 -351 0
-352 -353 0
-352 -354 0
-353 -354 0
-355 -356 0
-355 -357 0
-356 -357 0
-358 -359 0
-358 -360 0
-359 -360 0
-361 -362 0
-361 -363 0
-362 -363 0
-364 -365 0
-364 -366 0
-365 -366 0
-367 -368 0
-367 -369 0
-368 -369 0
-370 -371 0
-370 -372 0
-371 -372 0
-373 -374 0
-373 -375 0
-374 -375 0
-376 -377 0
-376 -378 0
-377 -378 0
-379 -380 0
-379 -381 0
-380 -381 0
-382 -383 0
-382 -384 0
-383 -384 0
-385 -386 0
-385 -387 0
-386 -387 0
-388 -389 0
-388 -390 0
-389 -390 0
-391 -392 0
-391 -393 0
-392 -393 0
-394 -395 0
-394 -396 0
-395 -396 0
-397 -398 0
-397 -399 0
-398 -399 0
-400 -401 0
-400 -402 0
-401 -402 0
-403 -404 0
-403 -405 0
-404 -405 0
-406 -407 0
-406 -408 0
-407 -408 0
-409 -410 0
-409 -411 0
-410 -411 0
-412 -413 0
-412 -414 0
-413 -414 0
-415 -416 0
-415 -417 0
-416 -417 0
-418 -419 0
-418 -420 0
-419 -420 0
-421 -422 0
-421 -423 0
-422 -423 0
-424 -425 0
-424 -426 0
-425 -426 0
-427 -428 0
-427 -429 0
-428 -429 0
-430 -431 0
-430 -432 0
-431 -432 0
-433 -434 0
-433 -435 0
-434 -435 0
-436 -437 0
-436 -438 0
-437 -438 0
-439 -440 0
-439 -441 0
-440 -441 0
-442 -443 0
-442 -444 0
-443 -444 0
-445 -446 0
-445 -447 0
-446 -447 0
-448 -449 0
-448 -450 0
-449 -450 0
-451 -452 0
-451 -453 0
-452 -453 0
-454 -455 0
-454 -456 0
-455 -456 0
-457 -458 0
-457 -459 0
-458 -459 0
-460 -461 0
-460 -462 0
-461 -462 0
-463 -464 0
-463 -465 0
-464 -465 0
-466 -467 0
-466 -468 0
-467 -468 0
-469 -470 0
-469 -471 0
-470 -471 0
-472 -473 0
-472 -474 0
-473 -474 0
-475 -476 0
-475 -477 0
-476 -477 0
-478 -479 0
-478 -480 0
-479 -480 0
-481 -482 0
-481 -483 0
-482 -483 0
-484 -485 0
-484 -486 0
-485 -486 0
-487 -488 0
-487 -489 0
-488 -489 0
-490 -491 0
-490 -492 0
-491 -492 0
-493 -494 0
-493 -495 0
-494 -495 0
-496 -497 0
-496 -498 0
-497 -498 0
-499 -500 0
-499 -501 0
-500 -501 0
-502 -503 0
-502 -504 0
-503 -504 0
-505 -506 0
-505 -507 0
-506 -507 0
-508 -509 0
-508 -510 0
-509 -510 0
-511 -512 0
-511 -513 0
-512 -513 0
-514 -515 0
-514 -516 0
-515 -516 0
-517 -518 0
-517 -519 0
-518 -519 0
-520 -521 0
-520 -522 0
-521 -522 0
-523 -524 0
-523 -525 0
-524 -525 0
-526 -527 0
-526 -528 0
-527 -528 0
-529 -530 0
-529 -531 0
-530 -531 0
-532 -533 0
-532 -534 0
-533 -534 0
-535 -536 0
-535 -537 0
-536 -537 0
-538 -539 0
-538 -540 0
-539 -540 0
-541 -542 0
-541 -543 0
-542 -543 0
-544 -545 0
-544 -546 0
-545 -546 0
-547 -548 0
-547 -549 0
-548 -549 0
-550 -551 0
-550 -552 0
-551 -552 0
-553 -554 0
-553 -555 0
-554 -555 0
-556 -557 0
-556 -558 0
-557 -558 0
-559 -560 0
-559 -561 0
-560 -561 0
-562 -563 0
-562 -564 0
-563 -564 0
-565 -566 0
-565 -567 0
-566 -567 0
-568 -569 0
-568 -570 0
-569 -570 0
-571 -572 0
-571 -573 0
-572 -573 0
-574 -575 0
-574 -576 0
-575 -576 0
-577 -578 0
-577 -579 0
-578 -579 0
-580 -581 0
-580 -582 0
-581 -582 0
-583 -584 0
-583 -585 0
-584 -585 0
-586 -587 0
-586 -588 0
-587 -588 0
-589 -590 0
-589 -591 0
-590 -591 0
-592 -593 0
-592 -594 0
-593 -594 0
-595 -596 0
-595 -597 0
-596 -597 0
-598 -599 0
-598 -600 0
-599 -600 0
-601 -602 0
-601 -603 0
-602 -603 0
-604 -605 0
-604 -606 0
-605 -606 0
-607 -608 0
-607 -609 0
-608 -609 0
-610 -611 0
-610 -612 0
-611 -612 0
-613 -614 0
-613 -615 0
-614 -615 0
-616 -617 0
-616 -618 0
-617 -618 0
-619 -620 0
-619 -621 0
-620 -621 0
-622 -623 0
-622 -624 0
-623 -624 0
-625 -626 0
-625 -627 0
-626 -627 0
-628 -629 0
-628 -630 0
-629 -630 0
-631 -632 0
-631 -633 0
-632 -633 0
-634 -635 0
-634 -636 0
-635 -636 0
-637 -638 0
-637 -639 0
-638 -639 0
-640 -641 0
-640 -642 0
-641 -642 0
-643 -644 0
-643 -645 0
-644 -645 0
-646 -647 0
-646 -648 0
-647 -648 0
-649 -650 0
-649 -651 0
-650 -651 0
-652 -653 0
-652 -654 0
-653 -654 0
-655 -656 0
-655 -657 0
-656 -657 0
-658 -659 0
-658 -660 0
-659 -660 0
-661 -662 0
-661 -663 0
-662 -663 0
-664 -665 0
-664 -666 0
-665 -666 0
-667 -668 0
-667 -669 0
-668 -669 0
-670 -671 0
-670 -672 0
-671 -672 0
-673 -674 0
-673 -675 0
-674 -675 0
-676 -677 0
-676 -678 0
-677 -678 0
-679 -680 0
-679 -681 0
-680 -681 0
-682 -683 0
-682 -684 0
-683 -684 0
-685 -686 0
-685 -687 0
-686 -687 0
-688 -689 0
-688 -690 0
-689 -690 0
-691 -692 0
-691 -693 0
-692 -693 0
-694 -695 0
-694 -696 0
-695 -696 0
-697 -698 0
-697 -699 0
-698 -699 0
-700 -701 0
-700 -702 0
-701 -702 0
-703 -704 0
-703 -705 0
-704 -705 0
-706 -707 0
-706 -708 0
-707 -708 0
-709 -710 0
-709 -711 0
-710 -711 0
-712 -713 0
-712 -714 0
-713 -714 0
-715 -716 0
-715 -717 0
-716 -717 0
-718 -719 0
-718 -720 0
-719 -720 0
-721 -722 0
-721 -723 0
-722 -723 0
-724 -725 0
-724 -726 0
-725 -726 0
-727 -728 0
-727 -729 0
-728 -729 0
-730 -731 0
-730 -732 0
-731 -732 0
-733 -734 0
-733 -735 0
-734 -735 0
-736 -737 0
-736 -738 0
-737 -738 0
-739 -740 0
-739 -741 0
-740 -741 0
-742 -743 0
-742 -744 0
-743 -744 0
-745 -746 0
-745 -747 0
-746 -747 0
-748 -749 0
-748 -750 0
-749 -750 0
-751 -752 0
-751 -753 0
-752 -753 0
-754 -755 0
-754 -756 0
-755 -756 0
-757 -758 0
-757 -759 0
-758 -759 0
-760 -761 0
-760 -762 0
-761 -762 0
-763 -764 0
-763 -765 0
-764 -765 0
-766 -767 0
-766 -768 0
-767 -768 0
-769 -770 0
-769 -771 0
-770 -771 0
-772 -773 0
-772 -774 0
-773 -774 0
-775 -776 0
-775 -777 0
-776 -777 0
-778 -779 0
-778 -780 0
-779 -780 0
-781 -782 0
-781 -783 0
-782 -783 0
-784 -785 0
-784 -786 0
-785 -786 0
-787 -788 0
-787 -789 0
-788 -789 0
-790 -791 0
-790 -792 0
-791 -792 0
-793 -794 0
-793 -795 0
-794 -795 0
-796 -797 0
-796 -798 0
-797 -798 0
-799 -800 0
-799 -801 0
-800 -801 0
-802 -803 0
-802 -804 0
-803 -804 0
-805 -806 0
-805 -807 0
-806 -807 0
-808 -809 0
-808 -810 0
-809 -810 0
-811 -812 0
-811 -813 0
-812 -813 0
-814 -815 0
-814 -816 0
-815 -816 0
-817 -818 0
-817 -819 0
-818 -819 0
-820 -821 0
-820 -822 0
-821 -822 0
-823 -824 0
-823 -825 0
-824 -825 0
-826 -827 0
-826 -828 0
-827 -828 0
-829 -830 0
-829 -831 0
-830 -831 0
-832 -833 0
-832 -834 0
-833 -834 0
-835 -836 0
-835 -837 0
-836 -837 0
-838 -839 0
-838 -840 0
-839 -840 0
-841 -842 0
-841 -843 0
-842 -843 0
-844 -845 0
-844 -846 0
-845 -846 0
-847 -848 0
-847 -849 0
-848 -849 0
-850 -851 0
-850 -852 0
-851 -852 0
-853 -854 0
-853 -855 0
-854 -855 0
-856 -857 0
-856 -858 0
-857 -858 0
-859 -860 0
-859 -861 0
-860 -861 0
-862 -863 0
-862 -864 0
-863 -864 0
-865 -866 0
-865 -867 0
-866 -867 0
-868 -869 0
-868 -870 0
-869 -870 0
-871 -872 0
-871 -873 0
-872 -873 0
-874 -875 0
-874 -876 0
-875 -876 0
-877 -878 0
-877 -879 0
-878 -879 0
-880 -881 0
-880 -882 0
-881 -882 0
-883 -884 0
-883 -885 0
-884 -885 0
-886 -887 0
-886 -888 0
-887 -888 0
-889 -890 0
-889 -891 0
-890 -891 0
-892 -893 0
-892 -894 0
-893 -894 0
-895 -896 0
-895 -897 0
-896 -897 0
-898 -899 0
-898 -900 0
-899 -900 0
-901 -902 0
-901 -903 0
-902 -903 0
-904 -905 0
-904 -906 0
-905 -906 0
-907 -908 0
-907 -909 0
-908 -909 0
-910 -911 0
-910 -912 0
-911 -912 0
-913 -914 0
-913 -915 0
-914 -915 0
-916 -917 0
-916 -918 0
-917 -918 0
-919 -920 0
-919 -921 0
-920 -921 0
-922 -923 0
-922 -924 0
-923 -924 0
-925 -926 0
-925 -927 0
-926 -927 0
-928 -929 0
-928 -930 0
-929 -930 0
-931 -932 0
-931 -933 0
-932 -933 0
-934 -935 0
-934 -936 0
-935 -936 0
-937 -938 0
-937 -939 0
-938 -939 0
-940 -941 0
-940 -942 0
-941 -942 0
-943 -944 0
-943 -945 0
-944 -945 0
-946 -947 0
-946 -948 0
-947 -948 0
-949 -950 0
-949 -951 0
-950 -951 0
-952 -953 0
-952 -954 0
-953 -954 0
-955 -956 0
-955 -957 0
-956 -957 0
-958 -959 0
-958 -960 0
-959 -960 0
-961 -962 0
-961 -963 0
-962 -963 0
-964 -965 0
-964 -966 0
-965 -966 0
-967 -968 0
-967 -969 0
-968 -969 0
-970 -971 0
-970 -972 0
-971 -972 0
-973 -974 0
-973 -975 0
-974 -975 0
-976 -977 0
-976 -978 0
-977 -978 0
-979 -980 0
-979 -981 0
-980 -981 0
-982 -983 0
-982 -984 0
-983 -984 0
-985 -986 0
-985 -987 0
-986 -987 0
-988 -989 0
-988 -990 0
-989 -990 0
-991 -992 0
-991 -993 0
-992 -993 0
-994 -995 0
-994 -996 0
-995 -996 0
-997 -998 0
-997 -999 0
-998 -999 0
-1000 -1001 0
-1000 -1002 0
-1001 -1002 0
-1003 -1004 0
-1003 -1005 0
-1004 -1005 0
-1006 -1007 0
-1006 -1008 0
-1007 -1008 0
-1009 -1010 0
-1009 -1011 0
-1010 -1011 0
-1012 -1013 0
-1012 -1014 0
-1013 -1014 0
-1015 -1016 0
-1015 -1017 0
-1016 -1017 0
-1018 -1019 0
-1018 -1020 0
-1019 -1020 0
-1021 -1022 0
-1021 -1023 0
-1022 -1023 0
-1024 -1025 0
-1024 -1026 0
-1025 -1026 0
-1027 -1028 0
-1027 -1029 0
-1028 -1029 0
-1030 -1031 0
-1030 -1032 0
-1031 -1032 0
-1033 -1034 0
-1033 -1035 0
-1034 -1035 0
-1036 -1037 0
-1036 -1038 0
-1037 -1038 0
-1039 -1040 0
-1039 -1041 0
-1040 -1041 0
-1042 -1043 0
-1042 -1044 0
-1043 -1044 0
-1045 -1046 0
-1045 -1047 0
-1046 -1047 0
-1048 -1049 0
-1048 -1050 0
-1049 -1050 0
-1051 -1052 0
-1051 -1053 0
-1052 -1053 0
-1054 -1055 0
-1054 -1056 0
-1055 -1056 0
-1057 -1058 0
-1057 -1059 0
-1058 -1059 0
-1060 -1061 0
-1060 -1062 0
-1061 -1062 0
-1063 -1064 0
-1063 -1065 0
-1064 -1065 0
-1066 -1067 0
-1066 -1068 0
-1067 -1068 0
-1069 -1070 0
-1069 -1071 0
-1070 -1071 0
-1072 -1073 0
-1072 -1074 0
-1073 -1074 0
-1075 -1076 0
-1075 -1077 0
-1076 -1077 0
-1078 -1079 0
-1078 -1080 0
-1079 -1080 0
-1081 -1082 0
-1081 -1083 0
-1082 -1083 0
-1084 -1085 0
-1084 -1086 0
-1085 -1086 0
-1087 -1088 0
-1087 -1089 0
-1088 -1089 0
-1090 -1091 0
-1090 -1092 0
-1091 -1092 0
-1093 -1094 0
-1093 -1095 0
-1094 -1095 0
-1096 -1097 0
-1096 -1098 0
-1097 -1098 0
-1099 -1100 0
-1099 -1101 0
-1100 -1101 0
-1102 -1103 0
-1102 -1104 0
-1103 -1104 0
-1105 -1106 0
-1105 -1107 0
-1106 -1107 0
-1108 -1109 0
-1108 -1110 0
-1109 -1110 0
-1111 -1112 0
-1111 -1113 0
-1112 -1113 0
-1114 -1115 0
-1114 -1116 0
-1115 -1116 0
-1117 -1118 0
-1117 -1119 0
-1118 -1119 0
-1120 -1121 0
-1120 -1122 0
-1121 -1122 0
-1123 -1124 0
-1123 -1125 0
-1124 -1125 0
-1126 -1127 0
-1126 -1128 0
-1127 -1128 0
-1129 -1130 0
-1129 -1131 0
-1130 -1131 0
-1132 -1133 0
-1132 -1134 0
-1133 -1134 0
-1135 -1136 0
-1135 -1137 0
-1136 -1137 0
-1138 -1139 0
-1138 -1140 0
-1139 -1140 0
-1141 -1142 0
-1141 -1143 0
-1142 -1143 0
-1144 -1145 0
-1144 -1146 0
-1145 -1146 0
-1147 -1148 0
-1147 -1149 0
-1148 -1149 0
-1150 -1151 0
-1150 -1152 0
-1151 -1152 0
-1153 -1154 0
-1153 -1155 0
-1154 -1155 0
-1156 -1157 0
-1156 -1158 0
-1157 -1158 0
-1159 -1160 0
-1159 -1161 0
-1160 -1161 0
-1162 -1163 0
-1162 -1164 0
-1163 -1164 0
-1165 -1166 0
-1165 -1167 0
-1166 -1167 0
-1168 -1169 0
-1168 -1170 0
-1169 -1170 0
-1171 -1172 0
-1171 -1173 0
-1172 -1173 0
-1174 -1175 0
-1174 -1176 0
-1175 -1176 0
-1177 -1178 0
-1177 -1179 0
-1178 -1179 0
-1180 -1181 0
-1180 -1182 0
-1181 -1182 0
-1183 -1184 0
-1183 -1185 0
-1184 -1185 0
-1186 -1187 0
-1186 -1188 0
-1187 -1188 0
-1189 -1190 0
-1189 -1191 0
-1190 -1191 0
-1192 -1193 0
-1192 -1194 0
-1193 -1194 0
-1195 -1196 0
-1195 -1197 0
-1196 -1197 0
-1198 -1199 0
-1198 -1200 0
-1199 -1200 0
-1201 -1202 0
-1201 -1203 0
-1202 -1203 0
-1204 -1205 0
-1204 -1206 0
-1205 -1206 0
-1207 -1208 0
-1207 -1209 0
-1208 -1209 0
-1210 -1211 0
-1210 -1212 0
-1211 -1212 0
-1213 -1214 0
-1213 -1215 0
-1214 -1215 0
-1216 -1217 0
-1216 -1218 0
-1217 -1218 0
-1219 -1220 0
-1219 -1221 0
-1220 -1221 0
-1222 -1223 0
-1222 -1224 0
-1223 -1224 0
-1225 -1226 0
-1225 -1227 0
-1226 -1227 0
-1228 -1229 0
-1228 -1230 0
-1229 -1230 0
-1231 -1232 0
-1231 -1233 0
-1232 -1233 0
-1234 -1235 0
-1234 -1236 0
-1235 -1236 0
-1237 -1238 0
-1237 -1239 0
-1238 -1239 0
-1240 -1241 0
-1240 -1242 0
-1241 -1242 0
-1243 -1244 0
-1243 -1245 0
-1244 -1245 0
-1246 -1247 0
-1246 -1248 0
-1247 -1248 0
-1249 -1250 0
-1249 -1251 0
-1250 -1251 0
-1252 -1253 0
-1252 -1254 0
-1253 -1254 0
-1255 -1256 0
-1255 -1257 0
-1256 -1257 0
-1258 -1259 0
-1258 -1260 0
-1259 -1260 0
-1261 -1262 0
-1261 -1263 0
-1262 -1263 0
-1264 -1265 0
-1264 -1266 0
-1265 -1266 0
-1267 -1268 0
-1267 -1269 0
-1268 -1269 0
-1270 -1271 0
-1270 -1272 0
-1271 -1272 0
-1273 -1274 0
-1273 -1275 0
-1274 -1275 0
-1276 -1277 0
-1276 -1278 0
-1277 -1278 0
-1279 -1280 0
-1279 -1281 0
-1280 -1281 0
-1282 -1283 0
-1282 -1284 0
-1283 -1284 0
-1285 -1286 0
-1285 -1287 0
-1286 -1287 0
-1288 -1289 0
-1288 -1290 0
-1289 -1290 0
-1291 -1292 0
-1291 -1293 0
-1292 -1293 0
-1294 -1295 0
-1294 -1296 0
-1295 -1296 0
-1297 -1298 0
-1297 -1299 0
-1298 -1299 0
-1300 -1301 0
-1300 -1302 0
-1301 -1302 0
-1303 -1304 0
-1303 -1305 0
-1304 -1305 0
-1306 -1307 0
-1306 -1308 0
-1307 -1308 0
-1309 -1310 0
-1309 -1311 0
-1310 -1311 0
-1312 -1313 0
-1312 -1314 0
-1313 -1314 0
-1315 -1316 0
-1315 -1317 0
-1316 -1317 0
-1318 -1319 0
-1318 -1320 0
-1319 -1320 0
-1321 -1322 0
-1321 -1323 0
-1322 -1323 0
-1324 -1325 0
-1324 -1326 0
-1325 -1326 0
-1327 -1328 0
-1327 -1329 0
-1328 -1329 0
-1330 -1331 0
-1330 -1332 0
-1331 -1332 0
-1333 -1334 0
-1333 -1335 0
-1334 -1335 0
-1336 -1337 0
-1336 -1338 0
-1337 -1338 0
-1339 -1340 0
-1339 -1341 0
-1340 -1341 0
-1342 -1343 0
-1342 -1344 0
-1343 -1344 0
-1345 -1346 0
-1345 -1347 0
-1346 -1347 0
-1348 -1349 0
-1348 -1350 0
-1349 -1350 0
-1351 -1352 0
-1351 -1353 0
-1352 -1353 0
-1354 -1355 0
-1354 -1356 0
-1355 -1356 0
-1357 -1358 0
-1357 -1359 0
-1358 -1359 0
-1360 -1361 0
-1360 -1362 0
-1361 -1362 0
-1363 -1364 0
-1363 -1365 0
-1364 -1365 0
-1366 -1367 0
-1366 -1368 0
-1367 -1368 0
-1369 -1370 0
-1369 -1371 0
-1370 -1371 0
-1372 -1373 0
-1372 -1374 0
-1373 -1374 0
-1375 -1376 0
-1375 -1377 0
-1376 -1377 0
-1378 -1379 0
-1378 -1380 0
-1379 -1380 0
-1381 -1382 0
-1381 -1383 0
-1382 -1383 0
-1384 -1385 0
-1384 -1386 0
-1385 -1386 0
-1387 -1388 0
-1387 -1389 0
-1388 -1389 0
-1390 -1391 0
-1390 -1392 0
-1391 -1392 0
-1393 -1394 0
-1393 -1395 0
-1394 -1395 0
-1396 -1397 0
-1396 -1398 0
-1397 -1398 0
-1399 -1400 0
-1399 -1401 0
-1400 -1401 0
-1402 -1403 0
-1402 -1404 0
-1403 -1404 0
-1405 -1406 0
-1405 -1407 0
-1406 -1407 0
-1408 -1409 0
-1408 -1410 0
-1409 -1410 0
-1411 -1412 0
-1411 -1413 0
-1412 -1413 0
-1414 -1415 0
-1414 -1416 0
-1415 -1416 0
-1417 -1418 0
-1417 -1419 0
-1418 -1419 0
-1420 -1421 0
-1420 -1422 0
-1421 -1422 0
-1423 -1424 0
-1423 -1425 0
-1424 -1425 0
-1426 -1427 0
-1426 -1428 0
-1427 -1428 0
-1429 -1430 0
-1429 -1431 0
-1430 -1431 0
-1432 -1433 0
-1432 -1434 0
-1433 -1434 0
-1435 -1436 0
-1435 -1437 0
-1436 -1437 0
-1438 -1439 0
-1438 -1440 0
-1439 -1440 0
-1441 -1442 0
-1441 -1443 0
-1442 -1443 0
-1444 -1445 0
-1444 -1446 0
-1445 -1446 0
-1447 -1448 0
-1447 -1449 0
-1448 -1449 0
-1450 -1451 0
-1450 -1452 0
-1451 -1452 0
-1453 -1454 0
-1453 -1455 0
-1454 -1455 0
-1456 -1457 0
-1456 -1458 0
-1457 -1458 0
-1459 -1460 0
-1459 -1461 0
-1460 -1461 0
-1462 -1463 0
-1462 -1464 0
-1463 -1464 0
-1465 -1466 0
-1465 -1467 0
-1466 -1467 0
-1468 -1469 0
-1468 -1470 0
-1469 -1470 0
-1471 -1472 0
-1471 -1473 0
-1472 -1473 0
-1474 -1475 0
-1474 -1476 0
-1475 -1476 0
-1477 -1478 0
-1477 -1479 0
-1478 -1479 0
-1480 -1481 0
-1480 -1482 0
-1481 -1482 0
-1483 -1484 0
-1483 -1485 0
-1484 -1485 0
-1486 -1487 0
-1486 -1488 0
-1487 -1488 0
-1489 -1490 0
-1489 -1491 0
-1490 -1491 0
-1492 -1493 0
-1492 -1494 0
-1493 -1494 0
-1495 -1496 0
-1495 -1497 0
-1496 -1497 0
-1498 -1499 0
-1498 -1500 0
-1499 -1500 0
-1 -223 0
-2 -224 0
-3 -225 0
-1 -604 0
-2 -605 0
-3 -606 0
-4 -250 0
-5 -251 0
-6 -252 0
-4 -820 0
-5 -821 0
-6 -822 0
-4 -1453 0
-5 -1454 0
-6 -1455 0
-7 -157 0
-8 -158 0
-9 -159 0
-7 -625 0
-8 -626 0
-9 -627 0
-7 -1069 0
-8 -1070 0
-9 -1071 0
-7 -1072 0
-8 -1073 0
-9 -1074 0
-7 -1207 0
-8 -1208 0
-9 -1209 0
-7 -1489 0
-8 -1490 0
-9 -1491 0
-10 -265 0
-11 -266 0
-12 -267 0
-10 -748 0
-11 -749 0
-12 -750 0
-10 -1021 0
-11 -1022 0
-12 -1023 0
-13 -304 0
-14 -305 0
-15 -306 0
-13 -1144 0
-14 -1145 0
-15 -1146 0
-13 -1372 0
-14 -1373 0
-15 -1374 0
-13 -1462 0
-14 -1463 0
-15 -1464 0
-16 -184 0
-17 -185 0
-18 -186 0
-19 -541 0
-20 -542 0
-21 -543 0
-19 -652 0
-20 -653 0
-21 -654 0
-19 -835 0
-20 -836 0
-21 -837 0
-19 -1051 0
-20 -1052 0
-21 -1053 0
-22 -64 0
-23 -65 0
-24 -66 0
-22 -79 0
-23 -80 0
-24 -81 0
-22 -211 0
-23 -212 0
-24 -213 0
-22 -925 0
-23 -926 0
-24 -927 0
-22 -1141 0
-23 -1142 0
-24 -1143 0
-22 -1444 0
-23 -1445 0
-24 -1446 0
-22 -1459 0
-23 -1460 0
-24 -1461 0
-25 -406 0
-26 -407 0
-27 -408 0
-25 -1159 0
-26 -1160 0
-27 -1161 0
-28 -136 0
-29 -137 0
-30 -138 0
-28 -634 0
-29 -635 0
-30 -636 0
-28 -682 0
-29 -683 0
-30 -684 0
-28 -970 0
-29 -971 0
-30 -972 0
-28 -1315 0
-29 -1316 0
-30 -1317 0
-28 -1492 0
-29 -1493 0
-30 -1494 0
-31 -136 0
-32 -137 0
-33 -138 0
-31 -394 0
-32 -395 0
-33 -396 0
-31 -436 0
-32 -437 0
-33 -438 0
-31 -439 0
-32 -440 0
-33 -441 0
-31 -490 0
-32 -491 0
-33 -492 0
-31 -748 0
-32 -749 0
-33 -750 0
-31 -1108 0
-32 -1109 0
-33 -1110 0
-31 -1162 0
-32 -1163 0
-33 -1164 0
-31 -1234 0
-32 -1235 0
-33 -1236 0
-34 -40 0
-35 -41 0
-36 -42 0
-34 -442 0
-35 -443 0
-36 -444 0
-34 -556 0
-35 -557 0
-36 -558 0
-37 -1342 0
-38 -1343 0
-39 -1344 0
-40 -100 0
-41 -101 0
-42 -102 0
-40 -625 0
-41 -626 0
-42 -627 0
-40 -628 0
-41 -629 0
-42 -630 0
-40 -703 0
-41 -704 0
-42 -705 0
-40 -733 0
-41 -734 0
-42 -735 0
-43 -478 0
-44 -479 0
-45 -480 0
-43 -547 0
-44 -548 0
-45 -549 0
-43 -1489 0
-44 -1490 0
-45 -1491 0
-46 -52 0
-47 -53 0
-48 -54 0
-46 -385 0
-47 -386 0
-48 -387 0
-46 -403 0
-47 -404 0
-48 -405 0
-46 -676 0
-47 -677 0
-48 -678 0
-46 -697 0
-47 -698 0
-48 -699 0
-46 -952 0
-47 -953 0
-48 -954 0
-46 -1297 0
-47 -1298 0
-48 -1299 0
-49 -484 0
-50 -485 0
-51 -486 0
-49 -589 0
-50 -590 0
-51 -591 0
-52 -373 0
-53 -374 0
-54 -375 0
-52 -1057 0
-53 -1058 0
-54 -1059 0
-52 -1132 0
-53 -1133 0
-54 -1134 0
-52 -1252 0
-53 -1253 0
-54 -1254 0
-52 -1381 0
-53 -1382 0
-54 -1383 0
-55 -295 0
-56 -296 0
-57 -297 0
-55 -322 0
-56 -323 0
-57 -324 0
-55 -373 0
-56 -374 0
-57 -375 0
-55 -427 0
-56 -428 0
-57 -429 0
-55 -607 0
-56 -608 0
-57 -609 0
-55 -670 0
-56 -671 0
-57 -672 0
-58 -121 0
-59 -122 0
-60 -123 0
-58 -205 0
-59 -206 0
-60 -207 0
-58 -481 0
-59 -482 0
-60 -483 0
-58 -517 0
-59 -518 0
-60 -519 0
-58 -727 0
-59 -728 0
-60 -729 0
-58 -1078 0
-59 -1079 0
-60 -1080 0
-61 -352 0
-62 -353 0
-63 -354 0
-61 -619 0
-62 -620 0
-63 -621 0
-61 -847 0
-62 -848 0
-63 -849 0
-61 -937 0
-62 -938 0
-63 -939 0
-61 -1231 0
-62 -1232 0
-63 -1233 0
-64 -430 0
-65 -431 0
-66 -432 0
-64 -688 0
-65 -689 0
-66 -690 0
-64 -949 0
-65 -950 0
-66 -951 0
-64 -1270 0
-65 -1271 0
-66 -1272 0
-64 -1285 0
-65 -1286 0
-66 -1287 0
-67 -73 0
-68 -74 0
-69 -75 0
-67 -1207 0
-68 -1208 0
-69 -1209 0
-67 -1219 0
-68 -1220 0
-69 -1221 0
-70 -496 0
-71 -497 0
-72 -498 0
-70 -1066 0
-71 -1067 0
-72 -1068 0
-70 -1390 0
-71 -1391 0
-72 -1392 0
-70 -1444 0
-71 -1445 0
-72 -1446 0
-73 -1183 0
-74 -1184 0
-75 -1185 0
-73 -1279 0
-74 -1280 0
-75 -1281 0
-76 -166 0
-77 -167 0
-78 -168 0
-76 -985 0
-77 -986 0
-78 -987 0
-76 -1051 0
-77 -1052 0
-78 -1053 0
-76 -1270 0
-77 -1271 0
-78 -1272 0
-76 -1429 0
-77 -1430 0
-78 -1431 0
-79 -436 0
-80 -437 0
-81 -438 0
-79 -466 0
-80 -467 0
-81 -468 0
-79 -544 0
-80 -545 0
-81 -546 0
-79 -553 0
-80 -554 0
-81 -555 0
-79 -586 0
-80 -587 0
-81 -588 0
-79 -1450 0
-80 -1451 0
-81 -1452 0
-79 -1480 0
-80 -1481 0
-81 -1482 0
-82 -88 0
-83 -89 0
-84 -90 0
-82 -1150 0
-83 -1151 0
-84 -1152 0
-82 -1246 0
-83 -1247 0
-84 -1248 0
-85 -292 0
-86 -293 0
-87 -294 0
-85 -739 0
-86 -740 0
-87 -741 0
-85 -784 0
-86 -785 0
-87 -786 0
-85 -874 0
-86 -875 0
-87 -876 0
-85 -1447 0
-86 -1448 0
-87 -1449 0
-88 -310 0
-89 -311 0
-90 -312 0
-88 -793 0
-89 -794 0
-90 -795 0
-88 -796 0
-89 -797 0
-90 -798 0
-91 -499 0
-92 -500 0
-93 -501 0
-91 -580 0
-92 -581 0
-93 -582 0
-91 -805 0
-92 -806 0
-93 -807 0
-94 -100 0
-95 -101 0
-96 -102 0
-94 -265 0
-95 -266 0
-96 -267 0
-94 -403 0
-95 -404 0
-96 -405 0
-94 -856 0
-95 -857 0
-96 -858 0
-97 -427 0
-98 -428 0
-99 -429 0
-97 -484 0
-98 -485 0
-99 -486 0
-97 -598 0
-98 -599 0
-99 -600 0
-97 -1096 0
-98 -1097 0
-99 -1098 0
-97 -1168 0
-98 -1169 0
-99 -1170 0
-97 -1402 0
-98 -1403 0
-99 -1404 0
-100 -166 0
-101 -167 0
-102 -168 0
-100 -307 0
-101 -308 0
-102 -309 0
-100 -628 0
-101 -629 0
-102 -630 0
-100 -808 0
-101 -809 0
-102 -810 0
-100 -1039 0
-101 -1040 0
-102 -1041 0
-100 -1354 0
-101 -1355 0
-102 -1356 0
-103 -709 0
-104 -710 0
-105 -711 0
-103 -1258 0
-104 -1259 0
-105 -1260 0
-106 -733 0
-107 -734 0
-108 -735 0
-109 -130 0
-110 -131 0
-111 -132 0
-109 -133 0
-110 -134 0
-111 -135 0
-109 -403 0
-110 -404 0
-111 -405 0
-109 -802 0
-110 -803 0
-111 -804 0
-109 -853 0
-110 -854 0
-111 -855 0
-109 -1426 0
-110 -1427 0
-111 -1428 0
-112 -157 0
-113 -158 0
-114 -159 0
-112 -448 0
-113 -449 0
-114 -450 0
-112 -568 0
-113 -569 0
-114 -570 0
-112 -1264 0
-113 -1265 0
-114 -1266 0
-115 -658 0
-116 -659 0
-117 -660 0
-115 -859 0
-116 -860 0
-117 -861 0
-115 -1111 0
-116 -1112 0
-117 -1113 0
-115 -1234 0
-116 -1235 0
-117 -1236 0
-115 -1306 0
-116 -1307 0
-117 -1308 0
-115 -1324 0
-116 -1325 0
-117 -1326 0
-118 -295 0
-119 -296 0
-120 -297 0
-118 -526 0
-119 -527 0
-120 -528 0
-118 -943 0
-119 -944 0
-120 -945 0
-118 -1399 0
-119 -1400 0
-120 -1401 0
-121 -322 0
-122 -323 0
-123 -324 0
-121 -448 0
-122 -449 0
-123 -450 0
-121 -760 0
-122 -761 0
-123 -762 0
-121 -808 0
-122 -809 0
-123 -810 0
-121 -898 0
-122 -899 0
-123 -900 0
-121 -1162 0
-122 -1163 0
-123 -1164 0
-121 -1270 0
-122 -1271 0
-123 -1272 0
-121 -1417 0
-122 -1418 0
-123 -1419 0
-121 -1465 0
-122 -1466 0
-123 -1467 0
-127 -406 0
-128 -407 0
-129 -408 0
-127 -1489 0
-128 -1490 0
-129 -1491 0
-130 -1207 0
-131 -1208 0
-132 -1209 0
-133 -262 0
-134 -263 0
-135 -264 0
-133 -490 0
-134 -491 0
-135 -492 0
-133 -733 0
-134 -734 0
-135 -735 0
-133 -976 0
-134 -977 0
-135 -978 0
-133 -1042 0
-134 -1043 0
-135 -1044 0
-136 -868 0
-137 -869 0
-138 -870 0
-139 -280 0
-140 -281 0
-141 -282 0
-139 -328 0
-140 -329 0
-141 -330 0
-139 -379 0
-140 -380 0
-141 -381 0
-139 -445 0
-140 -446 0
-141 -447 0
-139 -862 0
-140 -863 0
-141 -864 0
-139 -1054 0
-140 -1055 0
-141 -1056 0
-139 -1183 0
-140 -1184 0
-141 -1185 0
-139 -1327 0
-140 -1328 0
-141 -1329 0
-142 -259 0
-143 -260 0
-144 -261 0
-142 -985 0
-143 -986 0
-144 -987 0
-142 -1243 0
-143 -1244 0
-144 -1245 0
-145 -1336 0
-146 -1337 0
-147 -1338 0
-148 -577 0
-149 -578 0
-150 -579 0
-148 -997 0
-149 -998 0
-150 -999 0
-151 -415 0
-152 -416 0
-153 -417 0
-151 -1129 0
-152 -1130 0
-153 -1131 0
-154 -160 0
-155 -161 0
-156 -162 0
-154 -568 0
-155 -569 0
-156 -570 0
-154 -1357 0
-155 -1358 0
-156 -1359 0
-154 -1459 0
-155 -1460 0
-156 -1461 0
-157 -187 0
-158 -188 0
-159 -189 0
-157 -283 0
-158 -284 0
-159 -285 0
-157 -355 0
-158 -356 0
-159 -357 0
-157 -373 0
-158 -374 0
-159 -375 0
-157 -460 0
-158 -461 0
-159 -462 0
-157 -1360 0
-158 -1361 0
-159 -1362 0
-160 -208 0
-161 -209 0
-162 -210 0
-160 -211 0
-161 -212 0
-162 -213 0
-160 -706 0
-161 -707 0
-162 -708 0
-160 -904 0
-161 -905 0
-162 -906 0
-160 -1051 0
-161 -1052 0
-162 -1053 0
-160 -1189 0
-161 -1190 0
-162 -1191 0
-160 -1228 0
-161 -1229 0
-162 -1230 0
-160 -1231 0
-161 -1232 0
-162 -1233 0
-163 -367 0
-164 -368 0
-165 -369 0
-166 -172 0
-167 -173 0
-168 -174 0
-166 -898 0
-167 -899 0
-168 -900 0
-166 -1051 0
-167 -1052 0
-168 -1053 0
-166 -1141 0
-167 -1142 0
-168 -1143 0
-166 -1219 0
-167 -1220 0
-168 -1221 0
-166 -1243 0
-167 -1244 0
-168 -1245 0
-166 -1444 0
-167 -1445 0
-168 -1446 0
-169 -394 0
-170 -395 0
-171 -396 0
-169 -931 0
-170 -932 0
-171 -933 0
-169 -1066 0
-170 -1067 0
-171 -1068 0
-169 -1069 0
-170 -1070 0
-171 -1071 0
-172 -238 0
-173 -239 0
-174 -240 0
-172 -439 0
-173 -440 0
-174 -441 0
-175 -448 0
-176 -449 0
-177 -450 0
-175 -775 0
-176 -776 0
-177 -777 0
-175 -802 0
-176 -803 0
-177 -804 0
-175 -862 0
-176 -863 0
-177 -864 0
-175 -1234 0
-176 -1235 0
-177 -1236 0
-175 -1459 0
-176 -1460 0
-177 -1461 0
-175 -1492 0
-176 -1493 0
-177 -1494 0
-178 -451 0
-179 -452 0
-180 -453 0
-178 -460 0
-179 -461 0
-180 -462 0
-178 -757 0
-179 -758 0
-180 -759 0
-178 -1117 0
-179 -1118 0
-180 -1119 0
-178 -1180 0
-179 -1181 0
-180 -1182 0
-178 -1351 0
-179 -1352 0
-180 -1353 0
-181 -310 0
-182 -311 0
-183 -312 0
-181 -1240 0
-182 -1241 0
-183 -1242 0
-181 -1360 0
-182 -1361 0
-183 -1362 0
-181 -1465 0
-182 -1466 0
-183 -1467 0
-184 -1141 0
-185 -1142 0
-186 -1143 0
-184 -1492 0
-185 -1493 0
-186 -1494 0
-187 -394 0
-188 -395 0
-189 -396 0
-187 -445 0
-188 -446 0
-189 -447 0
-187 -1114 0
-188 -1115 0
-189 -1116 0
-190 -241 0
-191 -242 0
-192 -243 0
-190 -1045 0
-191 -1046 0
-192 -1047 0
-190 -1237 0
-191 -1238 0
-192 -1239 0
-193 -1189 0
-194 -1190 0
-195 -1191 0
-193 -1393 0
-194 -1394 0
-195 -1395 0
-196 -325 0
-197 -326 0
-198 -327 0
-196 -436 0
-197 -437 0
-198 -438 0
-196 -625 0
-197 -626 0
-198 -627 0
-196 -808 0
-197 -809 0
-198 -810 0
-196 -832 0
-197 -833 0
-198 -834 0
-196 -958 0
-197 -959 0
-198 -960 0
-196 -1291 0
-197 -1292 0
-198 -1293 0
-199 -685 0
-200 -686 0
-201 -687 0
-199 -1069 0
-200 -1070 0
-201 -1071 0
-199 -1291 0
-200 -1292 0
-201 -1293 0
-202 -292 0
-203 -293 0
-204 -294 0
-202 -844 0
-203 -845 0
-204 -846 0
-202 -1216 0
-203 -1217 0
-204 -1218 0
-202 -1276 0
-203 -1277 0
-204 -1278 0
-205 -802 0
-206 -803 0
-207 -804 0
-205 -1255 0
-206 -1256 0
-207 -1257 0
-208 -397 0
-209 -398 0
-210 -399 0
-208 -604 0
-209 -605 0
-210 -606 0
-208 -847 0
-209 -848 0
-210 -849 0
-208 -1480 0
-209 -1481 0
-210 -1482 0
-211 -817 0
-212 -818 0
-213 -819 0
-211 -910 0
-212 -911 0
-213 -912 0
-211 -1024 0
-212 -1025 0
-213 -1026 0
-211 -1210 0
-212 -1211 0
-213 -1212 0
-211 -1417 0
-212 -1418 0
-213 -1419 0
-214 -217 0
-215 -218 0
-216 -219 0
-214 -322 0
-215 -323 0
-216 -324 0
-214 -343 0
-215 -344 0
-216 -345 0
-214 -610 0
-215 -611 0
-216 -612 0
-217 -223 0
-218 -224 0
-219 -225 0
-217 -439 0
-218 -440 0
-219 -441 0
-217 -691 0
-218 -692 0
-219 -693 0
-217 -787 0
-218 -788 0
-219 -789 0
-217 -1195 0
-218 -1196 0
-219 -1197 0
-217 -1288 0
-218 -1289 0
-219 -1290 0
-220 -880 0
-221 -881 0
-222 -882 0
-220 -1405 0
-221 -1406 0
-222 -1407 0
-223 -568 0
-224 -569 0
-225 -570 0
-223 -928 0
-224 -929 0
-225 -930 0
-223 -955 0
-224 -956 0
-225 -957 0
-223 -979 0
-224 -980 0
-225 -981 0
-223 -1201 0
-224 -1202 0
-225 -1203 0
-223 -1213 0
-224 -1214 0
-225 -1215 0
-226 -460 0
-227 -461 0
-228 -462 0
-226 -772 0
-227 -773 0
-228 -774 0
-226 -940 0
-227 -941 0
-228 -942 0
-226 -1489 0
-227 -1490 0
-228 -1491 0
-229 -397 0
-230 -398 0
-231 -399 0
-229 -664 0
-230 -665 0
-231 -666 0
-229 -910 0
-230 -911 0
-231 -912 0
-229 -1006 0
-230 -1007 0
-231 -1008 0
-229 -1081 0
-230 -1082 0
-231 -1083 0
-232 -265 0
-233 -266 0
-234 -267 0
-232 -766 0
-233 -767 0
-234 -768 0
-232 -1366 0
-233 -1367 0
-234 -1368 0
-235 -703 0
-236 -704 0
-237 -705 0
-235 -892 0
-236 -893 0
-237 -894 0
-235 -1132 0
-236 -1133 0
-237 -1134 0
-235 -1495 0
-236 -1496 0
-237 -1497 0
-238 -241 0
-239 -242 0
-240 -243 0
-238 -451 0
-239 -452 0
-240 -453 0
-241 -295 0
-242 -296 0
-243 -297 0
-241 -688 0
-242 -689 0
-243 -690 0
-241 -742 0
-242 -743 0
-243 -744 0
-241 -1180 0
-242 -1181 0
-243 -1182 0
-244 -892 0
-245 -893 0
-246 -894 0
-244 -970 0
-245 -971 0
-246 -972 0
-244 -1201 0
-245 -1202 0
-246 -1203 0
-244 -1369 0
-245 -1370 0
-246 -1371 0
-247 -307 0
-248 -308 0
-249 -309 0
-247 -340 0
-248 -341 0
-249 -342 0
-247 -1054 0
-248 -1055 0
-249 -1056 0
-247 -1210 0
-248 -1211 0
-249 -1212 0
-247 -1489 0
-248 -1490 0
-249 -1491 0
-250 -334 0
-251 -335 0
-252 -336 0
-250 -949 0
-251 -950 0
-252 -951 0
-250 -1075 0
-251 -1076 0
-252 -1077 0
-250 -1222 0
-251 -1223 0
-252 -1224 0
-250 -1429 0
-251 -1430 0
-252 -1431 0
-253 -310 0
-254 -311 0
-255 -312 0
-253 -496 0
-254 -497 0
-255 -498 0
-253 -700 0
-254 -701 0
-255 -702 0
-253 -1036 0
-254 -1037 0
-255 -1038 0
-253 -1438 0
-254 -1439 0
-255 -1440 0
-256 -961 0
-257 -962 0
-258 -963 0
-256 -1144 0
-257 -1145 0
-258 -1146 0
-256 -1432 0
-257 -1433 0
-258 -1434 0
-259 -982 0
-260 -983 0
-261 -984 0
-259 -1003 0
-260 -1004 0
-261 -1005 0
-259 -1282 0
-260 -1283 0
-261 -1284 0
-259 -1366 0
-260 -1367 0
-261 -1368 0
-262 -877 0
-263 -878 0
-264 -879 0
-262 -907 0
-263 -908 0
-264 -909 0
-265 -277 0
-266 -278 0
-267 -279 0
-265 -1021 0
-266 -1022 0
-267 -1023 0
-268 -517 0
-269 -518 0
-270 -519 0
-268 -838 0
-269 -839 0
-270 -840 0
-268 -1273 0
-269 -1274 0
-270 -1275 0
-271 -400 0
-272 -401 0
-273 -402 0
-271 -514 0
-272 -515 0
-273 -516 0
-271 -601 0
-272 -602 0
-273 -603 0
-271 -916 0
-272 -917 0
-273 -918 0
-271 -1423 0
-272 -1424 0
-273 -1425 0
-271 -1474 0
-272 -1475 0
-273 -1476 0
-274 -388 0
-275 -389 0
-276 -390 0
-274 -799 0
-275 -800 0
-276 -801 0
-274 -1009 0
-275 -1010 0
-276 -1011 0
-274 -1018 0
-275 -1019 0
-276 -1020 0
-274 -1198 0
-275 -1199 0
-276 -1200 0
-274 -1414 0
-275 -1415 0
-276 -1416 0
-274 -1438 0
-275 -1439 0
-276 -1440 0
-277 -451 0
-278 -452 0
-279 -453 0
-277 -496 0
-278 -497 0
-279 -498 0
-277 -523 0
-278 -524 0
-279 -525 0
-277 -526 0
-278 -527 0
-279 -528 0
-277 -691 0
-278 -692 0
-279 -693 0
-277 -793 0
-278 -794 0
-279 -795 0
-277 -970 0
-278 -971 0
-279 -972 0
-277 -1096 0
-278 -1097 0
-279 -1098 0
-280 -601 0
-281 -602 0
-282 -603 0
-283 -526 0
-284 -527 0
-285 -528 0
-283 -964 0
-284 -965 0
-285 -966 0
-283 -1240 0
-284 -1241 0
-285 -1242 0
-286 -463 0
-287 -464 0
-288 -465 0
-286 -949 0
-287 -950 0
-288 -951 0
-289 -376 0
-290 -377 0
-291 -378 0
-289 -703 0
-290 -704 0
-291 -705 0
-289 -1021 0
-290 -1022 0
-291 -1023 0
-292 -331 0
-293 -332 0
-294 -333 0
-292 -535 0
-293 -536 0
-294 -537 0
-292 -577 0
-293 -578 0
-294 -579 0
-295 -661 0
-296 -662 0
-297 -663 0
-295 -1096 0
-296 -1097 0
-297 -1098 0
-295 -1378 0
-296 -1379 0
-297 -1380 0
-298 -604 0
-299 -605 0
-300 -606 0
-298 -718 0
-299 -719 0
-300 -720 0
-298 -784 0
-299 -785 0
-300 -786 0
-298 -832 0
-299 -833 0
-300 -834 0
-301 -367 0
-302 -368 0
-303 -369 0
-301 -787 0
-302 -788 0
-303 -789 0
-301 -850 0
-302 -851 0
-303 -852 0
-304 -868 0
-305 -869 0
-306 -870 0
-304 -1342 0
-305 -1343 0
-306 -1344 0
-304 -1408 0
-305 -1409 0
-306 -1410 0
-307 -517 0
-308 -518 0
-309 -519 0
-307 -862 0
-308 -863 0
-309 -864 0
-307 -880 0
-308 -881 0
-309 -882 0
-307 -901 0
-308 -902 0
-309 -903 0
-307 -982 0
-308 -983 0
-309 -984 0
-307 -991 0
-308 -992 0
-309 -993 0
-307 -1447 0
-308 -1448 0
-309 -1449 0
-313 -799 0
-314 -800 0
-315 -801 0
-313 -1294 0
-314 -1295 0
-315 -1296 0
-316 -919 0
-317 -920 0
-318 -921 0
-316 -949 0
-317 -950 0
-318 -951 0
-316 -967 0
-317 -968 0
-318 -969 0
-316 -1489 0
-317 -1490 0
-318 -1491 0
-319 -364 0
-320 -365 0
-321 -366 0
-319 -493 0
-320 -494 0
-321 -495 0
-319 -682 0
-320 -683 0
-321 -684 0
-319 -685 0
-320 -686 0
-321 -687 0
-319 -1174 0
-320 -1175 0
-321 -1176 0
-319 -1363 0
-320 -1364 0
-321 -1365 0
-322 -571 0
-323 -572 0
-324 -573 0
-325 -856 0
-326 -857 0
-327 -858 0
-325 -898 0
-326 -899 0
-327 -900 0
-325 -991 0
-326 -992 0
-327 -993 0
-325 -1039 0
-326 -1040 0
-327 -1041 0
-328 -346 0
-329 -347 0
-330 -348 0
-328 -841 0
-329 -842 0
-330 -843 0
-328 -1060 0
-329 -1061 0
-330 -1062 0
-328 -1216 0
-329 -1217 0
-330 -1218 0
-328 -1348 0
-329 -1349 0
-330 -1350 0
-331 -655 0
-332 -656 0
-333 -657 0
-331 -739 0
-332 -740 0
-333 -741 0
-331 -1234 0
-332 -1235 0
-333 -1236 0
-334 -379 0
-335 -380 0
-336 -381 0
-334 -574 0
-335 -575 0
-336 -576 0
-334 -805 0
-335 -806 0
-336 -807 0
-334 -844 0
-335 -845 0
-336 -846 0
-334 -928 0
-335 -929 0
-336 -930 0
-334 -1132 0
-335 -1133 0
-336 -1134 0
-334 -1441 0
-335 -1442 0
-336 -1443 0
-337 -469 0
-338 -470 0
-339 -471 0
-337 -943 0
-338 -944 0
-339 -945 0
-337 -1054 0
-338 -1055 0
-339 -1056 0
-337 -1189 0
-338 -1190 0
-339 -1191 0
-340 -1252 0
-341 -1253 0
-342 -1254 0
-340 -1255 0
-341 -1256 0
-342 -1257 0
-340 -1351 0
-341 -1352 0
-342 -1353 0
-343 -985 0
-344 -986 0
-345 -987 0
-346 -502 0
-347 -503 0
-348 -504 0
-346 -610 0
-347 -611 0
-348 -612 0
-346 -1441 0
-347 -1442 0
-348 -1443 0
-349 -547 0
-350 -548 0
-351 -549 0
-349 -1036 0
-350 -1037 0
-351 -1038 0
-349 -1198 0
-350 -1199 0
-351 -1200 0
-349 -1297 0
-350 -1298 0
-351 -1299 0
-349 -1342 0
-350 -1343 0
-351 -1344 0
-349 -1492 0
-350 -1493 0
-351 -1494 0
-352 -520 0
-353 -521 0
-354 -522 0
-352 -664 0
-353 -665 0
-354 -666 0
-352 -715 0
-353 -716 0
-354 -717 0
-352 -1330 0
-353 -1331 0
-354 -1332 0
-355 -430 0
-356 -431 0
-357 -432 0
-355 -457 0
-356 -458 0
-357 -459 0
-355 -694 0
-356 -695 0
-357 -696 0
-355 -1012 0
-356 -1013 0
-357 -1014 0
-355 -1108 0
-356 -1109 0
-357 -1110 0
-355 -1153 0
-356 -1154 0
-357 -1155 0
-355 -1231 0
-356 -1232 0
-357 -1233 0
-358 -373 0
-359 -374 0
-360 -375 0
-358 -580 0
-359 -581 0
-360 -582 0
-358 -1174 0
-359 -1175 0
-360 -1176 0
-358 -1213 0
-359 -1214 0
-360 -1215 0
-361 -844 0
-362 -845 0
-363 -846 0
-364 -700 0
-365 -701 0
-366 -702 0
-364 -886 0
-365 -887 0
-366 -888 0
-367 -886 0
-368 -887 0
-369 -888 0
-367 -1177 0
-368 -1178 0
-369 -1179 0
-370 -721 0
-371 -722 0
-372 -723 0
-370 -793 0
-371 -794 0
-372 -795 0
-370 -1465 0
-371 -1466 0
-372 -1467 0
-373 -592 0
-374 -593 0
-375 -594 0
-373 -598 0
-374 -599 0
-375 -600 0
-373 -1339 0
-374 -1340 0
-375 -1341 0
-373 -1423 0
-374 -1424 0
-375 -1425 0
-376 -685 0
-377 -686 0
-378 -687 0
-376 -808 0
-377 -809 0
-378 -810 0
-376 -1042 0
-377 -1043 0
-378 -1044 0
-379 -856 0
-380 -857 0
-381 -858 0
-379 -1237 0
-380 -1238 0
-381 -1239 0
-382 -463 0
-383 -464 0
-384 -465 0
-382 -886 0
-383 -887 0
-384 -888 0
-382 -1090 0
-383 -1091 0
-384 -1092 0
-382 -1186 0
-383 -1187 0
-384 -1188 0
-382 -1381 0
-383 -1382 0
-384 -1383 0
-385 -730 0
-386 -731 0
-387 -732 0
-385 -895 0
-386 -896 0
-387 -897 0
-388 -466 0
-389 -467 0
-390 -468 0
-388 -685 0
-389 -686 0
-390 -687 0
-388 -1264 0
-389 -1265 0
-390 -1266 0
-391 -823 0
-392 -824 0
-393 -825 0
-391 -1030 0
-392 -1031 0
-393 -1032 0
-391 -1111 0
-392 -1112 0
-393 -1113 0
-391 -1246 0
-392 -1247 0
-393 -1248 0
-394 -961 0
-395 -962 0
-396 -963 0
-394 -1471 0
-395 -1472 0
-396 -1473 0
-397 -652 0
-398 -653 0
-399 -654 0
-397 -658 0
-398 -659 0
-399 -660 0
-397 -682 0
-398 -683 0
-399 -684 0
-397 -913 0
-398 -914 0
-399 -915 0
-397 -946 0
-398 -947 0
-399 -948 0
-397 -1003 0
-398 -1004 0
-399 -1005 0
-397 -1045 0
-398 -1046 0
-399 -1047 0
-400 -667 0
-401 -668 0
-402 -669 0
-400 -775 0
-401 -776 0
-402 -777 0
-400 -1057 0
-401 -1058 0
-402 -1059 0
-403 -442 0
-404 -443 0
-405 -444 0
-403 -646 0
-404 -647 0
-405 -648 0
-403 -889 0
-404 -890 0
-405 -891 0
-403 -976 0
-404 -977 0
-405 -978 0
-403 -1180 0
-404 -1181 0
-405 -1182 0
-406 -448 0
-407 -449 0
-408 -450 0
-406 -520 0
-407 -521 0
-408 -522 0
-412 -592 0
-413 -593 0
-414 -594 0
-412 -922 0
-413 -923 0
-414 -924 0
-412 -1192 0
-413 -1193 0
-414 -1194 0
-415 -487 0
-416 -488 0
-417 -489 0
-415 -1123 0
-416 -1124 0
-417 -1125 0
-418 -562 0
-419 -563 0
-420 -564 0
-421 -910 0
-422 -911 0
-423 -912 0
-421 -1036 0
-422 -1037 0
-423 -1038 0
-421 -1162 0
-422 -1163 0
-423 -1164 0
-421 -1240 0
-422 -1241 0
-423 -1242 0
-421 -1345 0
-422 -1346 0
-423 -1347 0
-424 -694 0
-425 -695 0
-426 -696 0
-424 -1132 0
-425 -1133 0
-426 -1134 0
-424 -1450 0
-425 -1451 0
-426 -1452 0
-424 -1468 0
-425 -1469 0
-426 -1470 0
-427 -595 0
-428 -596 0
-429 -597 0
-427 -640 0
-428 -641 0
-429 -642 0
-427 -808 0
-428 -809 0
-429 -810 0
-427 -823 0
-428 -824 0
-429 -825 0
-430 -724 0
-431 -725 0
-432 -726 0
-430 -1174 0
-431 -1175 0
-432 -1176 0
-430 -1264 0
-431 -1265 0
-432 -1266 0
-430 -1411 0
-431 -1412 0
-432 -1413 0
-433 -505 0
-434 -506 0
-435 -507 0
-433 -556 0
-434 -557 0
-435 -558 0
-433 -895 0
-434 -896 0
-435 -897 0
-433 -1081 0
-434 -1082 0
-435 -1083 0
-433 -1261 0
-434 -1262 0
-435 -1263 0
-436 -754 0
-437 -755 0
-438 -756 0
-436 -880 0
-437 -881 0
-438 -882 0
-436 -919 0
-437 -920 0
-438 -921 0
-439 -562 0
-440 -563 0
-441 -564 0
-439 -781 0
-440 -782 0
-441 -783 0
-439 -865 0
-440 -866 0
-441 -867 0
-442 -532 0
-443 -533 0
-444 -534 0
-442 -586 0
-443 -587 0
-444 -588 0
-442 -841 0
-443 -842 0
-444 -843 0
-442 -1087 0
-443 -1088 0
-444 -1089 0
-442 -1399 0
-443 -1400 0
-444 -1401 0
-445 -1117 0
-446 -1118 0
-447 -1119 0
-445 -1309 0
-446 -1310 0
-447 -1311 0
-448 -823 0
-449 -824 0
-450 -825 0
-448 -1369 0
-449 -1370 0
-450 -1371 0
-451 -637 0
-452 -638 0
-453 -639 0
-451 -670 0
-452 -671 0
-453 -672 0
-451 -712 0
-452 -713 0
-453 -714 0
-451 -715 0
-452 -716 0
-453 -717 0
-451 -919 0
-452 -920 0
-453 -921 0
-454 -889 0
-455 -890 0
-456 -891 0
-454 -1060 0
-455 -1061 0
-456 -1062 0
-454 -1423 0
-455 -1424 0
-456 -1425 0
-457 -583 0
-458 -584 0
-459 -585 0
-457 -1240 0
-458 -1241 0
-459 -1242 0
-460 -757 0
-461 -758 0
-462 -759 0
-460 -892 0
-461 -893 0
-462 -894 0
-463 -544 0
-464 -545 0
-465 -546 0
-463 -841 0
-464 -842 0
-465 -843 0
-463 -844 0
-464 -845 0
-465 -846 0
-463 -934 0
-464 -935 0
-465 -936 0
-463 -1201 0
-464 -1202 0
-465 -1203 0
-466 -802 0
-467 -803 0
-468 -804 0
-469 -550 0
-470 -551 0
-471 -552 0
-469 -856 0
-470 -857 0
-471 -858 0
-469 -1096 0
-470 -1097 0
-471 -1098 0
-472 -919 0
-473 -920 0
-474 -921 0
-472 -967 0
-473 -968 0
-474 -969 0
-472 -1156 0
-473 -1157 0
-474 -1158 0
-475 -847 0
-476 -848 0
-477 -849 0
-475 -1201 0
-476 -1202 0
-477 -1203 0
-478 -634 0
-479 -635 0
-480 -636 0
-478 -1198 0
-479 -1199 0
-480 -1200 0
-481 -1099 0
-482 -1100 0
-483 -1101 0
-481 -1372 0
-482 -1373 0
-483 -1374 0
-484 -835 0
-485 -836 0
-486 -837 0
-484 -1006 0
-485 -1007 0
-486 -1008 0
-484 -1018 0
-485 -1019 0
-486 -1020 0
-484 -1189 0
-485 -1190 0
-486 -1191 0
-487 -772 0
-488 -773 0
-489 -774 0
-487 -1081 0
-488 -1082 0
-489 -1083 0
-487 -1195 0
-488 -1196 0
-489 -1197 0
-487 -1240 0
-488 -1241 0
-489 -1242 0
-490 -616 0
-491 -617 0
-492 -618 0
-490 -904 0
-491 -905 0
-492 -906 0
-490 -1447 0
-491 -1448 0
-492 -1449 0
-493 -601 0
-494 -602 0
-495 -603 0
-493 -796 0
-494 -797 0
-495 -798 0
-493 -883 0
-494 -884 0
-495 -885 0
-493 -1111 0
-494 -1112 0
-495 -1113 0
-493 -1189 0
-494 -1190 0
-495 -1191 0
-496 -1018 0
-497 -1019 0
-498 -1020 0
-499 -538 0
-500 -539 0
-501 -540 0
-502 -1414 0
-503 -1415 0
-504 -1416 0
-505 -574 0
-506 -575 0
-507 -576 0
-505 -715 0
-506 -716 0
-507 -717 0
-505 -904 0
-506 -905 0
-507 -906 0
-505 -1120 0
-506 -1121 0
-507 -1122 0
-505 -1228 0
-506 -1229 0
-507 -1230 0
-505 -1498 0
-506 -1499 0
-507 -1500 0
-508 -733 0
-509 -734 0
-510 -735 0
-508 -781 0
-509 -782 0
-510 -783 0
-508 -1060 0
-509 -1061 0
-510 -1062 0
-508 -1102 0
-509 -1103 0
-510 -1104 0
-508 -1279 0
-509 -1280 0
-510 -1281 0
-508 -1336 0
-509 -1337 0
-510 -1338 0
-511 -550 0
-512 -551 0
-513 -552 0
-511 -673 0
-512 -674 0
-513 -675 0
-511 -799 0
-512 -800 0
-513 -801 0
-511 -1069 0
-512 -1070 0
-513 -1071 0
-511 -1138 0
-512 -1139 0
-513 -1140 0
-511 -1264 0
-512 -1265 0
-513 -1266 0
-514 -1003 0
-515 -1004 0
-516 -1005 0
-517 -625 0
-518 -626 0
-519 -627 0
-517 -826 0
-518 -827 0
-519 -828 0
-517 -895 0
-518 -896 0
-519 -897 0
-517 -1456 0
-518 -1457 0
-519 -1458 0
-520 -589 0
-521 -590 0
-522 -591 0
-520 -1009 0
-521 -1010 0
-522 -1011 0
-520 -1150 0
-521 -1151 0
-522 -1152 0
-523 -757 0
-524 -758 0
-525 -759 0
-523 -1081 0
-524 -1082 0
-525 -1083 0
-523 -1177 0
-524 -1178 0
-525 -1179 0
-523 -1234 0
-524 -1235 0
-525 -1236 0
-523 -1387 0
-524 -1388 0
-525 -1389 0
-526 -1069 0
-527 -1070 0
-528 -1071 0
-526 -1108 0
-527 -1109 0
-528 -1110 0
-526 -1300 0
-527 -1301 0
-528 -1302 0
-526 -1387 0
-527 -1388 0
-528 -1389 0
-529 -595 0
-530 -596 0
-531 -597 0
-529 -775 0
-530 -776 0
-531 -777 0
-529 -1252 0
-530 -1253 0
-531 -1254 0
-532 -769 0
-533 -770 0
-534 -771 0
-532 -1051 0
-533 -1052 0
-534 -1053 0
-532 -1102 0
-533 -1103 0
-534 -1104 0
-532 -1255 0
-533 -1256 0
-534 -1257 0
-532 -1399 0
-533 -1400 0
-534 -1401 0
-532 -1492 0
-533 -1493 0
-534 -1494 0
-535 -775 0
-536 -776 0
-537 -777 0
-538 -595 0
-539 -596 0
-540 -597 0
-538 -601 0
-539 -602 0
-540 -603 0
-538 -631 0
-539 -632 0
-540 -633 0
-538 -670 0
-539 -671 0
-540 -672 0
-538 -811 0
-539 -812 0
-540 -813 0
-538 -820 0
-539 -821 0
-540 -822 0
-538 -850 0
-539 -851 0
-540 -852 0
-541 -1000 0
-542 -1001 0
-543 -1002 0
-541 -1195 0
-542 -1196 0
-543 -1197 0
-541 -1231 0
-542 -1232 0
-543 -1233 0
-541 -1279 0
-542 -1280 0
-543 -1281 0
-544 -709 0
-545 -710 0
-546 -711 0
-544 -1030 0
-545 -1031 0
-546 -1032 0
-547 -706 0
-548 -707 0
-549 -708 0
-547 -1084 0
-548 -1085 0
-549 -1086 0
-547 -1213 0
-548 -1214 0
-549 -1215 0
-547 -1483 0
-548 -1484 0
-549 -1485 0
-550 -718 0
-551 -719 0
-552 -720 0
-550 -781 0
-551 -782 0
-552 -783 0
-550 -868 0
-551 -869 0
-552 -870 0
-550 -1003 0
-551 -1004 0
-552 -1005 0
-553 -607 0
-554 -608 0
-555 -609 0
-553 -1348 0
-554 -1349 0
-555 -1350 0
-556 -745 0
-557 -746 0
-558 -747 0
-556 -829 0
-557 -830 0
-558 -831 0
-556 -856 0
-557 -857 0
-558 -858 0
-556 -994 0
-557 -995 0
-558 -996 0
-556 -1000 0
-557 -1001 0
-558 -1002 0
-556 -1414 0
-557 -1415 0
-558 -1416 0
-559 -1033 0
-560 -1034 0
-561 -1035 0
-559 -1360 0
-560 -1361 0
-561 -1362 0
-559 -1462 0
-560 -1463 0
-561 -1464 0
-562 -718 0
-563 -719 0
-564 -720 0
-565 -670 0
-566 -671 0
-567 -672 0
-568 -751 0
-569 -752 0
-570 -753 0
-568 -1237 0
-569 -1238 0
-570 -1239 0
-568 -1360 0
-569 -1361 0
-570 -1362 0
-568 -1372 0
-569 -1373 0
-570 -1374 0
-571 -1015 0
-572 -1016 0
-573 -1017 0
-571 -1162 0
-572 -1163 0
-573 -1164 0
-571 -1474 0
-572 -1475 0
-573 -1476 0
-574 -1276 0
-575 -1277 0
-576 -1278 0
-574 -1405 0
-575 -1406 0
-576 -1407 0
-574 -1480 0
-575 -1481 0
-576 -1482 0
-577 -1003 0
-578 -1004 0
-579 -1005 0
-577 -1342 0
-578 -1343 0
-579 -1344 0
-577 -1360 0
-578 -1361 0
-579 -1362 0
-580 -1204 0
-581 -1205 0
-582 -1206 0
-580 -1294 0
-581 -1295 0
-582 -1296 0
-583 -1030 0
-584 -1031 0
-585 -1032 0
-583 -1453 0
-584 -1454 0
-585 -1455 0
-583 -1477 0
-584 -1478 0
-585 -1479 0
-586 -1186 0
-587 -1187 0
-588 -1188 0
-586 -1198 0
-587 -1199 0
-588 -1200 0
-589 -649 0
-590 -650 0
-591 -651 0
-589 -1444 0
-590 -1445 0
-591 -1446 0
-589 -1465 0
-590 -1466 0
-591 -1467 0
-592 -835 0
-593 -836 0
-594 -837 0
-592 -1360 0
-593 -1361 0
-594 -1362 0
-595 -1069 0
-596 -1070 0
-597 -1071 0
-598 -769 0
-599 -770 0
-600 -771 0
-598 -844 0
-599 -845 0
-600 -846 0
-598 -859 0
-599 -860 0
-600 -861 0
-598 -874 0
-599 -875 0
-600 -876 0
-598 -1330 0
-599 -1331 0
-600 -1332 0
-598 -1402 0
-599 -1403 0
-600 -1404 0
-601 -793 0
-602 -794 0
-603 -795 0
-601 -883 0
-602 -884 0
-603 -885 0
-601 -1120 0
-602 -1121 0
-603 -1122 0
-601 -1165 0
-602 -1166 0
-603 -1167 0
-601 -1192 0
-602 -1193 0
-603 -1194 0
-604 -1141 0
-605 -1142 0
-606 -1143 0
-604 -1414 0
-605 -1415 0
-606 -1416 0
-607 -724 0
-608 -725 0
-609 -726 0
-607 -925 0
-608 -926 0
-609 -927 0
-607 -988 0
-608 -989 0
-609 -990 0
-607 -1030 0
-608 -1031 0
-609 -1032 0
-610 -826 0
-611 -827 0
-612 -828 0
-610 -886 0
-611 -887 0
-612 -888 0
-610 -1120 0
-611 -1121 0
-612 -1122 0
-610 -1369 0
-611 -1370 0
-612 -1371 0
-616 -820 0
-617 -821 0
-618 -822 0
-616 -1231 0
-617 -1232 0
-618 -1233 0
-616 -1396 0
-617 -1397 0
-618 -1398 0
-619 -643 0
-620 -644 0
-621 -645 0
-619 -1270 0
-620 -1271 0
-621 -1272 0
-622 -661 0
-623 -662 0
-624 -663 0
-622 -1057 0
-623 -1058 0
-624 -1059 0
-622 -1381 0
-623 -1382 0
-624 -1383 0
-625 -823 0
-626 -824 0
-627 -825 0
-628 -1087 0
-629 -1088 0
-630 -1089 0
-628 -1312 0
-629 -1313 0
-630 -1314 0
-628 -1438 0
-629 -1439 0
-630 -1440 0
-631 -1012 0
-632 -1013 0
-633 -1014 0
-631 -1315 0
-632 -1316 0
-633 -1317 0
-631 -1483 0
-632 -1484 0
-633 -1485 0
-634 -799 0
-635 -800 0
-636 -801 0
-634 -844 0
-635 -845 0
-636 -846 0
-634 -1249 0
-635 -1250 0
-636 -1251 0
-634 -1303 0
-635 -1304 0
-636 -1305 0
-634 -1489 0
-635 -1490 0
-636 -1491 0
-637 -931 0
-638 -932 0
-639 -933 0
-637 -1042 0
-638 -1043 0
-639 -1044 0
-637 -1354 0
-638 -1355 0
-639 -1356 0
-640 -805 0
-641 -806 0
-642 -807 0
-640 -895 0
-641 -896 0
-642 -897 0
-640 -913 0
-641 -914 0
-642 -915 0
-640 -1150 0
-641 -1151 0
-642 -1152 0
-643 -673 0
-644 -674 0
-645 -675 0
-643 -790 0
-644 -791 0
-645 -792 0
-643 -949 0
-644 -950 0
-645 -951 0
-646 -874 0
-647 -875 0
-648 -876 0
-646 -1012 0
-647 -1013 0
-648 -1014 0
-646 -1138 0
-647 -1139 0
-648 -1140 0
-649 -898 0
-650 -899 0
-651 -900 0
-649 -1222 0
-650 -1223 0
-651 -1224 0
-649 -1369 0
-650 -1370 0
-651 -1371 0
-652 -955 0
-653 -956 0
-654 -957 0
-655 -1030 0
-656 -1031 0
-657 -1032 0
-658 -919 0
-659 -920 0
-660 -921 0
-658 -1117 0
-659 -1118 0
-660 -1119 0
-661 -832 0
-662 -833 0
-663 -834 0
-661 -856 0
-662 -857 0
-663 -858 0
-661 -1336 0
-662 -1337 0
-663 -1338 0
-664 -1093 0
-665 -1094 0
-666 -1095 0
-667 -1030 0
-668 -1031 0
-669 -1032 0
-667 -1033 0
-668 -1034 0
-669 -1035 0
-667 -1111 0
-668 -1112 0
-669 -1113 0
-667 -1195 0
-668 -1196 0
-669 -1197 0
-667 -1303 0
-668 -1304 0
-669 -1305 0
-667 -1345 0
-668 -1346 0
-669 -1347 0
-670 -1138 0
-671 -1139 0
-672 -1140 0
-673 -757 0
-674 -758 0
-675 -759 0
-673 -781 0
-674 -782 0
-675 -783 0
-673 -835 0
-674 -836 0
-675 -837 0
-679 -988 0
-680 -989 0
-681 -990 0
-682 -883 0
-683 -884 0
-684 -885 0
-682 -1099 0
-683 -1100 0
-684 -1101 0
-682 -1378 0
-683 -1379 0
-684 -1380 0
-685 -919 0
-686 -920 0
-687 -921 0
-685 -1039 0
-686 -1040 0
-687 -1041 0
-685 -1300 0
-686 -1301 0
-687 -1302 0
-685 -1435 0
-686 -1436 0
-687 -1437 0
-688 -745 0
-689 -746 0
-690 -747 0
-688 -991 0
-689 -992 0
-690 -993 0
-688 -1072 0
-689 -1073 0
-690 -1074 0
-688 -1168 0
-689 -1169 0
-690 -1170 0
-688 -1474 0
-689 -1475 0
-690 -1476 0
-691 -925 0
-692 -926 0
-693 -927 0
-691 -997 0
-692 -998 0
-693 -999 0
-691 -1105 0
-692 -1106 0
-693 -1107 0
-691 -1480 0
-692 -1481 0
-693 -1482 0
-694 -772 0
-695 -773 0
-696 -774 0
-694 -1027 0
-695 -1028 0
-696 -1029 0
-694 -1093 0
-695 -1094 0
-696 -1095 0
-694 -1267 0
-695 -1268 0
-696 -1269 0
-697 -1024 0
-698 -1025 0
-699 -1026 0
-697 -1381 0
-698 -1382 0
-699 -1383 0
-700 -739 0
-701 -740 0
-702 -741 0
-700 -1039 0
-701 -1040 0
-702 -1041 0
-700 -1201 0
-701 -1202 0
-702 -1203 0
-703 -1498 0
-704 -1499 0
-705 -1500 0
-706 -1102 0
-707 -1103 0
-708 -1104 0
-706 -1348 0
-707 -1349 0
-708 -1350 0
-706 -1375 0
-707 -1376 0
-708 -1377 0
-706 -1426 0
-707 -1427 0
-708 -1428 0
-706 -1486 0
-707 -1487 0
-708 -1488 0
-709 -727 0
-710 -728 0
-711 -729 0
-709 -1075 0
-710 -1076 0
-711 -1077 0
-709 -1321 0
-710 -1322 0
-711 -1323 0
-712 -802 0
-713 -803 0
-714 -804 0
-712 -958 0
-713 -959 0
-714 -960 0
-712 -1015 0
-713 -1016 0
-714 -1017 0
-712 -1489 0
-713 -1490 0
-714 -1491 0
-715 -1003 0
-716 -1004 0
-717 -1005 0
-715 -1249 0
-716 -1250 0
-717 -1251 0
-715 -1366 0
-716 -1367 0
-717 -1368 0
-718 -1042 0
-719 -1043 0
-720 -1044 0
-718 -1060 0
-719 -1061 0
-720 -1062 0
-718 -1366 0
-719 -1367 0
-720 -1368 0
-721 -784 0
-722 -785 0
-723 -786 0
-721 -1084 0
-722 -1085 0
-723 -1086 0
-724 -1360 0
-725 -1361 0
-726 -1362 0
-724 -1384 0
-725 -1385 0
-726 -1386 0
-727 -796 0
-728 -797 0
-729 -798 0
-727 -850 0
-728 -851 0
-729 -852 0
-727 -1105 0
-728 -1106 0
-729 -1107 0
-727 -1153 0
-728 -1154 0
-729 -1155 0
-727 -1198 0
-728 -1199 0
-729 -1200 0
-727 -1423 0
-728 -1424 0
-729 -1425 0
-730 -1123 0
-731 -1124 0
-732 -1125 0
-733 -871 0
-734 -872 0
-735 -873 0
-736 -1306 0
-737 -1307 0
-738 -1308 0
-736 -1441 0
-737 -1442 0
-738 -1443 0
-736 -1444 0
-737 -1445 0
-738 -1446 0
-739 -745 0
-740 -746 0
-741 -747 0
-739 -1228 0
-740 -1229 0
-741 -1230 0
-742 -895 0
-743 -896 0
-744 -897 0
-742 -970 0
-743 -971 0
-744 -972 0
-742 -1123 0
-743 -1124 0
-744 -1125 0
-742 -1240 0
-743 -1241 0
-744 -1242 0
-742 -1480 0
-743 -1481 0
-744 -1482 0
-745 -1219 0
-746 -1220 0
-747 -1221 0
-751 -997 0
-752 -998 0
-753 -999 0
-751 -1264 0
-752 -1265 0
-753 -1266 0
-754 -760 0
-755 -761 0
-756 -762 0
-754 -856 0
-755 -857 0
-756 -858 0
-754 -1132 0
-755 -1133 0
-756 -1134 0
-754 -1147 0
-755 -1148 0
-756 -1149 0
-754 -1297 0
-755 -1298 0
-756 -1299 0
-754 -1369 0
-755 -1370 0
-756 -1371 0
-757 -793 0
-758 -794 0
-759 -795 0
-757 -1015 0
-758 -1016 0
-759 -1017 0
-757 -1483 0
-758 -1484 0
-759 -1485 0
-757 -1498 0
-758 -1499 0
-759 -1500 0
-760 -1054 0
-761 -1055 0
-762 -1056 0
-766 -976 0
-767 -977 0
-768 -978 0
-766 -1171 0
-767 -1172 0
-768 -1173 0
-769 -832 0
-770 -833 0
-771 -834 0
-769 -835 0
-770 -836 0
-771 -837 0
-769 -856 0
-770 -857 0
-771 -858 0
-769 -949 0
-770 -950 0
-771 -951 0
-769 -1207 0
-770 -1208 0
-771 -1209 0
-769 -1378 0
-770 -1379 0
-771 -1380 0
-769 -1495 0
-770 -1496 0
-771 -1497 0
-772 -946 0
-773 -947 0
-774 -948 0
-772 -1387 0
-773 -1388 0
-774 -1389 0
-778 -832 0
-779 -833 0
-780 -834 0
-778 -841 0
-779 -842 0
-780 -843 0
-778 -1369 0
-779 -1370 0
-780 -1371 0
-781 -928 0
-782 -929 0
-783 -930 0
-784 -1276 0
-785 -1277 0
-786 -1278 0
-784 -1462 0
-785 -1463 0
-786 -1464 0
-787 -1138 0
-788 -1139 0
-789 -1140 0
-787 -1342 0
-788 -1343 0
-789 -1344 0
-793 -913 0
-794 -914 0
-795 -915 0
-793 -1288 0
-794 -1289 0
-795 -1290 0
-796 -1261 0
-797 -1262 0
-798 -1263 0
-799 -844 0
-800 -845 0
-801 -846 0
-799 -1147 0
-800 -1148 0
-801 -1149 0
-802 -1279 0
-803 -1280 0
-804 -1281 0
-805 -916 0
-806 -917 0
-807 -918 0
-805 -1021 0
-806 -1022 0
-807 -1023 0
-808 -1075 0
-809 -1076 0
-810 -1077 0
-808 -1480 0
-809 -1481 0
-810 -1482 0
-814 -1282 0
-815 -1283 0
-816 -1284 0
-814 -1402 0
-815 -1403 0
-816 -1404 0
-817 -1147 0
-818 -1148 0
-819 -1149 0
-820 -1483 0
-821 -1484 0
-822 -1485 0
-823 -847 0
-824 -848 0
-825 -849 0
-823 -1396 0
-824 -1397 0
-825 -1398 0
-823 -1441 0
-824 -1442 0
-825 -1443 0
-826 -1366 0
-827 -1367 0
-828 -1368 0
-829 -1387 0
-830 -1388 0
-831 -1389 0
-832 -1213 0
-833 -1214 0
-834 -1215 0
-835 -940 0
-836 -941 0
-837 -942 0
-835 -1111 0
-836 -1112 0
-837 -1113 0
-835 -1309 0
-836 -1310 0
-837 -1311 0
-838 -1201 0
-839 -1202 0
-840 -1203 0
-844 -1237 0
-845 -1238 0
-846 -1239 0
-844 -1447 0
-845 -1448 0
-846 -1449 0
-847 -1123 0
-848 -1124 0
-849 -1125 0
-847 -1432 0
-848 -1433 0
-849 -1434 0
-850 -1006 0
-851 -1007 0
-852 -1008 0
-850 -1054 0
-851 -1055 0
-852 -1056 0
-850 -1309 0
-851 -1310 0
-852 -1311 0
-853 -856 0
-854 -857 0
-855 -858 0
-853 -1363 0
-854 -1364 0
-855 -1365 0
-853 -1402 0
-854 -1403 0
-855 -1404 0
-856 -922 0
-857 -923 0
-858 -924 0
-856 -1096 0
-857 -1097 0
-858 -1098 0
-856 -1456 0
-857 -1457 0
-858 -1458 0
-859 -1072 0
-860 -1073 0
-861 -1074 0
-859 -1078 0
-860 -1079 0
-861 -1080 0
-859 -1096 0
-860 -1097 0
-861 -1098 0
-859 -1252 0
-860 -1253 0
-861 -1254 0
-862 -1045 0
-863 -1046 0
-864 -1047 0
-862 -1138 0
-863 -1139 0
-864 -1140 0
-862 -1231 0
-863 -1232 0
-864 -1233 0
-862 -1372 0
-863 -1373 0
-864 -1374 0
-868 -883 0
-869 -884 0
-870 -885 0
-868 -1339 0
-869 -1340 0
-870 -1341 0
-868 -1447 0
-869 -1448 0
-870 -1449 0
-871 -1015 0
-872 -1016 0
-873 -1017 0
-874 -1072 0
-875 -1073 0
-876 -1074 0
-877 -901 0
-878 -902 0
-879 -903 0
-877 -952 0
-878 -953 0
-879 -954 0
-877 -1246 0
-878 -1247 0
-879 -1248 0
-880 -1336 0
-881 -1337 0
-882 -1338 0
-880 -1369 0
-881 -1370 0
-882 -1371 0
-883 -1375 0
-884 -1376 0
-885 -1377 0
-883 -1438 0
-884 -1439 0
-885 -1440 0
-889 -961 0
-890 -962 0
-891 -963 0
-889 -1492 0
-890 -1493 0
-891 -1494 0
-892 -1024 0
-893 -1025 0
-894 -1026 0
-892 -1429 0
-893 -1430 0
-894 -1431 0
-895 -919 0
-896 -920 0
-897 -921 0
-895 -1012 0
-896 -1013 0
-897 -1014 0
-895 -1072 0
-896 -1073 0
-897 -1074 0
-898 -1027 0
-899 -1028 0
-900 -1029 0
-898 -1120 0
-899 -1121 0
-900 -1122 0
-898 -1285 0
-899 -1286 0
-900 -1287 0
-901 -1357 0
-902 -1358 0
-903 -1359 0
-904 -958 0
-905 -959 0
-906 -960 0
-904 -1129 0
-905 -1130 0
-906 -1131 0
-904 -1174 0
-905 -1175 0
-906 -1176 0
-904 -1216 0
-905 -1217 0
-906 -1218 0
-904 -1393 0
-905 -1394 0
-906 -1395 0
-907 -1441 0
-908 -1442 0
-909 -1443 0
-913 -1300 0
-914 -1301 0
-915 -1302 0
-916 -1249 0
-917 -1250 0
-918 -1251 0
-919 -1285 0
-920 -1286 0
-921 -1287 0
-922 -1105 0
-923 -1106 0
-924 -1107 0
-922 -1198 0
-923 -1199 0
-924 -1200 0
-922 -1306 0
-923 -1307 0
-924 -1308 0
-922 -1477 0
-923 -1478 0
-924 -1479 0
-925 -1222 0
-926 -1223 0
-927 -1224 0
-925 -1273 0
-926 -1274 0
-927 -1275 0
-928 -934 0
-929 -935 0
-930 -936 0
-928 -1288 0
-929 -1289 0
-930 -1290 0
-928 -1318 0
-929 -1319 0
-930 -1320 0
-931 -1048 0
-932 -1049 0
-933 -1050 0
-934 -1384 0
-935 -1385 0
-936 -1386 0
-937 -952 0
-938 -953 0
-939 -954 0
-937 -1075 0
-938 -1076 0
-939 -1077 0
-937 -1297 0
-938 -1298 0
-939 -1299 0
-940 -1366 0
-941 -1367 0
-942 -1368 0
-943 -1204 0
-944 -1205 0
-945 -1206 0
-943 -1207 0
-944 -1208 0
-945 -1209 0
-946 -1312 0
-947 -1313 0
-948 -1314 0
-946 -1342 0
-947 -1343 0
-948 -1344 0
-949 -1294 0
-950 -1295 0
-951 -1296 0
-949 -1363 0
-950 -1364 0
-951 -1365 0
-952 -1471 0
-953 -1472 0
-954 -1473 0
-955 -1093 0
-956 -1094 0
-957 -1095 0
-955 -1270 0
-956 -1271 0
-957 -1272 0
-955 -1489 0
-956 -1490 0
-957 -1491 0
-958 -1369 0
-959 -1370 0
-960 -1371 0
-961 -1222 0
-962 -1223 0
-963 -1224 0
-961 -1306 0
-962 -1307 0
-963 -1308 0
-964 -1180 0
-965 -1181 0
-966 -1182 0
-964 -1300 0
-965 -1301 0
-966 -1302 0
-967 -991 0
-968 -992 0
-969 -993 0
-967 -1093 0
-968 -1094 0
-969 -1095 0
-967 -1384 0
-968 -1385 0
-969 -1386 0
-970 -1354 0
-971 -1355 0
-972 -1356 0
-970 -1456 0
-971 -1457 0
-972 -1458 0
-973 -1306 0
-974 -1307 0
-975 -1308 0
-976 -1204 0
-977 -1205 0
-978 -1206 0
-976 -1450 0
-977 -1451 0
-978 -1452 0
-979 -1081 0
-980 -1082 0
-981 -1083 0
-979 -1144 0
-980 -1145 0
-981 -1146 0
-982 -1387 0
-983 -1388 0
-984 -1389 0
-982 -1486 0
-983 -1487 0
-984 -1488 0
-985 -1027 0
-986 -1028 0
-987 -1029 0
-985 -1324 0
-986 -1325 0
-987 -1326 0
-985 -1435 0
-986 -1436 0
-987 -1437 0
-988 -1366 0
-989 -1367 0
-990 -1368 0
-991 -1042 0
-992 -1043 0
-993 -1044 0
-991 -1192 0
-992 -1193 0
-993 -1194 0
-991 -1204 0
-992 -1205 0
-993 -1206 0
-991 -1348 0
-992 -1349 0
-993 -1350 0
-994 -1249 0
-995 -1250 0
-996 -1251 0
-994 -1429 0
-995 -1430 0
-996 -1431 0
-997 -1159 0
-998 -1160 0
-999 -1161 0
-997 -1411 0
-998 -1412 0
-999 -1413 0
-1000 -1234 0
-1001 -1235 0
-1002 -1236 0
-1000 -1489 0
-1001 -1490 0
-1002 -1491 0
-1003 -1252 0
-1004 -1253 0
-1005 -1254 0
-1006 -1108 0
-1007 -1109 0
-1008 -1110 0
-1006 -1390 0
-1007 -1391 0
-1008 -1392 0
-1009 -1051 0
-1010 -1052 0
-1011 -1053 0
-1009 -1369 0
-1010 -1370 0
-1011 -1371 0
-1012 -1096 0
-1013 -1097 0
-1014 -1098 0
-1012 -1402 0
-1013 -1403 0
-1014 -1404 0
-1012 -1483 0
-1013 -1484 0
-1014 -1485 0
-1015 -1312 0
-1016 -1313 0
-1017 -1314 0
-1024 -1243 0
-1025 -1244 0
-1026 -1245 0
-1027 -1495 0
-1028 -1496 0
-1029 -1497 0
-1030 -1339 0
-1031 -1340 0
-1032 -1341 0
-1042 -1087 0
-1043 -1088 0
-1044 -1089 0
-1042 -1288 0
-1043 -1289 0
-1044 -1290 0
-1045 -1117 0
-1046 -1118 0
-1047 -1119 0
-1051 -1099 0
-1052 -1100 0
-1053 -1101 0
-1054 -1180 0
-1055 -1181 0
-1056 -1182 0
-1060 -1135 0
-1061 -1136 0
-1062 -1137 0
-1060 -1168 0
-1061 -1169 0
-1062 -1170 0
-1060 -1360 0
-1061 -1361 0
-1062 -1362 0
-1060 -1429 0
-1061 -1430 0
-1062 -1431 0
-1060 -1441 0
-1061 -1442 0
-1062 -1443 0
-1063 -1141 0
-1064 -1142 0
-1065 -1143 0
-1063 -1216 0
-1064 -1217 0
-1065 -1218 0
-1063 -1285 0
-1064 -1286 0
-1065 -1287 0
-1063 -1483 0
-1064 -1484 0
-1065 -1485 0
-1066 -1249 0
-1067 -1250 0
-1068 -1251 0
-1069 -1108 0
-1070 -1109 0
-1071 -1110 0
-1069 -1393 0
-1070 -1394 0
-1071 -1395 0
-1069 -1396 0
-1070 -1397 0
-1071 -1398 0
-1069 -1480 0
-1070 -1481 0
-1071 -1482 0
-1072 -1321 0
-1073 -1322 0
-1074 -1323 0
-1078 -1213 0
-1079 -1214 0
-1080 -1215 0
-1078 -1408 0
-1079 -1409 0
-1080 -1410 0
-1084 -1087 0
-1085 -1088 0
-1086 -1089 0
-1084 -1180 0
-1085 -1181 0
-1086 -1182 0
-1084 -1411 0
-1085 -1412 0
-1086 -1413 0
-1087 -1222 0
-1088 -1223 0
-1089 -1224 0
-1087 -1429 0
-1088 -1430 0
-1089 -1431 0
-1087 -1447 0
-1088 -1448 0
-1089 -1449 0
-1093 -1429 0
-1094 -1430 0
-1095 -1431 0
-1093 -1450 0
-1094 -1451 0
-1095 -1452 0
-1096 -1114 0
-1097 -1115 0
-1098 -1116 0
-1105 -1165 0
-1106 -1166 0
-1107 -1167 0
-1105 -1168 0
-1106 -1169 0
-1107 -1170 0
-1108 -1339 0
-1109 -1340 0
-1110 -1341 0
-1108 -1468 0
-1109 -1469 0
-1110 -1470 0
-1117 -1270 0
-1118 -1271 0
-1119 -1272 0
-1123 -1420 0
-1124 -1421 0
-1125 -1422 0
-1126 -1273 0
-1127 -1274 0
-1128 -1275 0
-1126 -1357 0
-1127 -1358 0
-1128 -1359 0
-1132 -1195 0
-1133 -1196 0
-1134 -1197 0
-1135 -1291 0
-1136 -1292 0
-1137 -1293 0
-1135 -1372 0
-1136 -1373 0
-1137 -1374 0
-1138 -1249 0
-1139 -1250 0
-1140 -1251 0
-1141 -1240 0
-1142 -1241 0
-1143 -1242 0
-1144 -1255 0
-1145 -1256 0
-1146 -1257 0
-1144 -1267 0
-1145 -1268 0
-1146 -1269 0
-1144 -1309 0
-1145 -1310 0
-1146 -1311 0
-1150 -1429 0
-1151 -1430 0
-1152 -1431 0
-1156 -1357 0
-1157 -1358 0
-1158 -1359 0
-1159 -1183 0
-1160 -1184 0
-1161 -1185 0
-1159 -1282 0
-1160 -1283 0
-1161 -1284 0
-1159 -1462 0
-1160 -1463 0
-1161 -1464 0
-1162 -1255 0
-1163 -1256 0
-1164 -1257 0
-1165 -1474 0
-1166 -1475 0
-1167 -1476 0
-1171 -1282 0
-1172 -1283 0
-1173 -1284 0
-1174 -1387 0
-1175 -1388 0
-1176 -1389 0
-1183 -1360 0
-1184 -1361 0
-1185 -1362 0
-1183 -1459 0
-1184 -1460 0
-1185 -1461 0
-1189 -1192 0
-1190 -1193 0
-1191 -1194 0
-1189 -1255 0
-1190 -1256 0
-1191 -1257 0
-1192 -1468 0
-1193 -1469 0
-1194 -1470 0
-1195 -1420 0
-1196 -1421 0
-1197 -1422 0
-1195 -1462 0
-1196 -1463 0
-1197 -1464 0
-1198 -1303 0
-1199 -1304 0
-1200 -1305 0
-1201 -1384 0
-1202 -1385 0
-1203 -1386 0
-1204 -1237 0
-1205 -1238 0
-1206 -1239 0
-1207 -1300 0
-1208 -1301 0
-1209 -1302 0
-1207 -1303 0
-1208 -1304 0
-1209 -1305 0
-1207 -1354 0
-1208 -1355 0
-1209 -1356 0
-1207 -1405 0
-1208 -1406 0
-1209 -1407 0
-1213 -1228 0
-1214 -1229 0
-1215 -1230 0
-1216 -1375 0
-1217 -1376 0
-1218 -1377 0
-1222 -1288 0
-1223 -1289 0
-1224 -1290 0
-1222 -1318 0
-1223 -1319 0
-1224 -1320 0
-1222 -1417 0
-1223 -1418 0
-1224 -1419 0
-1225 -1237 0
-1226 -1238 0
-1227 -1239 0
-1231 -1342 0
-1232 -1343 0
-1233 -1344 0
-1234 -1396 0
-1235 -1397 0
-1236 -1398 0
-1237 -1336 0
-1238 -1337 0
-1239 -1338 0
-1240 -1438 0
-1241 -1439 0
-1242 -1440 0
-1243 -1303 0
-1244 -1304 0
-1245 -1305 0
-1246 -1417 0
-1247 -1418 0
-1248 -1419 0
-1246 -1432 0
-1247 -1433 0
-1248 -1434 0
-1258 -1423 0
-1259 -1424 0
-1260 -1425 0
-1264 -1393 0
-1265 -1394 0
-1266 -1395 0
-1273 -1345 0
-1274 -1346 0
-1275 -1347 0
-1279 -1354 0
-1280 -1355 0
-1281 -1356 0
-1282 -1414 0
-1283 -1415 0
-1284 -1416 0
-1288 -1483 0
-1289 -1484 0
-1290 -1485 0
-1291 -1351 0
-1292 -1352 0
-1293 -1353 0
-1306 -1483 0
-1307 -1484 0
-1308 -1485 0
-1315 -1405 0
-1316 -1406 0
-1317 -1407 0
-1315 -1462 0
-1316 -1463 0
-1317 -1464 0
-1318 -1405 0
-1319 -1406 0
-1320 -1407 0
-1324 -1414 0
-1325 -1415 0
-1326 -1416 0
-1324 -1492 0
-1325 -1493 0
-1326 -1494 0
-1336 -1423 0
-1337 -1424 0
-1338 -1425 0
-1342 -1408 0
-1343 -1409 0
-1344 -1410 0
-1345 -1459 0
-1346 -1460 0
-1347 -1461 0
-1345 -1489 0
-1346 -1490 0
-1347 -1491 0
-1348 -1414 0
-1349 -1415 0
-1350 -1416 0
-1360 -1483 0
-1361 -1484 0
-1362 -1485 0
-1369 -1486 0
-1370 -1487 0
-1371 -1488 0
-1381 -1486 0
-1382 -1487 0
-1383 -1488 0
-1399 -1450 0
-1400 -1451 0
-1401 -1452 0
-1420 -1486 0
-1421 -1487 0
-1422 -1488 0
-1441 -1474 0
-1442 -1475 0
-1443 -1476 0
-1459 -1474 0
-1460 -1475 0
-1461 -1476 0
