p cnf 1500 5579
1 2 3 0
4 5 6 0
7 8 9 0
10 11 12 0
13 14 15 0
16 17 18 0
19 20 21 0
22 23 24 0
25 26 27 0
28 29 30 0
31 32 33 0
34 35 36 0
37 38 39 0
40 41 42 0
43 44 45 0
46 47 48 0
49 50 51 0
52 53 54 0
55 56 57 0
58 59 60 0
61 62 63 0
64 65 66 0
67 68 69 0
70 71 72 0
73 74 75 0
76 77 78 0
79 80 81 0
82 83 84 0
85 86 87 0
88 89 90 0
91 92 93 0
94 95 96 0
97 98 99 0
100 101 102 0
103 104 105 0
106 107 108 0
109 110 111 0
112 113 114 0
115 116 117 0
118 119 120 0
121 122 123 0
124 125 126 0
127 128 129 0
130 131 132 0
133 134 135 0
136 137 138 0
139 140 141 0
142 143 144 0
145 146 147 0
148 149 150 0
151 152 153 0
154 155 156 0
157 158 159 0
160 161 162 0
163 164 165 0
166 167 168 0
169 170 171 0
172 173 174 0
175 176 177 0
178 179 180 0
181 182 183 0
184 185 186 0
187 188 189 0
190 191 192 0
193 194 195 0
196 197 198 0
199 200 201 0
202 203 204 0
205 206 207 0
208 209 210 0
211 212 213 0
214 215 216 0
217 218 219 0
220 221 222 0
223 224 225 0
226 227 228 0
229 230 231 0
232 233 234 0
235 236 237 0
238 239 240 0
241 242 243 0
244 245 246 0
247 248 249 0
250 251 252 0
253 254 255 0
256 257 258 0
259 260 261 0
262 263 264 0
265 266 267 0
268 269 270 0
271 272 273 0
274 275 276 0
277 278 279 0
280 281 282 0
283 284 285 0
286 287 288 0
289 290 291 0
292 293 294 0
295 296 297 0
298 299 300 0
301 302 303 0
304 305 306 0
307 308 309 0
310 311 312 0
313 314 315 0
316 317 318 0
319 320 321 0
322 323 324 0
325 326 327 0
328 329 330 0
331 332 333 0
334 335 336 0
337 338 339 0
340 341 342 0
343 344 345 0
346 347 348 0
349 350 351 0
352 353 354 0
355 356 357 0
358 359 360 0
361 362 363 0
364 365 366 0
367 368 369 0
370 371 372 0
373 374 375 0
376 377 378 0
379 380 381 0
382 383 384 0
385 386 387 0
388 389 390 0
391 392 393 0
394 395 396 0
397 398 399 0
400 401 402 0
403 404 405 0
406 407 408 0
409 410 411 0
412 413 414 0
415 416 417 0
418 419 420 0
421 422 423 0
424 425 426 0
427 428 429 0
430 431 432 0
433 434 435 0
436 437 438 0
439 440 441 0
442 443 444 0
445 446 447 0
448 449 450 0
451 452 453 0
454 455 456 0
457 458 459 0
460 461 462 0
463 464 465 0
466 467 468 0
469 470 471 0
472 473 474 0
475 476 477 0
478 479 480 0
481 482 483 0
484 485 486 0
487 488 489 0
490 491 492 0
493 494 495 0
496 497 498 0
499 500 501 0
502 503 504 0
505 506 507 0
508 509 510 0
511 512 513 0
514 515 516 0
517 518 519 0
520 521 522 0
523 524 525 0
526 527 528 0
529 530 531 0
532 533 534 0
535 536 537 0
538 539 540 0
541 542 543 0
544 545 546 0
547 548 549 0
550 551 552 0
553 554 555 0
556 557 558 0
559 560 561 0
562 563 564 0
565 566 567 0
568 569 570 0
571 572 573 0
574 575 576 0
577 578 579 0
580 581 582 0
583 584 585 0
586 587 588 0
589 590 591 0
592 593 594 0
595 596 597 0
598 599 600 0
601 602 603 0
604 605 606 0
607 608 609 0
610 611 612 0
613 614 615 0
616 617 618 0
619 620 621 0
622 623 624 0
625 626 627 0
628 629 630 0
631 632 633 0
634 635 636 0
637 638 639 0
640 641 642 0
643 644 645 0
646 647 648 0
649 650 651 0
652 653 654 0
655 656 657 0
658 659 660 0
661 662 663 0
664 665 666 0
667 668 669 0
670 671 672 0
673 674 675 0
676 677 678 0
679 680 681 0
682 683 684 0
685 686 687 0
688 689 690 0
691 692 693 0
694 695 696 0
697 698 699 0
700 701 702 0
703 704 705 0
706 707 708 0
709 710 711 0
712 713 714 0
715 716 717 0
718 719 720 0
721 722 723 0
724 725 726 0
727 728 729 0
730 731 732 0
733 734 735 0
736 737 738 0
739 740 741 0
742 743 744 0
745 746 747 0
748 749 750 0
751 752 753 0
754 755 756 0
757 758 759 0
760 761 762 0
763 764 765 0
766 767 768 0
769 770 771 0
772 773 774 0
775 776 777 0
778 779 780 0
781 782 783 0
784 785 786 0
787 788 789 0
790 791 792 0
793 794 795 0
796 797 798 0
799 800 801 0
802 803 804 0
805 806 807 0
808 809 810 0
811 812 813 0
814 815 816 0
817 818 819 0
820 821 822 0
823 824 825 0
826 827 828 0
829 830 831 0
832 833 834 0
835 836 837 0
838 839 840 0
841 842 843 0
844 845 846 0
847 848 849 0
850 851 852 0
853 854 855 0
856 857 858 0
859 860 861 0
862 863 864 0
865 866 867 0
868 869 870 0
871 872 873 0
874 875 876 0
877 878 879 0
880 881 882 0
883 884 885 0
886 887 888 0
889 890 891 0
892 893 894 0
895 896 897 0
898 899 900 0
901 902 903 0
904 905 906 0
907 908 909 0
910 911 912 0
913 914 915 0
916 917 918 0
919 920 921 0
922 923 924 0
925 926 927 0
928 929 930 0
931 932 933 0
934 935 936 0
937 938 939 0
940 941 942 0
943 944 945 0
946 947 948 0
949 950 951 0
952 953 954 0
955 956 957 0
958 959 960 0
961 962 963 0
964 965 966 0
967 968 969 0
970 971 972 0
973 974 975 0
976 977 978 0
979 980 981 0
982 983 984 0
985 986 987 0
988 989 990 0
991 992 993 0
994 995 996 0
997 998 999 0
1000 1001 1002 0
1003 1004 1005 0
1006 1007 1008 0
1009 1010 1011 0
1012 1013 1014 0
1015 1016 1017 0
1018 1019 1020 0
1021 1022 1023 0
1024 1025 1026 0
1027 1028 1029 0
1030 1031 1032 0
1033 1034 1035 0
1036 1037 1038 0
1039 1040 1041 0
1042 1043 1044 0
1045 1046 1047 0
1048 1049 1050 0
1051 1052 1053 0
1054 1055 1056 0
1057 1058 1059 0
1060 1061 1062 0
1063 1064 1065 0
1066 1067 1068 0
1069 1070 1071 0
1072 1073 1074 0
1075 1076 1077 0
1078 1079 1080 0
1081 1082 1083 0
1084 1085 1086 0
1087 1088 1089 0
1090 1091 1092 0
1093 1094 1095 0
1096 1097 1098 0
1099 1100 1101 0
1102 1103 1104 0
1105 1106 1107 0
1108 1109 1110 0
1111 1112 1113 0
1114 1115 1116 0
1117 1118 1119 0
1120 1121 1122 0
1123 1124 1125 0
1126 1127 1128 0
1129 1130 1131 0
1132 1133 1134 0
1135 1136 1137 0
1138 1139 1140 0
1141 1142 1143 0
1144 1145 1146 0
1147 1148 1149 0
1150 1151 1152 0
1153 1154 1155 0
1156 1157 1158 0
1159 1160 1161 0
1162 1163 1164 0
1165 1166 1167 0
1168 1169 1170 0
1171 1172 1173 0
1174 1175 1176 0
1177 1178 1179 0
1180 1181 1182 0
1183 1184 1185 0
1186 1187 1188 0
1189 1190 1191 0
1192 1193 1194 0
1195 1196 1197 0
1198 1199 1200 0
1201 1202 1203 0
1204 1205 1206 0
1207 1208 1209 0
1210 1211 1212 0
1213 1214 1215 0
1216 1217 1218 0
1219 1220 1221 0
1222 1223 1224 0
1225 1226 1227 0
1228 1229 1230 0
1231 1232 1233 0
1234 1235 1236 0
1237 1238 1239 0
1240 1241 1242 0
1243 1244 1245 0
1246 1247 1248 0
1249 1250 1251 0
1252 1253 1254 0
1255 1256 1257 0
1258 1259 1260 0
1261 1262 1263 0
1264 1265 1266 0
1267 1268 1269 0
1270 1271 1272 0
1273 1274 1275 0
1276 1277 1278 0
1279 1280 1281 0
1282 1283 1284 0
1285 1286 1287 0
1288 1289 1290 0
1291 1292 1293 0
1294 1295 1296 0
1297 1298 1299 0
1300 1301 1302 0
1303 1304 1305 0
1306 1307 1308 0
1309 1310 1311 0
1312 1313 1314 0
1315 1316 1317 0
1318 1319 1320 0
1321 1322 1323 0
1324 1325 1326 0
1327 1328 1329 0
1330 1331 1332 0
1333 1334 1335 0
1336 1337 1338 0
1339 1340 1341 0
1342 1343 1344 0
1345 1346 1347 0
1348 1349 1350 0
1351 1352 1353 0
1354 1355 1356 0
1357 1358 1359 0
1360 1361 1362 0
1363 1364 1365 0
1366 1367 1368 0
1369 1370 1371 0
1372 1373 1374 0
1375 1376 1377 0
1378 1379 1380 0
1381 1382 1383 0
1384 1385 1386 0
1387 1388 1389 0
1390 1391 1392 0
1393 1394 1395 0
1396 1397 1398 0
1399 1400 1401 0
1402 1403 1404 0
1405 1406 1407 0
1408 1409 1410 0
1411 1412 1413 0
1414 1415 1416 0
1417 1418 1419 0
1420 1421 1422 0
1423 1424 1425 0
1426 1427 1428 0
1429 1430 1431 0
1432 1433 1434 0
1435 1436 1437 0
1438 1439 1440 0
1441 1442 1443 0
1444 1445 1446 0
1447 1448 1449 0
1450 1451 1452 0
1453 1454 1455 0
1456 1457 1458 0
1459 1460 1461 0
1462 1463 1464 0
1465 1466 1467 0
1468 1469 1470 0
1471 1472 1473 0
1474 1475 1476 0
1477 1478 1479 0
1480 1481 1482 0
1483 1484 1485 0
1486 1487 1488 0
1489 1490 1491 0
1492 1493 1494 0
1495 1496 1497 0
1498 1499 1500 0
-1 -2 0
-1 -3 0
-2 -3 0
-4 -5 0
-4 -6 0
-5 -6 0
-7 -8 0
-7 -9 0
-8 -9 0
-10 -11 0
-10 -12 0
-11 -12 0
-13 -14 0
-13 -15 0
-14 -15 0
-16 -17 0
-16 -18 0
-17 -18 0
-19 -20 0
-19 -21 0
-20 -21 0
-22 -23 0
-22 -24 0
-23 -24 0
-25 -26 0
-25 -27 0
-26 -27 0
-28 -29 0
-28 -30 0
-29 -30 0
-31 -32 0
-31 -33 0
-32 -33 0
-34 -35 0
-34 -36 0
-35 -36 0
-37 -38 0
-37 -39 0
-38 -39 0
-40 -41 0
-40 -42 0
-41 -42 0
-43 -44 0
-43 -45 0
-44 -45 0
-46 -47 0
-46 -48 0
-47 -48 0
-49 -50 0
-49 -51 0
-50 -51 0
-52 -53 0
-52 -54 0
-53 -54 0
-55 -56 0
-55 -57 0
-56 -57 0
-58 -59 0
-58 -60 0
-59 -60 0
-61 -62 0
-61 -63 0
-62 -63 0
-64 -65 0
-64 -66 0
-65 -66 0
-67 -68 0
-67 -69 0
-68 -69 0
-70 -71 0
-70 -72 0
-71 -72 0
-73 -74 0
-73 -75 0
-74 -75 0
-76 -77 0
-76 -78 0
-77 -78 0
-79 -80 0
-79 -81 0
-80 -81 0
-82 -83 0
-82 -84 0
-83 -84 0
-85 -86 0
-85 -87 0
-86 -87 0
-88 -89 0
-88 -90 0
-89 -90 0
-91 -92 0
-91 -93 0
-92 -93 0
-94 -95 0
-94 -96 0
-95 -96 0
-97 -98 0
-97 -99 0
-98 -99 0
-100 -101 0
-100 -102 0
-101 -102 0
-103 -104 0
-103 -105 0
-104 -105 0
-106 -107 0
-106 -108 0
-107 -108 0
-109 -110 0
-109 -111 0
-110 -111 0
-112 -113 0
-112 -114 0
-113 -114 0
-115 -116 0
-115 -117 0
-116 -117 0
-118 -119 0
-118 -120 0
-119 -120 0
-121 -122 0
-121 -123 0
-122 -123 0
-124 -125 0
-124 -126 0
-125 -126 0
-127 -128 0
-127 -129 0
-128 -129 0
-130 -131 0
-130 -132 0
-131 -132 0
-133 -134 0
-133 -135 0
-134 -135 0
-136 -137 0
-136 -138 0
-137 -138 0
-139 -140 0
-139 -141 0
-140 -141 0
-142 -143 0
-142 -144 0
-143 -144 0
-145 -146 0
-145 -147 0
-146 -147 0
-148 -149 0
-148 -150 0
-149 -150 0
-151 -152 0
-151 -153 0
-152 -153 0
-154 -155 0
-154 -156 0
-155 -156 0
-157 -158 0
-157 -159 0
-158 -159 0
-160 -161 0
-160 -162 0
-161 -162 0
-163 -164 0
-163 -165 0
-164 -165 0
-166 -167 0
-166 -168 0
-167 -168 0
-169 -170 0
-169 -171 0
-170 -171 0
-172 -173 0
-172 -174 0
-173 -174 0
-175 -176 0
-175 -177 0
-176 -177 0
-178 -179 0
-178 -180 0
-179 -180 0
-181 -182 0
-181 -183 0
-182 -183 0
-184 -185 0
-184 -186 0
-185 -186 0
-187 -188 0
-187 -189 0
-188 -189 0
-190 -191 0
-190 -192 0
-191 -192 0
-193 -194 0
-193 -195 0
-194 -195 0
-196 -197 0
-196 -198 0
-197 -198 0
-199 -200 0
-199 -201 0
-200 -201 0
-202 -203 0
-202 -204 0
-203 -204 0
-205 -206 0
-205 -207 0
-206 -207 0
-208 -209 0
-208 -210 0
-209 -210 0
-211 -212 0
-211 -213 0
-212 -213 0
-214 -215 0
-214 -216 0
-215 -216 0
-217 -218 0
-217 -219 0
-218 -219 0
-220 -221 0
-220 -222 0
-221 -222 0
-223 -224 0
-223 -225 0
-224 -225 0
-226 -227 0
-226 -228 0
-227 -228 0
-229 -230 0
-229 -231 0
-230 -231 0
-232 -233 0
-232 -234 0
-233 -234 0
-235 -236 0
-235 -237 0
-236 -237 0
-238 -239 0
-238 -240 0
-239 -240 0
-241 -242 0
-241 -243 0
-242 -243 0
-244 -245 0
-244 -246 0
-245 -246 0
-247 -248 0
-247 -249 0
-248 -249 0
-250 -251 0
-250 -252 0
-251 -252 0
-253 -254 0
-253 -255 0
-254 -255 0
-256 -257 0
-256 -258 0
-257 -258 0
-259 -260 0
-259 -261 0
-260 -261 0
-262 -263 0
-262 -264 0
-263 -264 0
-265 -266 0
-265 -267 0
-266 -267 0
-268 -269 0
-268 -270 0
-269 -270 0
-271 -272 0
-271 -273 0
-272 -273 0
-274 -275 0
-274 -276 0
-275 -276 0
-277 -278 0
-277 -279 0
-278 -279 0
-280 -281 0
-280 -282 0
-281 -282 0
-283 -284 0
-283 -285 0
-284 -285 0
-286 -287 0
-286 -288 0
-287 -288 0
-289 -290 0
-289 -291 0
-290 -291 0
-292 -293 0
-292 -294 0
-293 -294 0
-295 -296 0
-295 -297 0
-296 -297 0
-298 -299 0
-298 -300 0
-299 -300 0
-301 -302 0
-301 -303 0
-302 -303 0
-304 -305 0
-304 -306 0
-305 -306 0
-307 -308 0
-307 -309 0
-308 -309 0
-310 -311 0
-310 -312 0
-311 -312 0
-313 -314 0
-313 -315 0
-314 -315 0
-316 -317 0
-316 -318 0
-317 -318 0
-319 -320 0
-319 -321 0
-320 -321 0
-322 -323 0
-322 -324 0
-323 -324 0
-325 -326 0
-325 -327 0
-326 -327 0
-328 -329 0
-328 -330 0
-329 -330 0
-331 -332 0
-331 -333 0
-332 -333 0
-334 -335 0
-334 -336 0
-335 -336 0
-337 -338 0
-337 -339 0
-338 -339 0
-340 -341 0
-340 -342 0
-341 -342 0
-343 -344 0
-343 -345 0
-344 -345 0
-346 -347 0
-346 -348 0
-347 -348 0
-349 -350 0
-349 -351 0
-350 -351 0
-352 -353 0
-352 -354 0
-353 -354 0
-355 -356 0
-355 -357 0
-356 -357 0
-358 -359 0
-358 -360 0
-359 -360 0
-361 -362 0
-361 -363 0
-362 -363 0
-364 -365 0
-364 -366 0
-365 -366 0
-367 -368 0
-367 -369 0
-368 -369 0
-370 -371 0
-370 -372 0
-371 -372 0
-373 -374 0
-373 -375 0
-374 -375 0
-376 -377 0
-376 -378 0
-377 -378 0
-379 -380 0
-379 -381 0
-380 -381 0
-382 -383 0
-382 -384 0
-383 -384 0
-385 -386 0
-385 -387 0
-386 -387 0
-388 -389 0
-388 -390 0
-389 -390 0
-391 -392 0
-391 -393 0
-392 -393 0
-394 -395 0
-394 -396 0
-395 -396 0
-397 -398 0
-397 -399 0
-398 -399 0
-400 -401 0
-400 -402 0
-401 -402 0
-403 -404 0
-403 -405 0
-404 -405 0
-406 -407 0
-406 -408 0
-407 -408 0
-409 -410 0
-409 -411 0
-410 -411 0
-412 -413 0
-412 -414 0
-413 -414 0
-415 -416 0
-415 -417 0
-416 -417 0
-418 -419 0
-418 -420 0
-419 -420 0
-421 -422 0
-421 -423 0
-422 -423 0
-424 -425 0
-424 -426 0
-425 -426 0
-427 -428 0
-427 -429 0
-428 -429 0
-430 -431 0
-430 -432 0
-431 -432 0
-433 -434 0
-433 -435 0
-434 -435 0
-436 -437 0
-436 -438 0
-437 -438 0
-439 -440 0
-439 -441 0
-440 -441 0
-442 -443 0
-442 -444 0
-443 -444 0
-445 -446 0
-445 -447 0
-446 -447 0
-448 -449 0
-448 -450 0
-449 -450 0
-451 -452 0
-451 -453 0
-452 -453 0
-454 -455 0
-454 -456 0
-455 -456 0
-457 -458 0
-457 -459 0
-458 -459 0
-460 -461 0
-460 -462 0
-461 -462 0
-463 -464 0
-463 -465 0
-464 -465 0
-466 -467 0
-466 -468 0
-467 -468 0
-469 -470 0
-469 -471 0
-470 -471 0
-472 -473 0
-472 -474 0
-473 -474 0
-475 -476 0
-475 -477 0
-476 -477 0
-478 -479 0
-478 -480 0
-479 -480 0
-481 -482 0
-481 -483 0
-482 -483 0
-484 -485 0
-484 -486 0
-485 -486 0
-487 -488 0
-487 -489 0
-488 -489 0
-490 -491 0
-490 -492 0
-491 -492 0
-493 -494 0
-493 -495 0
-494 -495 0
-496 -497 0
-496 -498 0
-497 -498 0
-499 -500 0
-499 -501 0
-500 -501 0
-502 -503 0
-502 -504 0
-503 -504 0
-505 -506 0
-505 -507 0
-506 -507 0
-508 -509 0
-508 -510 0
-509 -510 0
-511 -512 0
-511 -513 0
-512 -513 0
-514 -515 0
-514 -516 0
-515 -516 0
-517 -518 0
-517 -519 0
-518 -519 0
-520 -521 0
-520 -522 0
-521 -522 0
-523 -524 0
-523 -525 0
-524 -525 0
-526 -527 0
-526 -528 0
-527 -528 0
-529 -530 0
-529 -531 0
-530 -531 0
-532 -533 0
-532 -534 0
-533 -534 0
-535 -536 0
-535 -537 0
-536 -537 0
-538 -539 0
-538 -540 0
-539 -540 0
-541 -542 0
-541 -543 0
-542 -543 0
-544 -545 0
-544 -546 0
-545 -546 0
-547 -548 0
-547 -549 0
-548 -549 0
-550 -551 0
-550 -552 0
-551 -552 0
-553 -554 0
-553 -555 0
-554 -555 0
-556 -557 0
-556 -558 0
-557 -558 0
-559 -560 0
-559 -561 0
-560 -561 0
-562 -563 0
-562 -564 0
-563 -564 0
-565 -566 0
-565 -567 0
-566 -567 0
-568 -569 0
-568 -570 0
-569 -570 0
-571 -572 0
-571 -573 0
-572 -573 0
-574 -575 0
-574 -576 0
-575 -576 0
-577 -578 0
-577 -579 0
-578 -579 0
-580 -581 0
-580 -582 0
-581 -582 0
-583 -584 0
-583 -585 0
-584 -585 0
-586 -587 0
-586 -588 0
-587 -588 0
-589 -590 0
-589 -591 0
-590 -591 0
-592 -593 0
-592 -594 0
-593 -594 0
-595 -596 0
-595 -597 0
-596 -597 0
-598 -599 0
-598 -600 0
-599 -600 0
-601 -602 0
-601 -603 0
-602 -603 0
-604 -605 0
-604 -606 0
-605 -606 0
-607 -608 0
-607 -609 0
-608 -609 0
-610 -611 0
-610 -612 0
-611 -612 0
-613 -614 0
-613 -615 0
-614 -615 0
-616 -617 0
-616 -618 0
-617 -618 0
-619 -620 0
-619 -621 0
-620 -621 0
-622 -623 0
-622 -624 0
-623 -624 0
-625 -626 0
-625 -627 0
-626 -627 0
-628 -629 0
-628 -630 0
-629 -630 0
-631 -632 0
-631 -633 0
-632 -633 0
-634 -635 0
-634 -636 0
-635 -636 0
-637 -638 0
-637 -639 0
-638 -639 0
-640 -641 0
-640 -642 0
-641 -642 0
-643 -644 0
-643 -645 0
-644 -645 0
-646 -647 0
-646 -648 0
-647 -648 0
-649 -650 0
-649 -651 0
-650 -651 0
-652 -653 0
-652 -654 0
-653 -654 0
-655 -656 0
-655 -657 0
-656 -657 0
-658 -659 0
-658 -660 0
-659 -660 0
-661 -662 0
-661 -663 0
-662 -663 0
-664 -665 0
-664 -666 0
-665 -666 0
-667 -668 0
-667 -669 0
-668 -669 0
-670 -671 0
-670 -672 0
-671 -672 0
-673 -674 0
-673 -675 0
-674 -675 0
-676 -677 0
-676 -678 0
-677 -678 0
-679 -680 0
-679 -681 0
-680 -681 0
-682 -683 0
-682 -684 0
-683 -684 0
-685 -686 0
-685 -687 0
-686 -687 0
-688 -689 0
-688 -690 0
-689 -690 0
-691 -692 0
-691 -693 0
-692 -693 0
-694 -695 0
-694 -696 0
-695 -696 0
-697 -698 0
-697 -699 0
-698 -699 0
-700 -701 0
-700 -702 0
-701 -702 0
-703 -704 0
-703 -705 0
-704 -705 0
-706 -707 0
-706 -708 0
-707 -708 0
-709 -710 0
-709 -711 0
-710 -711 0
-712 -713 0
-712 -714 0
-713 -714 0
-715 -716 0
-715 -717 0
-716 -717 0
-718 -719 0
-718 -720 0
-719 -720 0
-721 -722 0
-721 -723 0
-722 -723 0
-724 -725 0
-724 -726 0
-725 -726 0
-727 -728 0
-727 -729 0
-728 -729 0
-730 -731 0
-730 -732 0
-731 -732 0
-733 -734 0
-733 -735 0
-734 -735 0
-736 -737 0
-736 -738 0
-737 -738 0
-739 -740 0
-739 -741 0
-740 -741 0
-742 -743 0
-742 -744 0
-743 -744 0
-745 -746 0
-745 -747 0
-746 -747 0
-748 -749 0
-748 -750 0
-749 -750 0
-751 -752 0
-751 -753 0
-752 -753 0
-754 -755 0
-754 -756 0
-755 -756 0
-757 -758 0
-757 -759 0
-758 -759 0
-760 -761 0
-760 -762 0
-761 -762 0
-763 -764 0
-763 -765 0
-764 -765 0
-766 -767 0
-766 -768 0
-767 -768 0
-769 -770 0
-769 -771 0
-770 -771 0
-772 -773 0
-772 -774 0
-773 -774 0
-775 -776 0
-775 -777 0
-776 -777 0
-778 -779 0
-778 -780 0
-779 -780 0
-781 -782 0
-781 -783 0
-782 -783 0
-784 -785 0
-784 -786 0
-785 -786 0
-787 -788 0
-787 -789 0
-788 -789 0
-790 -791 0
-790 -792 0
-791 -792 0
-793 -794 0
-793 -795 0
-794 -795 0
-796 -797 0
-796 -798 0
-797 -798 0
-799 -800 0
-799 -801 0
-800 -801 0
-802 -803 0
-802 -804 0
-803 -804 0
-805 -806 0
-805 -807 0
-806 -807 0
-808 -809 0
-808 -810 0
-809 -810 0
-811 -812 0
-811 -813 0
-812 -813 0
-814 -815 0
-814 -816 0
-815 -816 0
-817 -818 0
-817 -819 0
-818 -819 0
-820 -821 0
-820 -822 0
-821 -822 0
-823 -824 0
-823 -825 0
-824 -825 0
-826 -827 0
-826 -828 0
-827 -828 0
-829 -830 0
-829 -831 0
-830 -831 0
-832 -833 0
-832 -834 0
-833 -834 0
-835 -836 0
-835 -837 0
-836 -837 0
-838 -839 0
-838 -840 0
-839 -840 0
-841 -842 0
-841 -843 0
-842 -843 0
-844 -845 0
-844 -846 0
-845 -846 0
-847 -848 0
-847 -849 0
-848 -849 0
-850 -851 0
-850 -852 0
-851 -852 0
-853 -854 0
-853 -855 0
-854 -855 0
-856 -857 0
-856 -858 0
-857 -858 0
-859 -860 0
-859 -861 0
-860 -861 0
-862 -863 0
-862 -864 0
-863 -864 0
-865 -866 0
-865 -867 0
-866 -867 0
-868 -869 0
-868 -870 0
-869 -870 0
-871 -872 0
-871 -873 0
-872 -873 0
-874 -875 0
-874 -876 0
-875 -876 0
-877 -878 0
-877 -879 0
-878 -879 0
-880 -881 0
-880 -882 0
-881 -882 0
-883 -884 0
-883 -885 0
-884 -885 0
-886 -887 0
-886 -888 0
-887 -888 0
-889 -890 0
-889 -891 0
-890 -891 0
-892 -893 0
-892 -894 0
-893 -894 0
-895 -896 0
-895 -897 0
-896 -897 0
-898 -899 0
-898 -900 0
-899 -900 0
-901 -902 0
-901 -903 0
-902 -903 0
-904 -905 0
-904 -906 0
-905 -906 0
-907 -908 0
-907 -909 0
-908 -909 0
-910 -911 0
-910 -912 0
-911 -912 0
-913 -914 0
-913 -915 0
-914 -915 0
-916 -917 0
-916 -918 0
-917 -918 0
-919 -920 0
-919 -921 0
-920 -921 0
-922 -923 0
-922 -924 0
-923 -924 0
-925 -926 0
-925 -927 0
-926 -927 0
-928 -929 0
-928 -930 0
-929 -930 0
-931 -932 0
-931 -933 0
-932 -933 0
-934 -935 0
-934 -936 0
-935 -936 0
-937 -938 0
-937 -939 0
-938 -939 0
-940 -941 0
-940 -942 0
-941 -942 0
-943 -944 0
-943 -945 0
-944 -945 0
-946 -947 0
-946 -948 0
-947 -948 0
-949 -950 0
-949 -951 0
-950 -951 0
-952 -953 0
-952 -954 0
-953 -954 0
-955 -956 0
-955 -957 0
-956 -957 0
-958 -959 0
-958 -960 0
-959 -960 0
-961 -962 0
-961 -963 0
-962 -963 0
-964 -965 0
-964 -966 0
-965 -966 0
-967 -968 0
-967 -969 0
-968 -969 0
-970 -971 0
-970 -972 0
-971 -972 0
-973 -974 0
-973 -975 0
-974 -975 0
-976 -977 0
-976 -978 0
-977 -978 0
-979 -980 0
-979 -981 0
-980 -981 0
-982 -983 0
-982 -984 0
-983 -984 0
-985 -986 0
-985 -987 0
-986 -987 0
-988 -989 0
-988 -990 0
-989 -990 0
-991 -992 0
-991 -993 0
-992 -993 0
-994 -995 0
-994 -996 0
-995 -996 0
-997 -998 0
-997 -999 0
-998 -999 0
-1000 -1001 0
-1000 -1002 0
-1001 -1002 0
-1003 -1004 0
-1003 -1005 0
-1004 -1005 0
-1006 -1007 0
-1006 -1008 0
-1007 -1008 0
-1009 -1010 0
-1009 -1011 0
-1010 -1011 0
-1012 -1013 0
-1012 -1014 0
-1013 -1014 0
-1015 -1016 0
-1015 -1017 0
-1016 -1017 0
-1018 -1019 0
-1018 -1020 0
-1019 -1020 0
-1021 -1022 0
-1021 -1023 0
-1022 -1023 0
-1024 -1025 0
-1024 -1026 0
-1025 -1026 0
-1027 -1028 0
-1027 -1029 0
-1028 -1029 0
-1030 -1031 0
-1030 -1032 0
-1031 -1032 0
-1033 -1034 0
-1033 -1035 0
-1034 -1035 0
-1036 -1037 0
-1036 -1038 0
-1037 -1038 0
-1039 -1040 0
-1039 -1041 0
-1040 -1041 0
-1042 -1043 0
-1042 -1044 0
-1043 -1044 0
-1045 -1046 0
-1045 -1047 0
-1046 -1047 0
-1048 -1049 0
-1048 -1050 0
-1049 -1050 0
-1051 -1052 0
-1051 -1053 0
-1052 -1053 0
-1054 -1055 0
-1054 -1056 0
-1055 -1056 0
-1057 -1058 0
-1057 -1059 0
-1058 -1059 0
-1060 -1061 0
-1060 -1062 0
-1061 -1062 0
-1063 -1064 0
-1063 -1065 0
-1064 -1065 0
-1066 -1067 0
-1066 -1068 0
-1067 -1068 0
-1069 -1070 0
-1069 -1071 0
-1070 -1071 0
-1072 -1073 0
-1072 -1074 0
-1073 -1074 0
-1075 -1076 0
-1075 -1077 0
-1076 -1077 0
-1078 -1079 0
-1078 -1080 0
-1079 -1080 0
-1081 -1082 0
-1081 -1083 0
-1082 -1083 0
-1084 -1085 0
-1084 -1086 0
-1085 -1086 0
-1087 -1088 0
-1087 -1089 0
-1088 -1089 0
-1090 -1091 0
-1090 -1092 0
-1091 -1092 0
-1093 -1094 0
-1093 -1095 0
-1094 -1095 0
-1096 -1097 0
-1096 -1098 0
-1097 -1098 0
-1099 -1100 0
-1099 -1101 0
-1100 -1101 0
-1102 -1103 0
-1102 -1104 0
-1103 -1104 0
-1105 -1106 0
-1105 -1107 0
-1106 -1107 0
-1108 -1109 0
-1108 -1110 0
-1109 -1110 0
-1111 -1112 0
-1111 -1113 0
-1112 -1113 0
-1114 -1115 0
-1114 -1116 0
-1115 -1116 0
-1117 -1118 0
-1117 -1119 0
-1118 -1119 0
-1120 -1121 0
-1120 -1122 0
-1121 -1122 0
-1123 -1124 0
-1123 -1125 0
-1124 -1125 0
-1126 -1127 0
-1126 -1128 0
-1127 -1128 0
-1129 -1130 0
-1129 -1131 0
-1130 -1131 0
-1132 -1133 0
-1132 -1134 0
-1133 -1134 0
-1135 -1136 0
-1135 -1137 0
-1136 -1137 0
-1138 -1139 0
-1138 -1140 0
-1139 -1140 0
-1141 -1142 0
-1141 -1143 0
-1142 -1143 0
-1144 -1145 0
-1144 -1146 0
-1145 -1146 0
-1147 -1148 0
-1147 -1149 0
-1148 -1149 0
-1150 -1151 0
-1150 -1152 0
-1151 -1152 0
-1153 -1154 0
-1153 -1155 0
-1154 -1155 0
-1156 -1157 0
-1156 -1158 0
-1157 -1158 0
-1159 -1160 0
-1159 -1161 0
-1160 -1161 0
-1162 -1163 0
-1162 -1164 0
-1163 -1164 0
-1165 -1166 0
-1165 -1167 0
-1166 -1167 0
-1168 -1169 0
-1168 -1170 0
-1169 -1170 0
-1171 -1172 0
-1171 -1173 0
-1172 -1173 0
-1174 -1175 0
-1174 -1176 0
-1175 -1176 0
-1177 -1178 0
-1177 -1179 0
-1178 -1179 0
-1180 -1181 0
-1180 -1182 0
-1181 -1182 0
-1183 -1184 0
-1183 -1185 0
-1184 -1185 0
-1186 -1187 0
-1186 -1188 0
-1187 -1188 0
-1189 -1190 0
-1189 -1191 0
-1190 -1191 0
-1192 -1193 0
-1192 -1194 0
-1193 -1194 0
-1195 -1196 0
-1195 -1197 0
-1196 -1197 0
-1198 -1199 0
-1198 -1200 0
-1199 -1200 0
-1201 -1202 0
-1201 -1203 0
-1202 -1203 0
-1204 -1205 0
-1204 -1206 0
-1205 -1206 0
-1207 -1208 0
-1207 -1209 0
-1208 -1209 0
-1210 -1211 0
-1210 -1212 0
-1211 -1212 0
-1213 -1214 0
-1213 -1215 0
-1214 -1215 0
-1216 -1217 0
-1216 -1218 0
-1217 -1218 0
-1219 -1220 0
-1219 -1221 0
-1220 -1221 0
-1222 -1223 0
-1222 -1224 0
-1223 -1224 0
-1225 -1226 0
-1225 -1227 0
-1226 -1227 0
-1228 -1229 0
-1228 -1230 0
-1229 -1230 0
-1231 -1232 0
-1231 -1233 0
-1232 -1233 0
-1234 -1235 0
-1234 -1236 0
-1235 -1236 0
-1237 -1238 0
-1237 -1239 0
-1238 -1239 0
-1240 -1241 0
-1240 -1242 0
-1241 -1242 0
-1243 -1244 0
-1243 -1245 0
-1244 -1245 0
-1246 -1247 0
-1246 -1248 0
-1247 -1248 0
-1249 -1250 0
-1249 -1251 0
-1250 -1251 0
-1252 -1253 0
-1252 -1254 0
-1253 -1254 0
-1255 -1256 0
-1255 -1257 0
-1256 -1257 0
-1258 -1259 0
-1258 -1260 0
-1259 -1260 0
-1261 -1262 0
-1261 -1263 0
-1262 -1263 0
-1264 -1265 0
-1264 -1266 0
-1265 -1266 0
-1267 -1268 0
-1267 -1269 0
-1268 -1269 0
-1270 -1271 0
-1270 -1272 0
-1271 -1272 0
-1273 -1274 0
-1273 -1275 0
-1274 -1275 0
-1276 -1277 0
-1276 -1278 0
-1277 -1278 0
-1279 -1280 0
-1279 -1281 0
-1280 -1281 0
-1282 -1283 0
-1282 -1284 0
-1283 -1284 0
-1285 -1286 0
-1285 -1287 0
-1286 -1287 0
-1288 -1289 0
-1288 -1290 0
-1289 -1290 0
-1291 -1292 0
-1291 -1293 0
-1292 -1293 0
-1294 -1295 0
-1294 -1296 0
-1295 -1296 0
-1297 -1298 0
-1297 -1299 0
-1298 -1299 0
-1300 -1301 0
-1300 -1302 0
-1301 -1302 0
-1303 -1304 0
-1303 -1305 0
-1304 -1305 0
-1306 -1307 0
-1306 -1308 0
-1307 -1308 0
-1309 -1310 0
-1309 -1311 0
-1310 -1311 0
-1312 -1313 0
-1312 -1314 0
-1313 -1314 0
-1315 -1316 0
-1315 -1317 0
-1316 -1317 0
-1318 -1319 0
-1318 -1320 0
-1319 -1320 0
-1321 -1322 0
-1321 -1323 0
-1322 -1323 0
-1324 -1325 0
-1324 -1326 0
-1325 -1326 0
-1327 -1328 0
-1327 -1329 0
-1328 -1329 0
-1330 -1331 0
-1330 -1332 0
-1331 -1332 0
-1333 -1334 0
-1333 -1335 0
-1334 -1335 0
-1336 -1337 0
-1336 -1338 0
-1337 -1338 0
-1339 -1340 0
-1339 -1341 0
-1340 -1341 0
-1342 -1343 0
-1342 -1344 0
-1343 -1344 0
-1345 -1346 0
-1345 -1347 0
-1346 -1347 0
-1348 -1349 0
-1348 -1350 0
-1349 -1350 0
-1351 -1352 0
-1351 -1353 0
-1352 -1353 0
-1354 -1355 0
-1354 -1356 0
-1355 -1356 0
-1357 -1358 0
-1357 -1359 0
-1358 -1359 0
-1360 -1361 0
-1360 -1362 0
-1361 -1362 0
-1363 -1364 0
-1363 -1365 0
-1364 -1365 0
-1366 -1367 0
-1366 -1368 0
-1367 -1368 0
-1369 -1370 0
-1369 -1371 0
-1370 -1371 0
-1372 -1373 0
-1372 -1374 0
-1373 -1374 0
-1375 -1376 0
-1375 -1377 0
-1376 -1377 0
-1378 -1379 0
-1378 -1380 0
-1379 -1380 0
-1381 -1382 0
-1381 -1383 0
-1382 -1383 0
-1384 -1385 0
-1384 -1386 0
-1385 -1386 0
-1387 -1388 0
-1387 -1389 0
-1388 -1389 0
-1390 -1391 0
-1390 -1392 0
-1391 -1392 0
-1393 -1394 0
-1393 -1395 0
-1394 -1395 0
-1396 -1397 0
-1396 -1398 0
-1397 -1398 0
-1399 -1400 0
-1399 -1401 0
-1400 -1401 0
-1402 -1403 0
-1402 -1404 0
-1403 -1404 0
-1405 -1406 0
-1405 -1407 0
-1406 -1407 0
-1408 -1409 0
-1408 -1410 0
-1409 -1410 0
-1411 -1412 0
-1411 -1413 0
-1412 -1413 0
-1414 -1415 0
-1414 -1416 0
-1415 -1416 0
-1417 -1418 0
-1417 -1419 0
-1418 -1419 0
-1420 -1421 0
-1420 -1422 0
-1421 -1422 0
-1423 -1424 0
-1423 -1425 0
-1424 -1425 0
-1426 -1427 0
-1426 -1428 0
-1427 -1428 0
-1429 -1430 0
-1429 -1431 0
-1430 -1431 0
-1432 -1433 0
-1432 -1434 0
-1433 -1434 0
-1435 -1436 0
-1435 -1437 0
-1436 -1437 0
-1438 -1439 0
-1438 -1440 0
-1439 -1440 0
-1441 -1442 0
-1441 -1443 0
-1442 -1443 0
-1444 -1445 0
-1444 -1446 0
-1445 -1446 0
-1447 -1448 0
-1447 -1449 0
-1448 -1449 0
-1450 -1451 0
-1450 -1452 0
-1451 -1452 0
-1453 -1454 0
-1453 -1455 0
-1454 -1455 0
-1456 -1457 0
-1456 -1458 0
-1457 -1458 0
-1459 -1460 0
-1459 -1461 0
-1460 -1461 0
-1462 -1463 0
-1462 -1464 0
-1463 -1464 0
-1465 -1466 0
-1465 -1467 0
-1466 -1467 0
-1468 -1469 0
-1468 -1470 0
-1469 -1470 0
-1471 -1472 0
-1471 -1473 0
-1472 -1473 0
-1474 -1475 0
-1474 -1476 0
-1475 -1476 0
-1477 -1478 0
-1477 -1479 0
-1478 -1479 0
-1480 -1481 0
-1480 -1482 0
-1481 -1482 0
-1483 -1484 0
-1483 -1485 0
-1484 -1485 0
-1486 -1487 0
-1486 -1488 0
-1487 -1488 0
-1489 -1490 0
-1489 -1491 0
-1490 -1491 0
-1492 -1493 0
-1492 -1494 0
-1493 -1494 0
-1495 -1496 0
-1495 -1497 0
-1496 -1497 0
-1498 -1499 0
-1498 -1500 0
-1499 -1500 0
-1 -835 0
-2 -836 0
-3 -837 0
-1 -958 0
-2 -959 0
-3 -960 0
-1 -1462 0
-2 -1463 0
-3 -1464 0
-4 -85 0
-5 -86 0
-6 -87 0
-4 -556 0
-5 -557 0
-6 -558 0
-4 -1048 0
-5 -1049 0
-6 -1050 0
-7 -328 0
-8 -329 0
-9 -330 0
-7 -364 0
-8 -365 0
-9 -366 0
-7 -802 0
-8 -803 0
-9 -804 0
-7 -1042 0
-8 -1043 0
-9 -1044 0
-7 -1267 0
-8 -1268 0
-9 -1269 0
-10 -391 0
-11 -392 0
-12 -393 0
-10 -1117 0
-11 -1118 0
-12 -1119 0
-10 -1306 0
-11 -1307 0
-12 -1308 0
-13 -49 0
-14 -50 0
-15 -51 0
-13 -340 0
-14 -341 0
-15 -342 0
-13 -625 0
-14 -626 0
-15 -627 0
-13 -721 0
-14 -722 0
-15 -723 0
-13 -955 0
-14 -956 0
-15 -957 0
-13 -1123 0
-14 -1124 0
-15 -1125 0
-13 -1156 0
-14 -1157 0
-15 -1158 0
-16 -175 0
-17 -176 0
-18 -177 0
-16 -880 0
-17 -881 0
-18 -882 0
-16 -1003 0
-17 -1004 0
-18 -1005 0
-16 -1372 0
-17 -1373 0
-18 -1374 0
-16 -1486 0
-17 -1487 0
-18 -1488 0
-19 -292 0
-20 -293 0
-21 -294 0
-19 -367 0
-20 -368 0
-21 -369 0
-19 -601 0
-20 -602 0
-21 -603 0
-19 -1006 0
-20 -1007 0
-21 -1008 0
-19 -1453 0
-20 -1454 0
-21 -1455 0
-22 -205 0
-23 -206 0
-24 -207 0
-22 -328 0
-23 -329 0
-24 -330 0
-22 -658 0
-23 -659 0
-24 -660 0
-22 -685 0
-23 -686 0
-24 -687 0
-22 -853 0
-23 -854 0
-24 -855 0
-22 -868 0
-23 -869 0
-24 -870 0
-22 -1246 0
-23 -1247 0
-24 -1248 0
-22 -1345 0
-23 -1346 0
-24 -1347 0
-22 -1411 0
-23 -1412 0
-24 -1413 0
-25 -1363 0
-26 -1364 0
-27 -1365 0
-25 -1477 0
-26 -1478 0
-27 -1479 0
-28 -313 0
-29 -314 0
-30 -315 0
-28 -403 0
-29 -404 0
-30 -405 0
-28 -502 0
-29 -503 0
-30 -504 0
-28 -1303 0
-29 -1304 0
-30 -1305 0
-31 -670 0
-32 -671 0
-33 -672 0
-31 -946 0
-32 -947 0
-33 -948 0
-31 -1006 0
-32 -1007 0
-33 -1008 0
-31 -1363 0
-32 -1364 0
-33 -1365 0
-34 -118 0
-35 -119 0
-36 -120 0
-34 -601 0
-35 -602 0
-36 -603 0
-34 -1231 0
-35 -1232 0
-36 -1233 0
-37 -184 0
-38 -185 0
-39 -186 0
-37 -259 0
-38 -260 0
-39 -261 0
-37 -313 0
-38 -314 0
-39 -315 0
-37 -448 0
-38 -449 0
-39 -450 0
-37 -508 0
-38 -509 0
-39 -510 0
-37 -655 0
-38 -656 0
-39 -657 0
-37 -742 0
-38 -743 0
-39 -744 0
-37 -946 0
-38 -947 0
-39 -948 0
-40 -514 0
-41 -515 0
-42 -516 0
-40 -637 0
-41 -638 0
-42 -639 0
-40 -766 0
-41 -767 0
-42 -768 0
-40 -850 0
-41 -851 0
-42 -852 0
-40 -1084 0
-41 -1085 0
-42 -1086 0
-40 -1483 0
-41 -1484 0
-42 -1485 0
-43 -397 0
-44 -398 0
-45 -399 0
-43 -1237 0
-44 -1238 0
-45 -1239 0
-46 -499 0
-47 -500 0
-48 -501 0
-46 -889 0
-47 -890 0
-48 -891 0
-46 -985 0
-47 -986 0
-48 -987 0
-46 -1075 0
-47 -1076 0
-48 -1077 0
-46 -1309 0
-47 -1310 0
-48 -1311 0
-46 -1471 0
-47 -1472 0
-48 -1473 0
-49 -520 0
-50 -521 0
-51 -522 0
-49 -922 0
-50 -923 0
-51 -924 0
-52 -115 0
-53 -116 0
-54 -117 0
-52 -520 0
-53 -521 0
-54 -522 0
-52 -559 0
-53 -560 0
-54 -561 0
-52 -580 0
-53 -581 0
-54 -582 0
-52 -712 0
-53 -713 0
-54 -714 0
-52 -1024 0
-53 -1025 0
-54 -1026 0
-52 -1369 0
-53 -1370 0
-54 -1371 0
-52 -1393 0
-53 -1394 0
-54 -1395 0
-55 -1018 0
-56 -1019 0
-57 -1020 0
-55 -1348 0
-56 -1349 0
-57 -1350 0
-58 -499 0
-59 -500 0
-60 -501 0
-58 -775 0
-59 -776 0
-60 -777 0
-58 -907 0
-59 -908 0
-60 -909 0
-61 -136 0
-62 -137 0
-63 -138 0
-61 -991 0
-62 -992 0
-63 -993 0
-61 -1120 0
-62 -1121 0
-63 -1122 0
-61 -1216 0
-62 -1217 0
-63 -1218 0
-61 -1231 0
-62 -1232 0
-63 -1233 0
-61 -1471 0
-62 -1472 0
-63 -1473 0
-64 -91 0
-65 -92 0
-66 -93 0
-64 -268 0
-65 -269 0
-66 -270 0
-64 -337 0
-65 -338 0
-66 -339 0
-64 -1354 0
-65 -1355 0
-66 -1356 0
-67 -412 0
-68 -413 0
-69 -414 0
-67 -1168 0
-68 -1169 0
-69 -1170 0
-67 -1465 0
-68 -1466 0
-69 -1467 0
-70 -223 0
-71 -224 0
-72 -225 0
-70 -697 0
-71 -698 0
-72 -699 0
-70 -1189 0
-71 -1190 0
-72 -1191 0
-70 -1429 0
-71 -1430 0
-72 -1431 0
-73 -205 0
-74 -206 0
-75 -207 0
-73 -274 0
-74 -275 0
-75 -276 0
-73 -391 0
-74 -392 0
-75 -393 0
-73 -475 0
-74 -476 0
-75 -477 0
-73 -1360 0
-74 -1361 0
-75 -1362 0
-76 -445 0
-77 -446 0
-78 -447 0
-76 -769 0
-77 -770 0
-78 -771 0
-79 -175 0
-80 -176 0
-81 -177 0
-79 -316 0
-80 -317 0
-81 -318 0
-79 -388 0
-80 -389 0
-81 -390 0
-79 -979 0
-80 -980 0
-81 -981 0
-79 -1336 0
-80 -1337 0
-81 -1338 0
-79 -1420 0
-80 -1421 0
-81 -1422 0
-82 -379 0
-83 -380 0
-84 -381 0
-82 -910 0
-83 -911 0
-84 -912 0
-82 -1093 0
-83 -1094 0
-84 -1095 0
-82 -1096 0
-83 -1097 0
-84 -1098 0
-82 -1228 0
-83 -1229 0
-84 -1230 0
-85 -145 0
-86 -146 0
-87 -147 0
-85 -286 0
-86 -287 0
-87 -288 0
-85 -931 0
-86 -932 0
-87 -933 0
-85 -1078 0
-86 -1079 0
-87 -1080 0
-85 -1489 0
-86 -1490 0
-87 -1491 0
-85 -1495 0
-86 -1496 0
-87 -1497 0
-88 -964 0
-89 -965 0
-90 -966 0
-88 -1132 0
-89 -1133 0
-90 -1134 0
-88 -1324 0
-89 -1325 0
-90 -1326 0
-88 -1462 0
-89 -1463 0
-90 -1464 0
-91 -445 0
-92 -446 0
-93 -447 0
-91 -700 0
-92 -701 0
-93 -702 0
-94 -157 0
-95 -158 0
-96 -159 0
-94 -223 0
-95 -224 0
-96 -225 0
-94 -457 0
-95 -458 0
-96 -459 0
-94 -577 0
-95 -578 0
-96 -579 0
-94 -628 0
-95 -629 0
-96 -630 0
-94 -1447 0
-95 -1448 0
-96 -1449 0
-97 -241 0
-98 -242 0
-99 -243 0
-97 -1405 0
-98 -1406 0
-99 -1407 0
-100 -298 0
-101 -299 0
-102 -300 0
-100 -505 0
-101 -506 0
-102 -507 0
-100 -607 0
-101 -608 0
-102 -609 0
-100 -685 0
-101 -686 0
-102 -687 0
-100 -1486 0
-101 -1487 0
-102 -1488 0
-103 -106 0
-104 -107 0
-105 -108 0
-103 -175 0
-104 -176 0
-105 -177 0
-103 -250 0
-104 -251 0
-105 -252 0
-103 -313 0
-104 -314 0
-105 -315 0
-103 -367 0
-104 -368 0
-105 -369 0
-103 -490 0
-104 -491 0
-105 -492 0
-103 -559 0
-104 -560 0
-105 -561 0
-103 -601 0
-104 -602 0
-105 -603 0
-103 -1465 0
-104 -1466 0
-105 -1467 0
-106 -427 0
-107 -428 0
-108 -429 0
-106 -586 0
-107 -587 0
-108 -588 0
-106 -718 0
-107 -719 0
-108 -720 0
-106 -1045 0
-107 -1046 0
-108 -1047 0
-106 -1210 0
-107 -1211 0
-108 -1212 0
-109 -226 0
-110 -227 0
-111 -228 0
-109 -289 0
-110 -290 0
-111 -291 0
-109 -502 0
-110 -503 0
-111 -504 0
-109 -661 0
-110 -662 0
-111 -663 0
-109 -799 0
-110 -800 0
-111 -801 0
-109 -895 0
-110 -896 0
-111 -897 0
-112 -667 0
-113 -668 0
-114 -669 0
-112 -838 0
-113 -839 0
-114 -840 0
-115 -343 0
-116 -344 0
-117 -345 0
-115 -535 0
-116 -536 0
-117 -537 0
-115 -1114 0
-116 -1115 0
-117 -1116 0
-115 -1138 0
-116 -1139 0
-117 -1140 0
-115 -1246 0
-116 -1247 0
-117 -1248 0
-115 -1348 0
-116 -1349 0
-117 -1350 0
-118 -616 0
-119 -617 0
-120 -618 0
-118 -1156 0
-119 -1157 0
-120 -1158 0
-121 -1054 0
-122 -1055 0
-123 -1056 0
-121 -1354 0
-122 -1355 0
-123 -1356 0
-121 -1486 0
-122 -1487 0
-123 -1488 0
-124 -190 0
-125 -191 0
-126 -192 0
-124 -412 0
-125 -413 0
-126 -414 0
-124 -586 0
-125 -587 0
-126 -588 0
-127 -196 0
-128 -197 0
-129 -198 0
-127 -205 0
-128 -206 0
-129 -207 0
-127 -217 0
-128 -218 0
-129 -219 0
-127 -268 0
-128 -269 0
-129 -270 0
-127 -400 0
-128 -401 0
-129 -402 0
-127 -640 0
-128 -641 0
-129 -642 0
-127 -838 0
-128 -839 0
-129 -840 0
-127 -949 0
-128 -950 0
-129 -951 0
-127 -1165 0
-128 -1166 0
-129 -1167 0
-127 -1216 0
-128 -1217 0
-129 -1218 0
-130 -664 0
-131 -665 0
-132 -666 0
-130 -901 0
-131 -902 0
-132 -903 0
-130 -1498 0
-131 -1499 0
-132 -1500 0
-133 -544 0
-134 -545 0
-135 -546 0
-133 -1108 0
-134 -1109 0
-135 -1110 0
-133 -1387 0
-134 -1388 0
-135 -1389 0
-136 -385 0
-137 -386 0
-138 -387 0
-136 -838 0
-137 -839 0
-138 -840 0
-136 -1267 0
-137 -1268 0
-138 -1269 0
-136 -1378 0
-137 -1379 0
-138 -1380 0
-139 -607 0
-140 -608 0
-141 -609 0
-139 -1216 0
-140 -1217 0
-141 -1218 0
-139 -1477 0
-140 -1478 0
-141 -1479 0
-142 -391 0
-143 -392 0
-144 -393 0
-142 -457 0
-143 -458 0
-144 -459 0
-142 -1312 0
-143 -1313 0
-144 -1314 0
-142 -1354 0
-143 -1355 0
-144 -1356 0
-142 -1360 0
-143 -1361 0
-144 -1362 0
-145 -676 0
-146 -677 0
-147 -678 0
-145 -697 0
-146 -698 0
-147 -699 0
-145 -1054 0
-146 -1055 0
-147 -1056 0
-145 -1348 0
-146 -1349 0
-147 -1350 0
-145 -1366 0
-146 -1367 0
-147 -1368 0
-148 -418 0
-149 -419 0
-150 -420 0
-148 -1162 0
-149 -1163 0
-150 -1164 0
-148 -1186 0
-149 -1187 0
-150 -1188 0
-148 -1189 0
-149 -1190 0
-150 -1191 0
-148 -1336 0
-149 -1337 0
-150 -1338 0
-151 -313 0
-152 -314 0
-153 -315 0
-151 -400 0
-152 -401 0
-153 -402 0
-151 -448 0
-152 -449 0
-153 -450 0
-151 -493 0
-152 -494 0
-153 -495 0
-151 -763 0
-152 -764 0
-153 -765 0
-151 -778 0
-152 -779 0
-153 -780 0
-151 -1483 0
-152 -1484 0
-153 -1485 0
-154 -550 0
-155 -551 0
-156 -552 0
-154 -604 0
-155 -605 0
-156 -606 0
-154 -685 0
-155 -686 0
-156 -687 0
-154 -1138 0
-155 -1139 0
-156 -1140 0
-157 -457 0
-158 -458 0
-159 -459 0
-157 -589 0
-158 -590 0
-159 -591 0
-157 -1084 0
-158 -1085 0
-159 -1086 0
-157 -1369 0
-158 -1370 0
-159 -1371 0
-160 -235 0
-161 -236 0
-162 -237 0
-160 -301 0
-161 -302 0
-162 -303 0
-160 -868 0
-161 -869 0
-162 -870 0
-163 -364 0
-164 -365 0
-165 -366 0
-163 -913 0
-164 -914 0
-165 -915 0
-163 -931 0
-164 -932 0
-165 -933 0
-163 -1099 0
-164 -1100 0
-165 -1101 0
-163 -1363 0
-164 -1364 0
-165 -1365 0
-166 -259 0
-167 -260 0
-168 -261 0
-166 -457 0
-167 -458 0
-168 -459 0
-166 -799 0
-167 -800 0
-168 -801 0
-166 -997 0
-167 -998 0
-168 -999 0
-169 -202 0
-170 -203 0
-171 -204 0
-169 -415 0
-170 -416 0
-171 -417 0
-169 -577 0
-170 -578 0
-171 -579 0
-169 -1156 0
-170 -1157 0
-171 -1158 0
-169 -1252 0
-170 -1253 0
-171 -1254 0
-172 -214 0
-173 -215 0
-174 -216 0
-172 -346 0
-173 -347 0
-174 -348 0
-172 -553 0
-173 -554 0
-174 -555 0
-175 -289 0
-176 -290 0
-177 -291 0
-175 -634 0
-176 -635 0
-177 -636 0
-175 -736 0
-176 -737 0
-177 -738 0
-175 -766 0
-176 -767 0
-177 -768 0
-175 -778 0
-176 -779 0
-177 -780 0
-175 -823 0
-176 -824 0
-177 -825 0
-175 -880 0
-176 -881 0
-177 -882 0
-175 -1186 0
-176 -1187 0
-177 -1188 0
-175 -1318 0
-176 -1319 0
-177 -1320 0
-178 -205 0
-179 -206 0
-180 -207 0
-178 -673 0
-179 -674 0
-180 -675 0
-178 -964 0
-179 -965 0
-180 -966 0
-178 -1171 0
-179 -1172 0
-180 -1173 0
-178 -1381 0
-179 -1382 0
-180 -1383 0
-178 -1390 0
-179 -1391 0
-180 -1392 0
-181 -370 0
-182 -371 0
-183 -372 0
-181 -403 0
-182 -404 0
-183 -405 0
-184 -526 0
-185 -527 0
-186 -528 0
-184 -862 0
-185 -863 0
-186 -864 0
-184 -1105 0
-185 -1106 0
-186 -1107 0
-184 -1297 0
-185 -1298 0
-186 -1299 0
-184 -1348 0
-185 -1349 0
-186 -1350 0
-184 -1462 0
-185 -1463 0
-186 -1464 0
-187 -319 0
-188 -320 0
-189 -321 0
-187 -520 0
-188 -521 0
-189 -522 0
-187 -739 0
-188 -740 0
-189 -741 0
-190 -301 0
-191 -302 0
-192 -303 0
-190 -925 0
-191 -926 0
-192 -927 0
-190 -1024 0
-191 -1025 0
-192 -1026 0
-190 -1378 0
-191 -1379 0
-192 -1380 0
-193 -562 0
-194 -563 0
-195 -564 0
-193 -583 0
-194 -584 0
-195 -585 0
-193 -703 0
-194 -704 0
-195 -705 0
-193 -1423 0
-194 -1424 0
-195 -1425 0
-196 -250 0
-197 -251 0
-198 -252 0
-196 -421 0
-197 -422 0
-198 -423 0
-196 -1162 0
-197 -1163 0
-198 -1164 0
-196 -1213 0
-197 -1214 0
-198 -1215 0
-199 -220 0
-200 -221 0
-201 -222 0
-199 -526 0
-200 -527 0
-201 -528 0
-199 -817 0
-200 -818 0
-201 -819 0
-199 -829 0
-200 -830 0
-201 -831 0
-199 -1000 0
-200 -1001 0
-201 -1002 0
-199 -1132 0
-200 -1133 0
-201 -1134 0
-199 -1210 0
-200 -1211 0
-201 -1212 0
-202 -796 0
-203 -797 0
-204 -798 0
-202 -1126 0
-203 -1127 0
-204 -1128 0
-202 -1303 0
-203 -1304 0
-204 -1305 0
-205 -1024 0
-206 -1025 0
-207 -1026 0
-205 -1462 0
-206 -1463 0
-207 -1464 0
-208 -253 0
-209 -254 0
-210 -255 0
-208 -583 0
-209 -584 0
-210 -585 0
-208 -1093 0
-209 -1094 0
-210 -1095 0
-211 -685 0
-212 -686 0
-213 -687 0
-211 -742 0
-212 -743 0
-213 -744 0
-211 -760 0
-212 -761 0
-213 -762 0
-211 -802 0
-212 -803 0
-213 -804 0
-211 -1483 0
-212 -1484 0
-213 -1485 0
-214 -226 0
-215 -227 0
-216 -228 0
-214 -454 0
-215 -455 0
-216 -456 0
-214 -502 0
-215 -503 0
-216 -504 0
-214 -934 0
-215 -935 0
-216 -936 0
-214 -1183 0
-215 -1184 0
-216 -1185 0
-214 -1207 0
-215 -1208 0
-216 -1209 0
-214 -1324 0
-215 -1325 0
-216 -1326 0
-214 -1360 0
-215 -1361 0
-216 -1362 0
-217 -811 0
-218 -812 0
-219 -813 0
-220 -304 0
-221 -305 0
-222 -306 0
-220 -409 0
-221 -410 0
-222 -411 0
-220 -1039 0
-221 -1040 0
-222 -1041 0
-220 -1222 0
-221 -1223 0
-222 -1224 0
-220 -1294 0
-221 -1295 0
-222 -1296 0
-220 -1432 0
-221 -1433 0
-222 -1434 0
-223 -238 0
-224 -239 0
-225 -240 0
-223 -424 0
-224 -425 0
-225 -426 0
-223 -595 0
-224 -596 0
-225 -597 0
-223 -919 0
-224 -920 0
-225 -921 0
-226 -385 0
-227 -386 0
-228 -387 0
-226 -409 0
-227 -410 0
-228 -411 0
-226 -778 0
-227 -779 0
-228 -780 0
-226 -1102 0
-227 -1103 0
-228 -1104 0
-229 -292 0
-230 -293 0
-231 -294 0
-229 -928 0
-230 -929 0
-231 -930 0
-229 -1126 0
-230 -1127 0
-231 -1128 0
-229 -1402 0
-230 -1403 0
-231 -1404 0
-229 -1432 0
-230 -1433 0
-231 -1434 0
-232 -493 0
-233 -494 0
-234 -495 0
-232 -955 0
-233 -956 0
-234 -957 0
-232 -1009 0
-233 -1010 0
-234 -1011 0
-235 -838 0
-236 -839 0
-237 -840 0
-235 -1201 0
-236 -1202 0
-237 -1203 0
-235 -1450 0
-236 -1451 0
-237 -1452 0
-238 -673 0
-239 -674 0
-240 -675 0
-238 -1189 0
-239 -1190 0
-240 -1191 0
-238 -1300 0
-239 -1301 0
-240 -1302 0
-241 -256 0
-242 -257 0
-243 -258 0
-241 -271 0
-242 -272 0
-243 -273 0
-241 -655 0
-242 -656 0
-243 -657 0
-241 -658 0
-242 -659 0
-243 -660 0
-241 -991 0
-242 -992 0
-243 -993 0
-241 -1288 0
-242 -1289 0
-243 -1290 0
-244 -1129 0
-245 -1130 0
-246 -1131 0
-247 -814 0
-248 -815 0
-249 -816 0
-247 -1474 0
-248 -1475 0
-249 -1476 0
-250 -268 0
-251 -269 0
-252 -270 0
-250 -436 0
-251 -437 0
-252 -438 0
-250 -1333 0
-251 -1334 0
-252 -1335 0
-250 -1426 0
-251 -1427 0
-252 -1428 0
-250 -1441 0
-251 -1442 0
-252 -1443 0
-253 -1126 0
-254 -1127 0
-255 -1128 0
-256 -289 0
-257 -290 0
-258 -291 0
-256 -379 0
-257 -380 0
-258 -381 0
-256 -919 0
-257 -920 0
-258 -921 0
-256 -1000 0
-257 -1001 0
-258 -1002 0
-259 -745 0
-260 -746 0
-261 -747 0
-259 -889 0
-260 -890 0
-261 -891 0
-259 -1045 0
-260 -1046 0
-261 -1047 0
-262 -910 0
-263 -911 0
-264 -912 0
-262 -973 0
-263 -974 0
-264 -975 0
-262 -1306 0
-263 -1307 0
-264 -1308 0
-265 -340 0
-266 -341 0
-267 -342 0
-265 -1111 0
-266 -1112 0
-267 -1113 0
-265 -1369 0
-266 -1370 0
-267 -1371 0
-268 -319 0
-269 -320 0
-270 -321 0
-271 -478 0
-272 -479 0
-273 -480 0
-271 -667 0
-272 -668 0
-273 -669 0
-271 -712 0
-272 -713 0
-273 -714 0
-271 -1057 0
-272 -1058 0
-273 -1059 0
-274 -754 0
-275 -755 0
-276 -756 0
-274 -997 0
-275 -998 0
-276 -999 0
-274 -1180 0
-275 -1181 0
-276 -1182 0
-274 -1357 0
-275 -1358 0
-276 -1359 0
-274 -1360 0
-275 -1361 0
-276 -1362 0
-277 -466 0
-278 -467 0
-279 -468 0
-277 -628 0
-278 -629 0
-279 -630 0
-277 -1126 0
-278 -1127 0
-279 -1128 0
-277 -1153 0
-278 -1154 0
-279 -1155 0
-280 -415 0
-281 -416 0
-282 -417 0
-280 -649 0
-281 -650 0
-282 -651 0
-283 -307 0
-284 -308 0
-285 -309 0
-283 -526 0
-284 -527 0
-285 -528 0
-283 -574 0
-284 -575 0
-285 -576 0
-286 -352 0
-287 -353 0
-288 -354 0
-286 -526 0
-287 -527 0
-288 -528 0
-286 -871 0
-287 -872 0
-288 -873 0
-286 -1024 0
-287 -1025 0
-288 -1026 0
-286 -1240 0
-287 -1241 0
-288 -1242 0
-286 -1480 0
-287 -1481 0
-288 -1482 0
-289 -1069 0
-290 -1070 0
-291 -1071 0
-289 -1264 0
-290 -1265 0
-291 -1266 0
-292 -442 0
-293 -443 0
-294 -444 0
-292 -448 0
-293 -449 0
-294 -450 0
-292 -643 0
-293 -644 0
-294 -645 0
-292 -742 0
-293 -743 0
-294 -744 0
-292 -961 0
-293 -962 0
-294 -963 0
-292 -1087 0
-293 -1088 0
-294 -1089 0
-295 -415 0
-296 -416 0
-297 -417 0
-295 -649 0
-296 -650 0
-297 -651 0
-295 -871 0
-296 -872 0
-297 -873 0
-295 -1282 0
-296 -1283 0
-297 -1284 0
-295 -1360 0
-296 -1361 0
-297 -1362 0
-295 -1372 0
-296 -1373 0
-297 -1374 0
-298 -739 0
-299 -740 0
-300 -741 0
-298 -1186 0
-299 -1187 0
-300 -1188 0
-298 -1240 0
-299 -1241 0
-300 -1242 0
-298 -1405 0
-299 -1406 0
-300 -1407 0
-298 -1471 0
-299 -1472 0
-300 -1473 0
-301 -325 0
-302 -326 0
-303 -327 0
-301 -388 0
-302 -389 0
-303 -390 0
-301 -535 0
-302 -536 0
-303 -537 0
-301 -733 0
-302 -734 0
-303 -735 0
-301 -1237 0
-302 -1238 0
-303 -1239 0
-301 -1480 0
-302 -1481 0
-303 -1482 0
-304 -496 0
-305 -497 0
-306 -498 0
-304 -610 0
-305 -611 0
-306 -612 0
-304 -787 0
-305 -788 0
-306 -789 0
-304 -940 0
-305 -941 0
-306 -942 0
-304 -1030 0
-305 -1031 0
-306 -1032 0
-304 -1375 0
-305 -1376 0
-306 -1377 0
-304 -1417 0
-305 -1418 0
-306 -1419 0
-310 -559 0
-311 -560 0
-312 -561 0
-310 -613 0
-311 -614 0
-312 -615 0
-310 -886 0
-311 -887 0
-312 -888 0
-310 -1141 0
-311 -1142 0
-312 -1143 0
-313 -349 0
-314 -350 0
-315 -351 0
-313 -952 0
-314 -953 0
-315 -954 0
-313 -1006 0
-314 -1007 0
-315 -1008 0
-313 -1108 0
-314 -1109 0
-315 -1110 0
-313 -1486 0
-314 -1487 0
-315 -1488 0
-316 -490 0
-317 -491 0
-318 -492 0
-316 -685 0
-317 -686 0
-318 -687 0
-316 -925 0
-317 -926 0
-318 -927 0
-316 -928 0
-317 -929 0
-318 -930 0
-316 -1279 0
-317 -1280 0
-318 -1281 0
-319 -880 0
-320 -881 0
-321 -882 0
-322 -430 0
-323 -431 0
-324 -432 0
-322 -841 0
-323 -842 0
-324 -843 0
-322 -1450 0
-323 -1451 0
-324 -1452 0
-325 -358 0
-326 -359 0
-327 -360 0
-325 -388 0
-326 -389 0
-327 -390 0
-325 -568 0
-326 -569 0
-327 -570 0
-325 -964 0
-326 -965 0
-327 -966 0
-325 -1057 0
-326 -1058 0
-327 -1059 0
-325 -1315 0
-326 -1316 0
-327 -1317 0
-328 -598 0
-329 -599 0
-330 -600 0
-328 -739 0
-329 -740 0
-330 -741 0
-328 -805 0
-329 -806 0
-330 -807 0
-328 -1156 0
-329 -1157 0
-330 -1158 0
-328 -1168 0
-329 -1169 0
-330 -1170 0
-331 -646 0
-332 -647 0
-333 -648 0
-331 -889 0
-332 -890 0
-333 -891 0
-331 -916 0
-332 -917 0
-333 -918 0
-331 -1168 0
-332 -1169 0
-333 -1170 0
-331 -1456 0
-332 -1457 0
-333 -1458 0
-334 -397 0
-335 -398 0
-336 -399 0
-334 -475 0
-335 -476 0
-336 -477 0
-334 -994 0
-335 -995 0
-336 -996 0
-337 -625 0
-338 -626 0
-339 -627 0
-337 -823 0
-338 -824 0
-339 -825 0
-337 -910 0
-338 -911 0
-339 -912 0
-337 -967 0
-338 -968 0
-339 -969 0
-337 -1201 0
-338 -1202 0
-339 -1203 0
-337 -1384 0
-338 -1385 0
-339 -1386 0
-340 -430 0
-341 -431 0
-342 -432 0
-340 -604 0
-341 -605 0
-342 -606 0
-340 -940 0
-341 -941 0
-342 -942 0
-340 -1069 0
-341 -1070 0
-342 -1071 0
-343 -370 0
-344 -371 0
-345 -372 0
-343 -739 0
-344 -740 0
-345 -741 0
-343 -1033 0
-344 -1034 0
-345 -1035 0
-343 -1102 0
-344 -1103 0
-345 -1104 0
-343 -1213 0
-344 -1214 0
-345 -1215 0
-343 -1222 0
-344 -1223 0
-345 -1224 0
-343 -1306 0
-344 -1307 0
-345 -1308 0
-343 -1315 0
-344 -1316 0
-345 -1317 0
-346 -358 0
-347 -359 0
-348 -360 0
-346 -634 0
-347 -635 0
-348 -636 0
-349 -601 0
-350 -602 0
-351 -603 0
-349 -853 0
-350 -854 0
-351 -855 0
-352 -475 0
-353 -476 0
-354 -477 0
-352 -682 0
-353 -683 0
-354 -684 0
-355 -499 0
-356 -500 0
-357 -501 0
-355 -589 0
-356 -590 0
-357 -591 0
-358 -403 0
-359 -404 0
-360 -405 0
-358 -637 0
-359 -638 0
-360 -639 0
-358 -817 0
-359 -818 0
-360 -819 0
-358 -1285 0
-359 -1286 0
-360 -1287 0
-361 -481 0
-362 -482 0
-363 -483 0
-361 -1261 0
-362 -1262 0
-363 -1263 0
-364 -478 0
-365 -479 0
-366 -480 0
-364 -1168 0
-365 -1169 0
-366 -1170 0
-364 -1351 0
-365 -1352 0
-366 -1353 0
-364 -1474 0
-365 -1475 0
-366 -1476 0
-367 -883 0
-368 -884 0
-369 -885 0
-367 -928 0
-368 -929 0
-369 -930 0
-367 -1213 0
-368 -1214 0
-369 -1215 0
-367 -1240 0
-368 -1241 0
-369 -1242 0
-367 -1264 0
-368 -1265 0
-369 -1266 0
-370 -391 0
-371 -392 0
-372 -393 0
-370 -1174 0
-371 -1175 0
-372 -1176 0
-373 -541 0
-374 -542 0
-375 -543 0
-373 -652 0
-374 -653 0
-375 -654 0
-373 -1033 0
-374 -1034 0
-375 -1035 0
-373 -1276 0
-374 -1277 0
-375 -1278 0
-373 -1306 0
-374 -1307 0
-375 -1308 0
-379 -781 0
-380 -782 0
-381 -783 0
-379 -1081 0
-380 -1082 0
-381 -1083 0
-379 -1108 0
-380 -1109 0
-381 -1110 0
-382 -778 0
-383 -779 0
-384 -780 0
-382 -940 0
-383 -941 0
-384 -942 0
-385 -406 0
-386 -407 0
-387 -408 0
-385 -871 0
-386 -872 0
-387 -873 0
-385 -1108 0
-386 -1109 0
-387 -1110 0
-385 -1432 0
-386 -1433 0
-387 -1434 0
-385 -1435 0
-386 -1436 0
-387 -1437 0
-388 -691 0
-389 -692 0
-390 -693 0
-388 -940 0
-389 -941 0
-390 -942 0
-388 -1273 0
-389 -1274 0
-390 -1275 0
-388 -1354 0
-389 -1355 0
-390 -1356 0
-391 -487 0
-392 -488 0
-393 -489 0
-391 -838 0
-392 -839 0
-393 -840 0
-391 -958 0
-392 -959 0
-393 -960 0
-397 -619 0
-398 -620 0
-399 -621 0
-397 -928 0
-398 -929 0
-399 -930 0
-397 -961 0
-398 -962 0
-399 -963 0
-397 -1036 0
-398 -1037 0
-399 -1038 0
-397 -1105 0
-398 -1106 0
-399 -1107 0
-397 -1348 0
-398 -1349 0
-399 -1350 0
-400 -610 0
-401 -611 0
-402 -612 0
-400 -763 0
-401 -764 0
-402 -765 0
-400 -1063 0
-401 -1064 0
-402 -1065 0
-400 -1471 0
-401 -1472 0
-402 -1473 0
-403 -649 0
-404 -650 0
-405 -651 0
-403 -667 0
-404 -668 0
-405 -669 0
-406 -442 0
-407 -443 0
-408 -444 0
-406 -460 0
-407 -461 0
-408 -462 0
-406 -562 0
-407 -563 0
-408 -564 0
-406 -1114 0
-407 -1115 0
-408 -1116 0
-406 -1198 0
-407 -1199 0
-408 -1200 0
-409 -472 0
-410 -473 0
-411 -474 0
-409 -769 0
-410 -770 0
-411 -771 0
-409 -1063 0
-410 -1064 0
-411 -1065 0
-409 -1327 0
-410 -1328 0
-411 -1329 0
-409 -1429 0
-410 -1430 0
-411 -1431 0
-412 -547 0
-413 -548 0
-414 -549 0
-412 -1129 0
-413 -1130 0
-414 -1131 0
-412 -1291 0
-413 -1292 0
-414 -1293 0
-415 -436 0
-416 -437 0
-417 -438 0
-415 -502 0
-416 -503 0
-417 -504 0
-415 -853 0
-416 -854 0
-417 -855 0
-415 -1303 0
-416 -1304 0
-417 -1305 0
-418 -1342 0
-419 -1343 0
-420 -1344 0
-421 -508 0
-422 -509 0
-423 -510 0
-421 -1228 0
-422 -1229 0
-423 -1230 0
-424 -1015 0
-425 -1016 0
-426 -1017 0
-424 -1057 0
-425 -1058 0
-426 -1059 0
-424 -1129 0
-425 -1130 0
-426 -1131 0
-424 -1189 0
-425 -1190 0
-426 -1191 0
-424 -1444 0
-425 -1445 0
-426 -1446 0
-427 -553 0
-428 -554 0
-429 -555 0
-427 -664 0
-428 -665 0
-429 -666 0
-427 -1324 0
-428 -1325 0
-429 -1326 0
-430 -844 0
-431 -845 0
-432 -846 0
-430 -1357 0
-431 -1358 0
-432 -1359 0
-433 -1183 0
-434 -1184 0
-435 -1185 0
-436 -508 0
-437 -509 0
-438 -510 0
-436 -673 0
-437 -674 0
-438 -675 0
-436 -766 0
-437 -767 0
-438 -768 0
-436 -1018 0
-437 -1019 0
-438 -1020 0
-436 -1075 0
-437 -1076 0
-438 -1077 0
-436 -1450 0
-437 -1451 0
-438 -1452 0
-439 -763 0
-440 -764 0
-441 -765 0
-439 -856 0
-440 -857 0
-441 -858 0
-439 -1261 0
-440 -1262 0
-441 -1263 0
-442 -469 0
-443 -470 0
-444 -471 0
-442 -583 0
-443 -584 0
-444 -585 0
-442 -850 0
-443 -851 0
-444 -852 0
-442 -1114 0
-443 -1115 0
-444 -1116 0
-442 -1192 0
-443 -1193 0
-444 -1194 0
-445 -586 0
-446 -587 0
-447 -588 0
-445 -1183 0
-446 -1184 0
-447 -1185 0
-445 -1294 0
-446 -1295 0
-447 -1296 0
-448 -859 0
-449 -860 0
-450 -861 0
-448 -901 0
-449 -902 0
-450 -903 0
-448 -1201 0
-449 -1202 0
-450 -1203 0
-448 -1207 0
-449 -1208 0
-450 -1209 0
-448 -1462 0
-449 -1463 0
-450 -1464 0
-451 -475 0
-452 -476 0
-453 -477 0
-451 -598 0
-452 -599 0
-453 -600 0
-451 -652 0
-452 -653 0
-453 -654 0
-451 -1195 0
-452 -1196 0
-453 -1197 0
-451 -1354 0
-452 -1355 0
-453 -1356 0
-454 -484 0
-455 -485 0
-456 -486 0
-454 -637 0
-455 -638 0
-456 -639 0
-454 -853 0
-455 -854 0
-456 -855 0
-454 -1111 0
-455 -1112 0
-456 -1113 0
-457 -664 0
-458 -665 0
-459 -666 0
-460 -1081 0
-461 -1082 0
-462 -1083 0
-460 -1102 0
-461 -1103 0
-462 -1104 0
-460 -1405 0
-461 -1406 0
-462 -1407 0
-463 -1225 0
-464 -1226 0
-465 -1227 0
-463 -1246 0
-464 -1247 0
-465 -1248 0
-466 -538 0
-467 -539 0
-468 -540 0
-466 -733 0
-467 -734 0
-468 -735 0
-466 -772 0
-467 -773 0
-468 -774 0
-466 -970 0
-467 -971 0
-468 -972 0
-466 -1309 0
-467 -1310 0
-468 -1311 0
-466 -1387 0
-467 -1388 0
-468 -1389 0
-466 -1477 0
-467 -1478 0
-468 -1479 0
-469 -1039 0
-470 -1040 0
-471 -1041 0
-469 -1066 0
-470 -1067 0
-471 -1068 0
-469 -1108 0
-470 -1109 0
-471 -1110 0
-469 -1213 0
-470 -1214 0
-471 -1215 0
-469 -1426 0
-470 -1427 0
-471 -1428 0
-472 -634 0
-473 -635 0
-474 -636 0
-472 -1489 0
-473 -1490 0
-474 -1491 0
-475 -781 0
-476 -782 0
-477 -783 0
-475 -1165 0
-476 -1166 0
-477 -1167 0
-478 -625 0
-479 -626 0
-480 -627 0
-478 -1009 0
-479 -1010 0
-480 -1011 0
-478 -1015 0
-479 -1016 0
-480 -1017 0
-481 -541 0
-482 -542 0
-483 -543 0
-481 -850 0
-482 -851 0
-483 -852 0
-481 -1075 0
-482 -1076 0
-483 -1077 0
-481 -1099 0
-482 -1100 0
-483 -1101 0
-481 -1378 0
-482 -1379 0
-483 -1380 0
-481 -1480 0
-482 -1481 0
-483 -1482 0
-484 -541 0
-485 -542 0
-486 -543 0
-484 -694 0
-485 -695 0
-486 -696 0
-484 -907 0
-485 -908 0
-486 -909 0
-484 -1375 0
-485 -1376 0
-486 -1377 0
-484 -1438 0
-485 -1439 0
-486 -1440 0
-487 -1456 0
-488 -1457 0
-489 -1458 0
-490 -589 0
-491 -590 0
-492 -591 0
-490 -1144 0
-491 -1145 0
-492 -1146 0
-490 -1495 0
-491 -1496 0
-492 -1497 0
-493 -559 0
-494 -560 0
-495 -561 0
-493 -751 0
-494 -752 0
-495 -753 0
-493 -901 0
-494 -902 0
-495 -903 0
-493 -958 0
-494 -959 0
-495 -960 0
-493 -961 0
-494 -962 0
-495 -963 0
-493 -1006 0
-494 -1007 0
-495 -1008 0
-493 -1048 0
-494 -1049 0
-495 -1050 0
-493 -1234 0
-494 -1235 0
-495 -1236 0
-496 -790 0
-497 -791 0
-498 -792 0
-496 -991 0
-497 -992 0
-498 -993 0
-499 -718 0
-500 -719 0
-501 -720 0
-499 -1012 0
-500 -1013 0
-501 -1014 0
-499 -1450 0
-500 -1451 0
-501 -1452 0
-502 -646 0
-503 -647 0
-504 -648 0
-502 -820 0
-503 -821 0
-504 -822 0
-502 -946 0
-503 -947 0
-504 -948 0
-502 -1177 0
-503 -1178 0
-504 -1179 0
-505 -1270 0
-506 -1271 0
-507 -1272 0
-505 -1384 0
-506 -1385 0
-507 -1386 0
-508 -1252 0
-509 -1253 0
-510 -1254 0
-508 -1393 0
-509 -1394 0
-510 -1395 0
-511 -1120 0
-512 -1121 0
-513 -1122 0
-514 -847 0
-515 -848 0
-516 -849 0
-514 -1099 0
-515 -1100 0
-516 -1101 0
-514 -1213 0
-515 -1214 0
-516 -1215 0
-517 -577 0
-518 -578 0
-519 -579 0
-517 -1153 0
-518 -1154 0
-519 -1155 0
-517 -1432 0
-518 -1433 0
-519 -1434 0
-517 -1456 0
-518 -1457 0
-519 -1458 0
-517 -1486 0
-518 -1487 0
-519 -1488 0
-520 -778 0
-521 -779 0
-522 -780 0
-523 -823 0
-524 -824 0
-525 -825 0
-526 -1096 0
-527 -1097 0
-528 -1098 0
-529 -664 0
-530 -665 0
-531 -666 0
-529 -1444 0
-530 -1445 0
-531 -1446 0
-532 -910 0
-533 -911 0
-534 -912 0
-532 -1192 0
-533 -1193 0
-534 -1194 0
-535 -1321 0
-536 -1322 0
-537 -1323 0
-538 -541 0
-539 -542 0
-540 -543 0
-538 -544 0
-539 -545 0
-540 -546 0
-538 -562 0
-539 -563 0
-540 -564 0
-538 -796 0
-539 -797 0
-540 -798 0
-538 -1408 0
-539 -1409 0
-540 -1410 0
-541 -652 0
-542 -653 0
-543 -654 0
-541 -1441 0
-542 -1442 0
-543 -1443 0
-544 -604 0
-545 -605 0
-546 -606 0
-544 -715 0
-545 -716 0
-546 -717 0
-544 -787 0
-545 -788 0
-546 -789 0
-544 -967 0
-545 -968 0
-546 -969 0
-544 -1465 0
-545 -1466 0
-546 -1467 0
-547 -589 0
-548 -590 0
-549 -591 0
-547 -1018 0
-548 -1019 0
-549 -1020 0
-547 -1141 0
-548 -1142 0
-549 -1143 0
-550 -601 0
-551 -602 0
-552 -603 0
-550 -850 0
-551 -851 0
-552 -852 0
-550 -922 0
-551 -923 0
-552 -924 0
-550 -1087 0
-551 -1088 0
-552 -1089 0
-550 -1495 0
-551 -1496 0
-552 -1497 0
-553 -556 0
-554 -557 0
-555 -558 0
-553 -1057 0
-554 -1058 0
-555 -1059 0
-553 -1120 0
-554 -1121 0
-555 -1122 0
-553 -1141 0
-554 -1142 0
-555 -1143 0
-553 -1282 0
-554 -1283 0
-555 -1284 0
-556 -724 0
-557 -725 0
-558 -726 0
-556 -1057 0
-557 -1058 0
-558 -1059 0
-556 -1198 0
-557 -1199 0
-558 -1200 0
-556 -1318 0
-557 -1319 0
-558 -1320 0
-559 -736 0
-560 -737 0
-561 -738 0
-559 -889 0
-560 -890 0
-561 -891 0
-559 -1003 0
-560 -1004 0
-561 -1005 0
-562 -784 0
-563 -785 0
-564 -786 0
-562 -910 0
-563 -911 0
-564 -912 0
-562 -979 0
-563 -980 0
-564 -981 0
-562 -1498 0
-563 -1499 0
-564 -1500 0
-565 -592 0
-566 -593 0
-567 -594 0
-565 -658 0
-566 -659 0
-567 -660 0
-565 -877 0
-566 -878 0
-567 -879 0
-565 -943 0
-566 -944 0
-567 -945 0
-565 -1063 0
-566 -1064 0
-567 -1065 0
-565 -1204 0
-566 -1205 0
-567 -1206 0
-568 -829 0
-569 -830 0
-570 -831 0
-568 -1189 0
-569 -1190 0
-570 -1191 0
-568 -1351 0
-569 -1352 0
-570 -1353 0
-568 -1354 0
-569 -1355 0
-570 -1356 0
-571 -613 0
-572 -614 0
-573 -615 0
-571 -1135 0
-572 -1136 0
-573 -1137 0
-571 -1210 0
-572 -1211 0
-573 -1212 0
-574 -580 0
-575 -581 0
-576 -582 0
-574 -913 0
-575 -914 0
-576 -915 0
-574 -928 0
-575 -929 0
-576 -930 0
-574 -1090 0
-575 -1091 0
-576 -1092 0
-574 -1345 0
-575 -1346 0
-576 -1347 0
-574 -1432 0
-575 -1433 0
-576 -1434 0
-577 -1381 0
-578 -1382 0
-579 -1383 0
-580 -1027 0
-581 -1028 0
-582 -1029 0
-580 -1300 0
-581 -1301 0
-582 -1302 0
-583 -1144 0
-584 -1145 0
-585 -1146 0
-586 -640 0
-587 -641 0
-588 -642 0
-586 -1108 0
-587 -1109 0
-588 -1110 0
-586 -1267 0
-587 -1268 0
-588 -1269 0
-586 -1342 0
-587 -1343 0
-588 -1344 0
-586 -1360 0
-587 -1361 0
-588 -1362 0
-592 -865 0
-593 -866 0
-594 -867 0
-592 -901 0
-593 -902 0
-594 -903 0
-592 -955 0
-593 -956 0
-594 -957 0
-592 -1438 0
-593 -1439 0
-594 -1440 0
-595 -829 0
-596 -830 0
-597 -831 0
-595 -856 0
-596 -857 0
-597 -858 0
-595 -898 0
-596 -899 0
-597 -900 0
-595 -1144 0
-596 -1145 0
-597 -1146 0
-595 -1447 0
-596 -1448 0
-597 -1449 0
-598 -1264 0
-599 -1265 0
-600 -1266 0
-601 -1138 0
-602 -1139 0
-603 -1140 0
-601 -1168 0
-602 -1169 0
-603 -1170 0
-604 -1132 0
-605 -1133 0
-606 -1134 0
-607 -913 0
-608 -914 0
-609 -915 0
-607 -1135 0
-608 -1136 0
-609 -1137 0
-607 -1303 0
-608 -1304 0
-609 -1305 0
-610 -784 0
-611 -785 0
-612 -786 0
-613 -1066 0
-614 -1067 0
-615 -1068 0
-613 -1405 0
-614 -1406 0
-615 -1407 0
-613 -1477 0
-614 -1478 0
-615 -1479 0
-616 -793 0
-617 -794 0
-618 -795 0
-616 -832 0
-617 -833 0
-618 -834 0
-616 -1180 0
-617 -1181 0
-618 -1182 0
-616 -1450 0
-617 -1451 0
-618 -1452 0
-619 -1111 0
-620 -1112 0
-621 -1113 0
-622 -646 0
-623 -647 0
-624 -648 0
-622 -760 0
-623 -761 0
-624 -762 0
-622 -904 0
-623 -905 0
-624 -906 0
-622 -1066 0
-623 -1067 0
-624 -1068 0
-622 -1303 0
-623 -1304 0
-624 -1305 0
-622 -1498 0
-623 -1499 0
-624 -1500 0
-625 -1279 0
-626 -1280 0
-627 -1281 0
-625 -1372 0
-626 -1373 0
-627 -1374 0
-628 -1114 0
-629 -1115 0
-630 -1116 0
-628 -1456 0
-629 -1457 0
-630 -1458 0
-631 -949 0
-632 -950 0
-633 -951 0
-634 -1159 0
-635 -1160 0
-636 -1161 0
-634 -1279 0
-635 -1280 0
-636 -1281 0
-634 -1363 0
-635 -1364 0
-636 -1365 0
-637 -1027 0
-638 -1028 0
-639 -1029 0
-637 -1042 0
-638 -1043 0
-639 -1044 0
-637 -1222 0
-638 -1223 0
-639 -1224 0
-640 -1336 0
-641 -1337 0
-642 -1338 0
-640 -1366 0
-641 -1367 0
-642 -1368 0
-640 -1483 0
-641 -1484 0
-642 -1485 0
-643 -709 0
-644 -710 0
-645 -711 0
-646 -691 0
-647 -692 0
-648 -693 0
-646 -913 0
-647 -914 0
-648 -915 0
-646 -1459 0
-647 -1460 0
-648 -1461 0
-649 -946 0
-650 -947 0
-651 -948 0
-649 -958 0
-650 -959 0
-651 -960 0
-649 -1084 0
-650 -1085 0
-651 -1086 0
-652 -1174 0
-653 -1175 0
-654 -1176 0
-652 -1324 0
-653 -1325 0
-654 -1326 0
-652 -1498 0
-653 -1499 0
-654 -1500 0
-655 -679 0
-656 -680 0
-657 -681 0
-655 -937 0
-656 -938 0
-657 -939 0
-655 -1138 0
-656 -1139 0
-657 -1140 0
-655 -1312 0
-656 -1313 0
-657 -1314 0
-655 -1333 0
-656 -1334 0
-657 -1335 0
-658 -718 0
-659 -719 0
-660 -720 0
-658 -1027 0
-659 -1028 0
-660 -1029 0
-658 -1174 0
-659 -1175 0
-660 -1176 0
-658 -1189 0
-659 -1190 0
-660 -1191 0
-661 -1027 0
-662 -1028 0
-663 -1029 0
-667 -1009 0
-668 -1010 0
-669 -1011 0
-670 -700 0
-671 -701 0
-672 -702 0
-670 -1054 0
-671 -1055 0
-672 -1056 0
-670 -1234 0
-671 -1235 0
-672 -1236 0
-670 -1243 0
-671 -1244 0
-672 -1245 0
-670 -1381 0
-671 -1382 0
-672 -1383 0
-673 -1054 0
-674 -1055 0
-675 -1056 0
-673 -1210 0
-674 -1211 0
-675 -1212 0
-673 -1372 0
-674 -1373 0
-675 -1374 0
-673 -1426 0
-674 -1427 0
-675 -1428 0
-676 -1081 0
-677 -1082 0
-678 -1083 0
-676 -1252 0
-677 -1253 0
-678 -1254 0
-679 -790 0
-680 -791 0
-681 -792 0
-679 -838 0
-680 -839 0
-681 -840 0
-679 -934 0
-680 -935 0
-681 -936 0
-679 -1171 0
-680 -1172 0
-681 -1173 0
-679 -1213 0
-680 -1214 0
-681 -1215 0
-679 -1408 0
-680 -1409 0
-681 -1410 0
-679 -1465 0
-680 -1466 0
-681 -1467 0
-679 -1486 0
-680 -1487 0
-681 -1488 0
-682 -1096 0
-683 -1097 0
-684 -1098 0
-685 -1483 0
-686 -1484 0
-687 -1485 0
-688 -859 0
-689 -860 0
-690 -861 0
-691 -1129 0
-692 -1130 0
-693 -1131 0
-694 -739 0
-695 -740 0
-696 -741 0
-694 -796 0
-695 -797 0
-696 -798 0
-694 -1153 0
-695 -1154 0
-696 -1155 0
-694 -1174 0
-695 -1175 0
-696 -1176 0
-697 -769 0
-698 -770 0
-699 -771 0
-700 -862 0
-701 -863 0
-702 -864 0
-700 -1168 0
-701 -1169 0
-702 -1170 0
-706 -718 0
-707 -719 0
-708 -720 0
-706 -1045 0
-707 -1046 0
-708 -1047 0
-706 -1480 0
-707 -1481 0
-708 -1482 0
-709 -778 0
-710 -779 0
-711 -780 0
-709 -1231 0
-710 -1232 0
-711 -1233 0
-712 -1462 0
-713 -1463 0
-714 -1464 0
-715 -1117 0
-716 -1118 0
-717 -1119 0
-715 -1198 0
-716 -1199 0
-717 -1200 0
-715 -1204 0
-716 -1205 0
-717 -1206 0
-715 -1435 0
-716 -1436 0
-717 -1437 0
-718 -925 0
-719 -926 0
-720 -927 0
-721 -1012 0
-722 -1013 0
-723 -1014 0
-721 -1330 0
-722 -1331 0
-723 -1332 0
-724 -1081 0
-725 -1082 0
-726 -1083 0
-724 -1222 0
-725 -1223 0
-726 -1224 0
-724 -1321 0
-725 -1322 0
-726 -1323 0
-730 -1129 0
-731 -1130 0
-732 -1131 0
-733 -862 0
-734 -863 0
-735 -864 0
-733 -949 0
-734 -950 0
-735 -951 0
-733 -1207 0
-734 -1208 0
-735 -1209 0
-736 -775 0
-737 -776 0
-738 -777 0
-736 -1096 0
-737 -1097 0
-738 -1098 0
-739 -892 0
-740 -893 0
-741 -894 0
-739 -895 0
-740 -896 0
-741 -897 0
-739 -940 0
-740 -941 0
-741 -942 0
-739 -1123 0
-740 -1124 0
-741 -1125 0
-739 -1402 0
-740 -1403 0
-741 -1404 0
-742 -1069 0
-743 -1070 0
-744 -1071 0
-742 -1207 0
-743 -1208 0
-744 -1209 0
-745 -1468 0
-746 -1469 0
-747 -1470 0
-748 -817 0
-749 -818 0
-750 -819 0
-748 -1474 0
-749 -1475 0
-750 -1476 0
-748 -1492 0
-749 -1493 0
-750 -1494 0
-751 -1327 0
-752 -1328 0
-753 -1329 0
-754 -757 0
-755 -758 0
-756 -759 0
-754 -1195 0
-755 -1196 0
-756 -1197 0
-757 -1261 0
-758 -1262 0
-759 -1263 0
-760 -856 0
-761 -857 0
-762 -858 0
-763 -802 0
-764 -803 0
-765 -804 0
-763 -919 0
-764 -920 0
-765 -921 0
-763 -949 0
-764 -950 0
-765 -951 0
-763 -1159 0
-764 -1160 0
-765 -1161 0
-763 -1255 0
-764 -1256 0
-765 -1257 0
-763 -1261 0
-764 -1262 0
-765 -1263 0
-766 -829 0
-767 -830 0
-768 -831 0
-766 -964 0
-767 -965 0
-768 -966 0
-766 -1492 0
-767 -1493 0
-768 -1494 0
-772 -850 0
-773 -851 0
-774 -852 0
-772 -1159 0
-773 -1160 0
-774 -1161 0
-772 -1333 0
-773 -1334 0
-774 -1335 0
-772 -1372 0
-773 -1373 0
-774 -1374 0
-775 -1324 0
-776 -1325 0
-777 -1326 0
-775 -1387 0
-776 -1388 0
-777 -1389 0
-778 -889 0
-779 -890 0
-780 -891 0
-778 -1423 0
-779 -1424 0
-780 -1425 0
-781 -928 0
-782 -929 0
-783 -930 0
-781 -1075 0
-782 -1076 0
-783 -1077 0
-781 -1156 0
-782 -1157 0
-783 -1158 0
-781 -1210 0
-782 -1211 0
-783 -1212 0
-784 -1411 0
-785 -1412 0
-786 -1413 0
-787 -853 0
-788 -854 0
-789 -855 0
-787 -949 0
-788 -950 0
-789 -951 0
-787 -1015 0
-788 -1016 0
-789 -1017 0
-790 -850 0
-791 -851 0
-792 -852 0
-790 -1114 0
-791 -1115 0
-792 -1116 0
-793 -985 0
-794 -986 0
-795 -987 0
-799 -1477 0
-800 -1478 0
-801 -1479 0
-802 -1252 0
-803 -1253 0
-804 -1254 0
-805 -838 0
-806 -839 0
-807 -840 0
-808 -826 0
-809 -827 0
-810 -828 0
-808 -916 0
-809 -917 0
-810 -918 0
-811 -832 0
-812 -833 0
-813 -834 0
-811 -1387 0
-812 -1388 0
-813 -1389 0
-814 -868 0
-815 -869 0
-816 -870 0
-814 -1216 0
-815 -1217 0
-816 -1218 0
-814 -1222 0
-815 -1223 0
-816 -1224 0
-817 -1288 0
-818 -1289 0
-819 -1290 0
-820 -1123 0
-821 -1124 0
-822 -1125 0
-820 -1396 0
-821 -1397 0
-822 -1398 0
-823 -871 0
-824 -872 0
-825 -873 0
-826 -835 0
-827 -836 0
-828 -837 0
-826 -907 0
-827 -908 0
-828 -909 0
-826 -1054 0
-827 -1055 0
-828 -1056 0
-826 -1105 0
-827 -1106 0
-828 -1107 0
-829 -847 0
-830 -848 0
-831 -849 0
-829 -880 0
-830 -881 0
-831 -882 0
-832 -898 0
-833 -899 0
-834 -900 0
-832 -1018 0
-833 -1019 0
-834 -1020 0
-832 -1135 0
-833 -1136 0
-834 -1137 0
-832 -1174 0
-833 -1175 0
-834 -1176 0
-832 -1249 0
-833 -1250 0
-834 -1251 0
-832 -1381 0
-833 -1382 0
-834 -1383 0
-835 -874 0
-836 -875 0
-837 -876 0
-838 -982 0
-839 -983 0
-840 -984 0
-838 -1084 0
-839 -1085 0
-840 -1086 0
-838 -1228 0
-839 -1229 0
-840 -1230 0
-838 -1399 0
-839 -1400 0
-840 -1401 0
-838 -1444 0
-839 -1445 0
-840 -1446 0
-838 -1480 0
-839 -1481 0
-840 -1482 0
-847 -883 0
-848 -884 0
-849 -885 0
-847 -1060 0
-848 -1061 0
-849 -1062 0
-847 -1204 0
-848 -1205 0
-849 -1206 0
-850 -1315 0
-851 -1316 0
-852 -1317 0
-850 -1375 0
-851 -1376 0
-852 -1377 0
-853 -1021 0
-854 -1022 0
-855 -1023 0
-853 -1426 0
-854 -1427 0
-855 -1428 0
-859 -1204 0
-860 -1205 0
-861 -1206 0
-859 -1249 0
-860 -1250 0
-861 -1251 0
-859 -1471 0
-860 -1472 0
-861 -1473 0
-859 -1483 0
-860 -1484 0
-861 -1485 0
-865 -1138 0
-866 -1139 0
-867 -1140 0
-865 -1147 0
-866 -1148 0
-867 -1149 0
-865 -1468 0
-866 -1469 0
-867 -1470 0
-868 -1129 0
-869 -1130 0
-870 -1131 0
-868 -1312 0
-869 -1313 0
-870 -1314 0
-871 -886 0
-872 -887 0
-873 -888 0
-871 -979 0
-872 -980 0
-873 -981 0
-871 -1486 0
-872 -1487 0
-873 -1488 0
-874 -877 0
-875 -878 0
-876 -879 0
-874 -1114 0
-875 -1115 0
-876 -1116 0
-874 -1216 0
-875 -1217 0
-876 -1218 0
-874 -1444 0
-875 -1445 0
-876 -1446 0
-874 -1492 0
-875 -1493 0
-876 -1494 0
-880 -1180 0
-881 -1181 0
-882 -1182 0
-880 -1399 0
-881 -1400 0
-882 -1401 0
-883 -898 0
-884 -899 0
-885 -900 0
-883 -913 0
-884 -914 0
-885 -915 0
-883 -1330 0
-884 -1331 0
-885 -1332 0
-883 -1366 0
-884 -1367 0
-885 -1368 0
-883 -1459 0
-884 -1460 0
-885 -1461 0
-886 -1033 0
-887 -1034 0
-888 -1035 0
-886 -1396 0
-887 -1397 0
-888 -1398 0
-889 -988 0
-890 -989 0
-891 -990 0
-892 -1042 0
-893 -1043 0
-894 -1044 0
-892 -1165 0
-893 -1166 0
-894 -1167 0
-892 -1192 0
-893 -1193 0
-894 -1194 0
-892 -1324 0
-893 -1325 0
-894 -1326 0
-892 -1354 0
-893 -1355 0
-894 -1356 0
-892 -1423 0
-893 -1424 0
-894 -1425 0
-895 -1024 0
-896 -1025 0
-897 -1026 0
-898 -1399 0
-899 -1400 0
-900 -1401 0
-904 -964 0
-905 -965 0
-906 -966 0
-904 -1081 0
-905 -1082 0
-906 -1083 0
-904 -1108 0
-905 -1109 0
-906 -1110 0
-904 -1123 0
-905 -1124 0
-906 -1125 0
-904 -1153 0
-905 -1154 0
-906 -1155 0
-904 -1258 0
-905 -1259 0
-906 -1260 0
-904 -1372 0
-905 -1373 0
-906 -1374 0
-907 -1024 0
-908 -1025 0
-909 -1026 0
-907 -1282 0
-908 -1283 0
-909 -1284 0
-910 -931 0
-911 -932 0
-912 -933 0
-910 -1027 0
-911 -1028 0
-912 -1029 0
-913 -988 0
-914 -989 0
-915 -990 0
-913 -1486 0
-914 -1487 0
-915 -1488 0
-916 -1090 0
-917 -1091 0
-918 -1092 0
-916 -1465 0
-917 -1466 0
-918 -1467 0
-919 -1012 0
-920 -1013 0
-921 -1014 0
-919 -1114 0
-920 -1115 0
-921 -1116 0
-922 -1462 0
-923 -1463 0
-924 -1464 0
-925 -1165 0
-926 -1166 0
-927 -1167 0
-928 -1294 0
-929 -1295 0
-930 -1296 0
-931 -961 0
-932 -962 0
-933 -963 0
-931 -997 0
-932 -998 0
-933 -999 0
-931 -1075 0
-932 -1076 0
-933 -1077 0
-937 -1477 0
-938 -1478 0
-939 -1479 0
-940 -967 0
-941 -968 0
-942 -969 0
-940 -1069 0
-941 -1070 0
-942 -1071 0
-943 -1000 0
-944 -1001 0
-945 -1002 0
-943 -1063 0
-944 -1064 0
-945 -1065 0
-946 -1300 0
-947 -1301 0
-948 -1302 0
-946 -1411 0
-947 -1412 0
-948 -1413 0
-949 -1156 0
-950 -1157 0
-951 -1158 0
-949 -1324 0
-950 -1325 0
-951 -1326 0
-952 -1294 0
-953 -1295 0
-954 -1296 0
-955 -1138 0
-956 -1139 0
-957 -1140 0
-955 -1288 0
-956 -1289 0
-957 -1290 0
-958 -1054 0
-959 -1055 0
-960 -1056 0
-958 -1066 0
-959 -1067 0
-960 -1068 0
-958 -1234 0
-959 -1235 0
-960 -1236 0
-958 -1498 0
-959 -1499 0
-960 -1500 0
-964 -1018 0
-965 -1019 0
-966 -1020 0
-967 -1078 0
-968 -1079 0
-969 -1080 0
-967 -1168 0
-968 -1169 0
-969 -1170 0
-970 -1033 0
-971 -1034 0
-972 -1035 0
-970 -1162 0
-971 -1163 0
-972 -1164 0
-970 -1255 0
-971 -1256 0
-972 -1257 0
-970 -1309 0
-971 -1310 0
-972 -1311 0
-976 -1036 0
-977 -1037 0
-978 -1038 0
-976 -1333 0
-977 -1334 0
-978 -1335 0
-979 -1084 0
-980 -1085 0
-981 -1086 0
-979 -1114 0
-980 -1115 0
-981 -1116 0
-979 -1417 0
-980 -1418 0
-981 -1419 0
-979 -1471 0
-980 -1472 0
-981 -1473 0
-982 -1189 0
-983 -1190 0
-984 -1191 0
-985 -1024 0
-986 -1025 0
-987 -1026 0
-985 -1111 0
-986 -1112 0
-987 -1113 0
-985 -1237 0
-986 -1238 0
-987 -1239 0
-985 -1483 0
-986 -1484 0
-987 -1485 0
-988 -1285 0
-989 -1286 0
-990 -1287 0
-991 -1030 0
-992 -1031 0
-993 -1032 0
-991 -1459 0
-992 -1460 0
-993 -1461 0
-994 -1354 0
-995 -1355 0
-996 -1356 0
-997 -1102 0
-998 -1103 0
-999 -1104 0
-1000 -1228 0
-1001 -1229 0
-1002 -1230 0
-1003 -1303 0
-1004 -1304 0
-1005 -1305 0
-1009 -1045 0
-1010 -1046 0
-1011 -1047 0
-1012 -1129 0
-1013 -1130 0
-1014 -1131 0
-1012 -1303 0
-1013 -1304 0
-1014 -1305 0
-1015 -1261 0
-1016 -1262 0
-1017 -1263 0
-1015 -1489 0
-1016 -1490 0
-1017 -1491 0
-1018 -1045 0
-1019 -1046 0
-1020 -1047 0
-1021 -1051 0
-1022 -1052 0
-1023 -1053 0
-1024 -1057 0
-1025 -1058 0
-1026 -1059 0
-1024 -1282 0
-1025 -1283 0
-1026 -1284 0
-1024 -1387 0
-1025 -1388 0
-1026 -1389 0
-1027 -1378 0
-1028 -1379 0
-1029 -1380 0
-1027 -1450 0
-1028 -1451 0
-1029 -1452 0
-1030 -1336 0
-1031 -1337 0
-1032 -1338 0
-1033 -1129 0
-1034 -1130 0
-1035 -1131 0
-1033 -1174 0
-1034 -1175 0
-1035 -1176 0
-1033 -1264 0
-1034 -1265 0
-1035 -1266 0
-1033 -1279 0
-1034 -1280 0
-1035 -1281 0
-1036 -1048 0
-1037 -1049 0
-1038 -1050 0
-1036 -1267 0
-1037 -1268 0
-1038 -1269 0
-1039 -1159 0
-1040 -1160 0
-1041 -1161 0
-1045 -1129 0
-1046 -1130 0
-1047 -1131 0
-1048 -1171 0
-1049 -1172 0
-1050 -1173 0
-1048 -1342 0
-1049 -1343 0
-1050 -1344 0
-1051 -1300 0
-1052 -1301 0
-1053 -1302 0
-1051 -1429 0
-1052 -1430 0
-1053 -1431 0
-1054 -1198 0
-1055 -1199 0
-1056 -1200 0
-1054 -1348 0
-1055 -1349 0
-1056 -1350 0
-1054 -1486 0
-1055 -1487 0
-1056 -1488 0
-1057 -1330 0
-1058 -1331 0
-1059 -1332 0
-1066 -1444 0
-1067 -1445 0
-1068 -1446 0
-1066 -1462 0
-1067 -1463 0
-1068 -1464 0
-1069 -1099 0
-1070 -1100 0
-1071 -1101 0
-1069 -1204 0
-1070 -1205 0
-1071 -1206 0
-1072 -1084 0
-1073 -1085 0
-1074 -1086 0
-1075 -1279 0
-1076 -1280 0
-1077 -1281 0
-1075 -1465 0
-1076 -1466 0
-1077 -1467 0
-1078 -1084 0
-1079 -1085 0
-1080 -1086 0
-1078 -1453 0
-1079 -1454 0
-1080 -1455 0
-1084 -1429 0
-1085 -1430 0
-1086 -1431 0
-1090 -1174 0
-1091 -1175 0
-1092 -1176 0
-1090 -1192 0
-1091 -1193 0
-1092 -1194 0
-1090 -1306 0
-1091 -1307 0
-1092 -1308 0
-1090 -1471 0
-1091 -1472 0
-1092 -1473 0
-1093 -1201 0
-1094 -1202 0
-1095 -1203 0
-1093 -1393 0
-1094 -1394 0
-1095 -1395 0
-1102 -1105 0
-1103 -1106 0
-1104 -1107 0
-1102 -1369 0
-1103 -1370 0
-1104 -1371 0
-1105 -1240 0
-1106 -1241 0
-1107 -1242 0
-1105 -1255 0
-1106 -1256 0
-1107 -1257 0
-1111 -1264 0
-1112 -1265 0
-1113 -1266 0
-1111 -1414 0
-1112 -1415 0
-1113 -1416 0
-1114 -1210 0
-1115 -1211 0
-1116 -1212 0
-1114 -1486 0
-1115 -1487 0
-1116 -1488 0
-1117 -1468 0
-1118 -1469 0
-1119 -1470 0
-1120 -1417 0
-1121 -1418 0
-1122 -1419 0
-1120 -1462 0
-1121 -1463 0
-1122 -1464 0
-1123 -1438 0
-1124 -1439 0
-1125 -1440 0
-1126 -1270 0
-1127 -1271 0
-1128 -1272 0
-1126 -1432 0
-1127 -1433 0
-1128 -1434 0
-1126 -1462 0
-1127 -1463 0
-1128 -1464 0
-1126 -1468 0
-1127 -1469 0
-1128 -1470 0
-1129 -1396 0
-1130 -1397 0
-1131 -1398 0
-1132 -1219 0
-1133 -1220 0
-1134 -1221 0
-1132 -1246 0
-1133 -1247 0
-1134 -1248 0
-1132 -1402 0
-1133 -1403 0
-1134 -1404 0
-1138 -1156 0
-1139 -1157 0
-1140 -1158 0
-1138 -1402 0
-1139 -1403 0
-1140 -1404 0
-1144 -1210 0
-1145 -1211 0
-1146 -1212 0
-1144 -1228 0
-1145 -1229 0
-1146 -1230 0
-1150 -1423 0
-1151 -1424 0
-1152 -1425 0
-1153 -1297 0
-1154 -1298 0
-1155 -1299 0
-1153 -1357 0
-1154 -1358 0
-1155 -1359 0
-1156 -1375 0
-1157 -1376 0
-1158 -1377 0
-1156 -1429 0
-1157 -1430 0
-1158 -1431 0
-1159 -1387 0
-1160 -1388 0
-1161 -1389 0
-1159 -1483 0
-1160 -1484 0
-1161 -1485 0
-1162 -1372 0
-1163 -1373 0
-1164 -1374 0
-1168 -1414 0
-1169 -1415 0
-1170 -1416 0
-1171 -1387 0
-1172 -1388 0
-1173 -1389 0
-1171 -1423 0
-1172 -1424 0
-1173 -1425 0
-1171 -1486 0
-1172 -1487 0
-1173 -1488 0
-1180 -1219 0
-1181 -1220 0
-1182 -1221 0
-1192 -1222 0
-1193 -1223 0
-1194 -1224 0
-1192 -1285 0
-1193 -1286 0
-1194 -1287 0
-1192 -1471 0
-1193 -1472 0
-1194 -1473 0
-1195 -1474 0
-1196 -1475 0
-1197 -1476 0
-1198 -1396 0
-1199 -1397 0
-1200 -1398 0
-1198 -1438 0
-1199 -1439 0
-1200 -1440 0
-1204 -1465 0
-1205 -1466 0
-1206 -1467 0
-1210 -1411 0
-1211 -1412 0
-1212 -1413 0
-1213 -1252 0
-1214 -1253 0
-1215 -1254 0
-1219 -1294 0
-1220 -1295 0
-1221 -1296 0
-1219 -1486 0
-1220 -1487 0
-1221 -1488 0
-1222 -1234 0
-1223 -1235 0
-1224 -1236 0
-1222 -1489 0
-1223 -1490 0
-1224 -1491 0
-1228 -1366 0
-1229 -1367 0
-1230 -1368 0
-1228 -1381 0
-1229 -1382 0
-1230 -1383 0
-1231 -1306 0
-1232 -1307 0
-1233 -1308 0
-1237 -1279 0
-1238 -1280 0
-1239 -1281 0
-1237 -1384 0
-1238 -1385 0
-1239 -1386 0
-1255 -1342 0
-1256 -1343 0
-1257 -1344 0
-1258 -1396 0
-1259 -1397 0
-1260 -1398 0
-1261 -1375 0
-1262 -1376 0
-1263 -1377 0
-1267 -1492 0
-1268 -1493 0
-1269 -1494 0
-1279 -1492 0
-1280 -1493 0
-1281 -1494 0
-1282 -1351 0
-1283 -1352 0
-1284 -1353 0
-1282 -1429 0
-1283 -1430 0
-1284 -1431 0
-1285 -1441 0
-1286 -1442 0
-1287 -1443 0
-1300 -1363 0
-1301 -1364 0
-1302 -1365 0
-1300 -1384 0
-1301 -1385 0
-1302 -1386 0
-1315 -1366 0
-1316 -1367 0
-1317 -1368 0
-1324 -1399 0
-1325 -1400 0
-1326 -1401 0
-1327 -1468 0
-1328 -1469 0
-1329 -1470 0
-1327 -1474 0
-1328 -1475 0
-1329 -1476 0
-1330 -1342 0
-1331 -1343 0
-1332 -1344 0
-1330 -1363 0
-1331 -1364 0
-1332 -1365 0
-1333 -1486 0
-1334 -1487 0
-1335 -1488 0
-1336 -1462 0
-1337 -1463 0
-1338 -1464 0
-1339 -1483 0
-1340 -1484 0
-1341 -1485 0
-1342 -1393 0
-1343 -1394 0
-1344 -1395 0
-1357 -1390 0
-1358 -1391 0
-1359 -1392 0
-1357 -1393 0
-1358 -1394 0
-1359 -1395 0
-1357 -1435 0
-1358 -1436 0
-1359 -1437 0
-1360 -1444 0
-1361 -1445 0
-1362 -1446 0
-1375 -1378 0
-1376 -1379 0
-1377 -1380 0
-1375 -1405 0
-1376 -1406 0
-1377 -1407 0
-1378 -1396 0
-1379 -1397 0
-1380 -1398 0
-1381 -1453 0
-1382 -1454 0
-1383 -1455 0
-1384 -1453 0
-1385 -1454 0
-1386 -1455 0
-1390 -1450 0
-1391 -1451 0
-1392 -1452 0
-1396 -1420 0
-1397 -1421 0
-1398 -1422 0
-1411 -1441 0
-1412 -1442 0
-1413 -1443 0
-1411 -1444 0
-1412 -1445 0
-1413 -1446 0
-1432 -1480 0
-1433 -1481 0
-1434 -1482 0
-1438 -1483 0
-1439 -1484 0
-1440 -1485 0
