p cnf 1500 5564
1 2 3 0
4 5 6 0
7 8 9 0
10 11 12 0
13 14 15 0
16 17 18 0
19 20 21 0
22 23 24 0
25 26 27 0
28 29 30 0
31 32 33 0
34 35 36 0
37 38 39 0
40 41 42 0
43 44 45 0
46 47 48 0
49 50 51 0
52 53 54 0
55 56 57 0
58 59 60 0
61 62 63 0
64 65 66 0
67 68 69 0
70 71 72 0
73 74 75 0
76 77 78 0
79 80 81 0
82 83 84 0
85 86 87 0
88 89 90 0
91 92 93 0
94 95 96 0
97 98 99 0
100 101 102 0
103 104 105 0
106 107 108 0
109 110 111 0
112 113 114 0
115 116 117 0
118 119 120 0
121 122 123 0
124 125 126 0
127 128 129 0
130 131 132 0
133 134 135 0
136 137 138 0
139 140 141 0
142 143 144 0
145 146 147 0
148 149 150 0
151 152 153 0
154 155 156 0
157 158 159 0
160 161 162 0
163 164 165 0
166 167 168 0
169 170 171 0
172 173 174 0
175 176 177 0
178 179 180 0
181 182 183 0
184 185 186 0
187 188 189 0
190 191 192 0
193 194 195 0
196 197 198 0
199 200 201 0
202 203 204 0
205 206 207 0
208 209 210 0
211 212 213 0
214 215 216 0
217 218 219 0
220 221 222 0
223 224 225 0
226 227 228 0
229 230 231 0
232 233 234 0
235 236 237 0
238 239 240 0
241 242 243 0
244 245 246 0
247 248 249 0
250 251 252 0
253 254 255 0
256 257 258 0
259 260 261 0
262 263 264 0
265 266 267 0
268 269 270 0
271 272 273 0
274 275 276 0
277 278 279 0
280 281 282 0
283 284 285 0
286 287 288 0
289 290 291 0
292 293 294 0
295 296 297 0
298 299 300 0
301 302 303 0
304 305 306 0
307 308 309 0
310 311 312 0
313 314 315 0
316 317 318 0
319 320 321 0
322 323 324 0
325 326 327 0
328 329 330 0
331 332 333 0
334 335 336 0
337 338 339 0
340 341 342 0
343 344 345 0
346 347 348 0
349 350 351 0
352 353 354 0
355 356 357 0
358 359 360 0
361 362 363 0
364 365 366 0
367 368 369 0
370 371 372 0
373 374 375 0
376 377 378 0
379 380 381 0
382 383 384 0
385 386 387 0
388 389 390 0
391 392 393 0
394 395 396 0
397 398 399 0
400 401 402 0
403 404 405 0
406 407 408 0
409 410 411 0
412 413 414 0
415 416 417 0
418 419 420 0
421 422 423 0
424 425 426 0
427 428 429 0
430 431 432 0
433 434 435 0
436 437 438 0
439 440 441 0
442 443 444 0
445 446 447 0
448 449 450 0
451 452 453 0
454 455 456 0
457 458 459 0
460 461 462 0
463 464 465 0
466 467 468 0
469 470 471 0
472 473 474 0
475 476 477 0
478 479 480 0
481 482 483 0
484 485 486 0
487 488 489 0
490 491 492 0
493 494 495 0
496 497 498 0
499 500 501 0
502 503 504 0
505 506 507 0
508 509 510 0
511 512 513 0
514 515 516 0
517 518 519 0
520 521 522 0
523 524 525 0
526 527 528 0
529 530 531 0
532 533 534 0
535 536 537 0
538 539 540 0
541 542 543 0
544 545 546 0
547 548 549 0
550 551 552 0
553 554 555 0
556 557 558 0
559 560 561 0
562 563 564 0
565 566 567 0
568 569 570 0
571 572 573 0
574 575 576 0
577 578 579 0
580 581 582 0
583 584 585 0
586 587 588 0
589 590 591 0
592 593 594 0
595 596 597 0
598 599 600 0
601 602 603 0
604 605 606 0
607 608 609 0
610 611 612 0
613 614 615 0
616 617 618 0
619 620 621 0
622 623 624 0
625 626 627 0
628 629 630 0
631 632 633 0
634 635 636 0
637 638 639 0
640 641 642 0
643 644 645 0
646 647 648 0
649 650 651 0
652 653 654 0
655 656 657 0
658 659 660 0
661 662 663 0
664 665 666 0
667 668 669 0
670 671 672 0
673 674 675 0
676 677 678 0
679 680 681 0
682 683 684 0
685 686 687 0
688 689 690 0
691 692 693 0
694 695 696 0
697 698 699 0
700 701 702 0
703 704 705 0
706 707 708 0
709 710 711 0
712 713 714 0
715 716 717 0
718 719 720 0
721 722 723 0
724 725 726 0
727 728 729 0
730 731 732 0
733 734 735 0
736 737 738 0
739 740 741 0
742 743 744 0
745 746 747 0
748 749 750 0
751 752 753 0
754 755 756 0
757 758 759 0
760 761 762 0
763 764 765 0
766 767 768 0
769 770 771 0
772 773 774 0
775 776 777 0
778 779 780 0
781 782 783 0
784 785 786 0
787 788 789 0
790 791 792 0
793 794 795 0
796 797 798 0
799 800 801 0
802 803 804 0
805 806 807 0
808 809 810 0
811 812 813 0
814 815 816 0
817 818 819 0
820 821 822 0
823 824 825 0
826 827 828 0
829 830 831 0
832 833 834 0
835 836 837 0
838 839 840 0
841 842 843 0
844 845 846 0
847 848 849 0
850 851 852 0
853 854 855 0
856 857 858 0
859 860 861 0
862 863 864 0
865 866 867 0
868 869 870 0
871 872 873 0
874 875 876 0
877 878 879 0
880 881 882 0
883 884 885 0
886 887 888 0
889 890 891 0
892 893 894 0
895 896 897 0
898 899 900 0
901 902 903 0
904 905 906 0
907 908 909 0
910 911 912 0
913 914 915 0
916 917 918 0
919 920 921 0
922 923 924 0
925 926 927 0
928 929 930 0
931 932 933 0
934 935 936 0
937 938 939 0
940 941 942 0
943 944 945 0
946 947 948 0
949 950 951 0
952 953 954 0
955 956 957 0
958 959 960 0
961 962 963 0
964 965 966 0
967 968 969 0
970 971 972 0
973 974 975 0
976 977 978 0
979 980 981 0
982 983 984 0
985 986 987 0
988 989 990 0
991 992 993 0
994 995 996 0
997 998 999 0
1000 1001 1002 0
1003 1004 1005 0
1006 1007 1008 0
1009 1010 1011 0
1012 1013 1014 0
1015 1016 1017 0
1018 1019 1020 0
1021 1022 1023 0
1024 1025 1026 0
1027 1028 1029 0
1030 1031 1032 0
1033 1034 1035 0
1036 1037 1038 0
1039 1040 1041 0
1042 1043 1044 0
1045 1046 1047 0
1048 1049 1050 0
1051 1052 1053 0
1054 1055 1056 0
1057 1058 1059 0
1060 1061 1062 0
1063 1064 1065 0
1066 1067 1068 0
1069 1070 1071 0
1072 1073 1074 0
1075 1076 1077 0
1078 1079 1080 0
1081 1082 1083 0
1084 1085 1086 0
1087 1088 1089 0
1090 1091 1092 0
1093 1094 1095 0
1096 1097 1098 0
1099 1100 1101 0
1102 1103 1104 0
1105 1106 1107 0
1108 1109 1110 0
1111 1112 1113 0
1114 1115 1116 0
1117 1118 1119 0
1120 1121 1122 0
1123 1124 1125 0
1126 1127 1128 0
1129 1130 1131 0
1132 1133 1134 0
1135 1136 1137 0
1138 1139 1140 0
1141 1142 1143 0
1144 1145 1146 0
1147 1148 1149 0
1150 1151 1152 0
1153 1154 1155 0
1156 1157 1158 0
1159 1160 1161 0
1162 1163 1164 0
1165 1166 1167 0
1168 1169 1170 0
1171 1172 1173 0
1174 1175 1176 0
1177 1178 1179 0
1180 1181 1182 0
1183 1184 1185 0
1186 1187 1188 0
1189 1190 1191 0
1192 1193 1194 0
1195 1196 1197 0
1198 1199 1200 0
1201 1202 1203 0
1204 1205 1206 0
1207 1208 1209 0
1210 1211 1212 0
1213 1214 1215 0
1216 1217 1218 0
1219 1220 1221 0
1222 1223 1224 0
1225 1226 1227 0
1228 1229 1230 0
1231 1232 1233 0
1234 1235 1236 0
1237 1238 1239 0
1240 1241 1242 0
1243 1244 1245 0
1246 1247 1248 0
1249 1250 1251 0
1252 1253 1254 0
1255 1256 1257 0
1258 1259 1260 0
1261 1262 1263 0
1264 1265 1266 0
1267 1268 1269 0
1270 1271 1272 0
1273 1274 1275 0
1276 1277 1278 0
1279 1280 1281 0
1282 1283 1284 0
1285 1286 1287 0
1288 1289 1290 0
1291 1292 1293 0
1294 1295 1296 0
1297 1298 1299 0
1300 1301 1302 0
1303 1304 1305 0
1306 1307 1308 0
1309 1310 1311 0
1312 1313 1314 0
1315 1316 1317 0
1318 1319 1320 0
1321 1322 1323 0
1324 1325 1326 0
1327 1328 1329 0
1330 1331 1332 0
1333 1334 1335 0
1336 1337 1338 0
1339 1340 1341 0
1342 1343 1344 0
1345 1346 1347 0
1348 1349 1350 0
1351 1352 1353 0
1354 1355 1356 0
1357 1358 1359 0
1360 1361 1362 0
1363 1364 1365 0
1366 1367 1368 0
1369 1370 1371 0
1372 1373 1374 0
1375 1376 1377 0
1378 1379 1380 0
1381 1382 1383 0
1384 1385 1386 0
1387 1388 1389 0
1390 1391 1392 0
1393 1394 1395 0
1396 1397 1398 0
1399 1400 1401 0
1402 1403 1404 0
1405 1406 1407 0
1408 1409 1410 0
1411 1412 1413 0
1414 1415 1416 0
1417 1418 1419 0
1420 1421 1422 0
1423 1424 1425 0
1426 1427 1428 0
1429 1430 1431 0
1432 1433 1434 0
1435 1436 1437 0
1438 1439 1440 0
1441 1442 1443 0
1444 1445 1446 0
1447 1448 1449 0
1450 1451 1452 0
1453 1454 1455 0
1456 1457 1458 0
1459 1460 1461 0
1462 1463 1464 0
1465 1466 1467 0
1468 1469 1470 0
1471 1472 1473 0
1474 1475 1476 0
1477 1478 1479 0
1480 1481 1482 0
1483 1484 1485 0
1486 1487 1488 0
1489 1490 1491 0
1492 1493 1494 0
1495 1496 1497 0
1498 1499 1500 0
-1 -2 0
-1 -3 0
-2 -3 0
-4 -5 0
-4 -6 0
-5 -6 0
-7 -8 0
-7 -9 0
-8 -9 0
-10 -11 0
-10 -12 0
-11 -12 0
-13 -14 0
-13 -15 0
-14 -15 0
-16 -17 0
-16 -18 0
-17 -18 0
-19 -20 0
-19 -21 0
-20 -21 0
-22 -23 0
-22 -24 0
-23 -24 0
-25 -26 0
-25 -27 0
-26 -27 0
-28 -29 0
-28 -30 0
-29 -30 0
-31 -32 0
-31 -33 0
-32 -33 0
-34 -35 0
-34 -36 0
-35 -36 0
-37 -38 0
-37 -39 0
-38 -39 0
-40 -41 0
-40 -42 0
-41 -42 0
-43 -44 0
-43 -45 0
-44 -45 0
-46 -47 0
-46 -48 0
-47 -48 0
-49 -50 0
-49 -51 0
-50 -51 0
-52 -53 0
-52 -54 0
-53 -54 0
-55 -56 0
-55 -57 0
-56 -57 0
-58 -59 0
-58 -60 0
-59 -60 0
-61 -62 0
-61 -63 0
-62 -63 0
-64 -65 0
-64 -66 0
-65 -66 0
-67 -68 0
-67 -69 0
-68 -69 0
-70 -71 0
-70 -72 0
-71 -72 0
-73 -74 0
-73 -75 0
-74 -75 0
-76 -77 0
-76 -78 0
-77 -78 0
-79 -80 0
-79 -81 0
-80 -81 0
-82 -83 0
-82 -84 0
-83 -84 0
-85 -86 0
-85 -87 0
-86 -87 0
-88 -89 0
-88 -90 0
-89 -90 0
-91 -92 0
-91 -93 0
-92 -93 0
-94 -95 0
-94 -96 0
-95 -96 0
-97 -98 0
-97 -99 0
-98 -99 0
-100 -101 0
-100 -102 0
-101 -102 0
-103 -104 0
-103 -105 0
-104 -105 0
-106 -107 0
-106 -108 0
-107 -108 0
-109 -110 0
-109 -111 0
-110 -111 0
-112 -113 0
-112 -114 0
-113 -114 0
-115 -116 0
-115 -117 0
-116 -117 0
-118 -119 0
-118 -120 0
-119 -120 0
-121 -122 0
-121 -123 0
-122 -123 0
-124 -125 0
-124 -126 0
-125 -126 0
-127 -128 0
-127 -129 0
-128 -129 0
-130 -131 0
-130 -132 0
-131 -132 0
-133 -134 0
-133 -135 0
-134 -135 0
-136 -137 0
-136 -138 0
-137 -138 0
-139 -140 0
-139 -141 0
-140 -141 0
-142 -143 0
-142 -144 0
-143 -144 0
-145 -146 0
-145 -147 0
-146 -147 0
-148 -149 0
-148 -150 0
-149 -150 0
-151 -152 0
-151 -153 0
-152 -153 0
-154 -155 0
-154 -156 0
-155 -156 0
-157 -158 0
-157 -159 0
-158 -159 0
-160 -161 0
-160 -162 0
-161 -162 0
-163 -164 0
-163 -165 0
-164 -165 0
-166 -167 0
-166 -168 0
-167 -168 0
-169 -170 0
-169 -171 0
-170 -171 0
-172 -173 0
-172 -174 0
-173 -174 0
-175 -176 0
-175 -177 0
-176 -177 0
-178 -179 0
-178 -180 0
-179 -180 0
-181 -182 0
-181 -183 0
-182 -183 0
-184 -185 0
-184 -186 0
-185 -186 0
-187 -188 0
-187 -189 0
-188 -189 0
-190 -191 0
-190 -192 0
-191 -192 0
-193 -194 0
-193 -195 0
-194 -195 0
-196 -197 0
-196 -198 0
-197 -198 0
-199 -200 0
-199 -201 0
-200 -201 0
-202 -203 0
-202 -204 0
-203 -204 0
-205 -206 0
-205 -207 0
-206 -207 0
-208 -209 0
-208 -210 0
-209 -210 0
-211 -212 0
-211 -213 0
-212 -213 0
-214 -215 0
-214 -216 0
-215 -216 0
-217 -218 0
-217 -219 0
-218 -219 0
-220 -221 0
-220 -222 0
-221 -222 0
-223 -224 0
-223 -225 0
-224 -225 0
-226 -227 0
-226 -228 0
-227 -228 0
-229 -230 0
-229 -231 0
-230 -231 0
-232 -233 0
-232 -234 0
-233 -234 0
-235 -236 0
-235 -237 0
-236 -237 0
-238 -239 0
-238 -240 0
-239 -240 0
-241 -242 0
-241 -243 0
-242 -243 0
-244 -245 0
-244 -246 0
-245 -246 0
-247 -248 0
-247 -249 0
-248 -249 0
-250 -251 0
-250 -252 0
-251 -252 0
-253 -254 0
-253 -255 0
-254 -255 0
-256 -257 0
-256 -258 0
-257 -258 0
-259 -260 0
-259 -261 0
-260 -261 0
-262 -263 0
-262 -264 0
-263 -264 0
-265 -266 0
-265 -267 0
-266 -267 0
-268 -269 0
-268 -270 0
-269 -270 0
-271 -272 0
-271 -273 0
-272 -273 0
-274 -275 0
-274 -276 0
-275 -276 0
-277 -278 0
-277 -279 0
-278 -279 0
-280 -281 0
-280 -282 0
-281 -282 0
-283 -284 0
-283 -285 0
-284 -285 0
-286 -287 0
-286 -288 0
-287 -288 0
-289 -290 0
-289 -291 0
-290 -291 0
-292 -293 0
-292 -294 0
-293 -294 0
-295 -296 0
-295 -297 0
-296 -297 0
-298 -299 0
-298 -300 0
-299 -300 0
-301 -302 0
-301 -303 0
-302 -303 0
-304 -305 0
-304 -306 0
-305 -306 0
-307 -308 0
-307 -309 0
-308 -309 0
-310 -311 0
-310 -312 0
-311 -312 0
-313 -314 0
-313 -315 0
-314 -315 0
-316 -317 0
-316 -318 0
-317 -318 0
-319 -320 0
-319 -321 0
-320 -321 0
-322 -323 0
-322 -324 0
-323 -324 0
-325 -326 0
-325 -327 0
-326 -327 0
-328 -329 0
-328 -330 0
-329 -330 0
-331 -332 0
-331 -333 0
-332 -333 0
-334 -335 0
-334 -336 0
-335 -336 0
-337 -338 0
-337 -339 0
-338 -339 0
-340 -341 0
-340 -342 0
-341 -342 0
-343 -344 0
-343 -345 0
-344 -345 0
-346 -347 0
-346 -348 0
-347 -348 0
-349 -350 0
-349 -351 0
-350 -351 0
-352 -353 0
-352 -354 0
-353 -354 0
-355 -356 0
-355 -357 0
-356 -357 0
-358 -359 0
-358 -360 0
-359 -360 0
-361 -362 0
-361 -363 0
-362 -363 0
-364 -365 0
-364 -366 0
-365 -366 0
-367 -368 0
-367 -369 0
-368 -369 0
-370 -371 0
-370 -372 0
-371 -372 0
-373 -374 0
-373 -375 0
-374 -375 0
-376 -377 0
-376 -378 0
-377 -378 0
-379 -380 0
-379 -381 0
-380 -381 0
-382 -383 0
-382 -384 0
-383 -384 0
-385 -386 0
-385 -387 0
-386 -387 0
-388 -389 0
-388 -390 0
-389 -390 0
-391 -392 0
-391 -393 0
-392 -393 0
-394 -395 0
-394 -396 0
-395 -396 0
-397 -398 0
-397 -399 0
-398 -399 0
-400 -401 0
-400 -402 0
-401 -402 0
-403 -404 0
-403 -405 0
-404 -405 0
-406 -407 0
-406 -408 0
-407 -408 0
-409 -410 0
-409 -411 0
-410 -411 0
-412 -413 0
-412 -414 0
-413 -414 0
-415 -416 0
-415 -417 0
-416 -417 0
-418 -419 0
-418 -420 0
-419 -420 0
-421 -422 0
-421 -423 0
-422 -423 0
-424 -425 0
-424 -426 0
-425 -426 0
-427 -428 0
-427 -429 0
-428 -429 0
-430 -431 0
-430 -432 0
-431 -432 0
-433 -434 0
-433 -435 0
-434 -435 0
-436 -437 0
-436 -438 0
-437 -438 0
-439 -440 0
-439 -441 0
-440 -441 0
-442 -443 0
-442 -444 0
-443 -444 0
-445 -446 0
-445 -447 0
-446 -447 0
-448 -449 0
-448 -450 0
-449 -450 0
-451 -452 0
-451 -453 0
-452 -453 0
-454 -455 0
-454 -456 0
-455 -456 0
-457 -458 0
-457 -459 0
-458 -459 0
-460 -461 0
-460 -462 0
-461 -462 0
-463 -464 0
-463 -465 0
-464 -465 0
-466 -467 0
-466 -468 0
-467 -468 0
-469 -470 0
-469 -471 0
-470 -471 0
-472 -473 0
-472 -474 0
-473 -474 0
-475 -476 0
-475 -477 0
-476 -477 0
-478 -479 0
-478 -480 0
-479 -480 0
-481 -482 0
-481 -483 0
-482 -483 0
-484 -485 0
-484 -486 0
-485 -486 0
-487 -488 0
-487 -489 0
-488 -489 0
-490 -491 0
-490 -492 0
-491 -492 0
-493 -494 0
-493 -495 0
-494 -495 0
-496 -497 0
-496 -498 0
-497 -498 0
-499 -500 0
-499 -501 0
-500 -501 0
-502 -503 0
-502 -504 0
-503 -504 0
-505 -506 0
-505 -507 0
-506 -507 0
-508 -509 0
-508 -510 0
-509 -510 0
-511 -512 0
-511 -513 0
-512 -513 0
-514 -515 0
-514 -516 0
-515 -516 0
-517 -518 0
-517 -519 0
-518 -519 0
-520 -521 0
-520 -522 0
-521 -522 0
-523 -524 0
-523 -525 0
-524 -525 0
-526 -527 0
-526 -528 0
-527 -528 0
-529 -530 0
-529 -531 0
-530 -531 0
-532 -533 0
-532 -534 0
-533 -534 0
-535 -536 0
-535 -537 0
-536 -537 0
-538 -539 0
-538 -540 0
-539 -540 0
-541 -542 0
-541 -543 0
-542 -543 0
-544 -545 0
-544 -546 0
-545 -546 0
-547 -548 0
-547 -549 0
-548 -549 0
-550 -551 0
-550 -552 0
-551 -552 0
-553 -554 0
-553 -555 0
-554 -555 0
-556 -557 0
-556 -558 0
-557 -558 0
-559 -560 0
-559 -561 0
-560 -561 0
-562 -563 0
-562 -564 0
-563 -564 0
-565 -566 0
-565 -567 0
-566 -567 0
-568 -569 0
-568 -570 0
-569 -570 0
-571 -572 0
-571 -573 0
-572 -573 0
-574 -575 0
-574 -576 0
-575 -576 0
-577 -578 0
-577 -579 0
-578 -579 0
-580 -581 0
-580 -582 0
-581 -582 0
-583 -584 0
-583 -585 0
-584 -585 0
-586 -587 0
-586 -588 0
-587 -588 0
-589 -590 0
-589 -591 0
-590 -591 0
-592 -593 0
-592 -594 0
-593 -594 0
-595 -596 0
-595 -597 0
-596 -597 0
-598 -599 0
-598 -600 0
-599 -600 0
-601 -602 0
-601 -603 0
-602 -603 0
-604 -605 0
-604 -606 0
-605 -606 0
-607 -608 0
-607 -609 0
-608 -609 0
-610 -611 0
-610 -612 0
-611 -612 0
-613 -614 0
-613 -615 0
-614 -615 0
-616 -617 0
-616 -618 0
-617 -618 0
-619 -620 0
-619 -621 0
-620 -621 0
-622 -623 0
-622 -624 0
-623 -624 0
-625 -626 0
-625 -627 0
-626 -627 0
-628 -629 0
-628 -630 0
-629 -630 0
-631 -632 0
-631 -633 0
-632 -633 0
-634 -635 0
-634 -636 0
-635 -636 0
-637 -638 0
-637 -639 0
-638 -639 0
-640 -641 0
-640 -642 0
-641 -642 0
-643 -644 0
-643 -645 0
-644 -645 0
-646 -647 0
-646 -648 0
-647 -648 0
-649 -650 0
-649 -651 0
-650 -651 0
-652 -653 0
-652 -654 0
-653 -654 0
-655 -656 0
-655 -657 0
-656 -657 0
-658 -659 0
-658 -660 0
-659 -660 0
-661 -662 0
-661 -663 0
-662 -663 0
-664 -665 0
-664 -666 0
-665 -666 0
-667 -668 0
-667 -669 0
-668 -669 0
-670 -671 0
-670 -672 0
-671 -672 0
-673 -674 0
-673 -675 0
-674 -675 0
-676 -677 0
-676 -678 0
-677 -678 0
-679 -680 0
-679 -681 0
-680 -681 0
-682 -683 0
-682 -684 0
-683 -684 0
-685 -686 0
-685 -687 0
-686 -687 0
-688 -689 0
-688 -690 0
-689 -690 0
-691 -692 0
-691 -693 0
-692 -693 0
-694 -695 0
-694 -696 0
-695 -696 0
-697 -698 0
-697 -699 0
-698 -699 0
-700 -701 0
-700 -702 0
-701 -702 0
-703 -704 0
-703 -705 0
-704 -705 0
-706 -707 0
-706 -708 0
-707 -708 0
-709 -710 0
-709 -711 0
-710 -711 0
-712 -713 0
-712 -714 0
-713 -714 0
-715 -716 0
-715 -717 0
-716 -717 0
-718 -719 0
-718 -720 0
-719 -720 0
-721 -722 0
-721 -723 0
-722 -723 0
-724 -725 0
-724 -726 0
-725 -726 0
-727 -728 0
-727 -729 0
-728 -729 0
-730 -731 0
-730 -732 0
-731 -732 0
-733 -734 0
-733 -735 0
-734 -735 0
-736 -737 0
-736 -738 0
-737 -738 0
-739 -740 0
-739 -741 0
-740 -741 0
-742 -743 0
-742 -744 0
-743 -744 0
-745 -746 0
-745 -747 0
-746 -747 0
-748 -749 0
-748 -750 0
-749 -750 0
-751 -752 0
-751 -753 0
-752 -753 0
-754 -755 0
-754 -756 0
-755 -756 0
-757 -758 0
-757 -759 0
-758 -759 0
-760 -761 0
-760 -762 0
-761 -762 0
-763 -764 0
-763 -765 0
-764 -765 0
-766 -767 0
-766 -768 0
-767 -768 0
-769 -770 0
-769 -771 0
-770 -771 0
-772 -773 0
-772 -774 0
-773 -774 0
-775 -776 0
-775 -777 0
-776 -777 0
-778 -779 0
-778 -780 0
-779 -780 0
-781 -782 0
-781 -783 0
-782 -783 0
-784 -785 0
-784 -786 0
-785 -786 0
-787 -788 0
-787 -789 0
-788 -789 0
-790 -791 0
-790 -792 0
-791 -792 0
-793 -794 0
-793 -795 0
-794 -795 0
-796 -797 0
-796 -798 0
-797 -798 0
-799 -800 0
-799 -801 0
-800 -801 0
-802 -803 0
-802 -804 0
-803 -804 0
-805 -806 0
-805 -807 0
-806 -807 0
-808 -809 0
-808 -810 0
-809 -810 0
-811 -812 0
-811 -813 0
-812 -813 0
-814 -815 0
-814 -816 0
-815 -816 0
-817 -818 0
-817 -819 0
-818 -819 0
-820 -821 0
-820 -822 0
-821 -822 0
-823 -824 0
-823 -825 0
-824 -825 0
-826 -827 0
-826 -828 0
-827 -828 0
-829 -830 0
-829 -831 0
-830 -831 0
-832 -833 0
-832 -834 0
-833 -834 0
-835 -836 0
-835 -837 0
-836 -837 0
-838 -839 0
-838 -840 0
-839 -840 0
-841 -842 0
-841 -843 0
-842 -843 0
-844 -845 0
-844 -846 0
-845 -846 0
-847 -848 0
-847 -849 0
-848 -849 0
-850 -851 0
-850 -852 0
-851 -852 0
-853 -854 0
-853 -855 0
-854 -855 0
-856 -857 0
-856 -858 0
-857 -858 0
-859 -860 0
-859 -861 0
-860 -861 0
-862 -863 0
-862 -864 0
-863 -864 0
-865 -866 0
-865 -867 0
-866 -867 0
-868 -869 0
-868 -870 0
-869 -870 0
-871 -872 0
-871 -873 0
-872 -873 0
-874 -875 0
-874 -876 0
-875 -876 0
-877 -878 0
-877 -879 0
-878 -879 0
-880 -881 0
-880 -882 0
-881 -882 0
-883 -884 0
-883 -885 0
-884 -885 0
-886 -887 0
-886 -888 0
-887 -888 0
-889 -890 0
-889 -891 0
-890 -891 0
-892 -893 0
-892 -894 0
-893 -894 0
-895 -896 0
-895 -897 0
-896 -897 0
-898 -899 0
-898 -900 0
-899 -900 0
-901 -902 0
-901 -903 0
-902 -903 0
-904 -905 0
-904 -906 0
-905 -906 0
-907 -908 0
-907 -909 0
-908 -909 0
-910 -911 0
-910 -912 0
-911 -912 0
-913 -914 0
-913 -915 0
-914 -915 0
-916 -917 0
-916 -918 0
-917 -918 0
-919 -920 0
-919 -921 0
-920 -921 0
-922 -923 0
-922 -924 0
-923 -924 0
-925 -926 0
-925 -927 0
-926 -927 0
-928 -929 0
-928 -930 0
-929 -930 0
-931 -932 0
-931 -933 0
-932 -933 0
-934 -935 0
-934 -936 0
-935 -936 0
-937 -938 0
-937 -939 0
-938 -939 0
-940 -941 0
-940 -942 0
-941 -942 0
-943 -944 0
-943 -945 0
-944 -945 0
-946 -947 0
-946 -948 0
-947 -948 0
-949 -950 0
-949 -951 0
-950 -951 0
-952 -953 0
-952 -954 0
-953 -954 0
-955 -956 0
-955 -957 0
-956 -957 0
-958 -959 0
-958 -960 0
-959 -960 0
-961 -962 0
-961 -963 0
-962 -963 0
-964 -965 0
-964 -966 0
-965 -966 0
-967 -968 0
-967 -969 0
-968 -969 0
-970 -971 0
-970 -972 0
-971 -972 0
-973 -974 0
-973 -975 0
-974 -975 0
-976 -977 0
-976 -978 0
-977 -978 0
-979 -980 0
-979 -981 0
-980 -981 0
-982 -983 0
-982 -984 0
-983 -984 0
-985 -986 0
-985 -987 0
-986 -987 0
-988 -989 0
-988 -990 0
-989 -990 0
-991 -992 0
-991 -993 0
-992 -993 0
-994 -995 0
-994 -996 0
-995 -996 0
-997 -998 0
-997 -999 0
-998 -999 0
-1000 -1001 0
-1000 -1002 0
-1001 -1002 0
-1003 -1004 0
-1003 -1005 0
-1004 -1005 0
-1006 -1007 0
-1006 -1008 0
-1007 -1008 0
-1009 -1010 0
-1009 -1011 0
-1010 -1011 0
-1012 -1013 0
-1012 -1014 0
-1013 -1014 0
-1015 -1016 0
-1015 -1017 0
-1016 -1017 0
-1018 -1019 0
-1018 -1020 0
-1019 -1020 0
-1021 -1022 0
-1021 -1023 0
-1022 -1023 0
-1024 -1025 0
-1024 -1026 0
-1025 -1026 0
-1027 -1028 0
-1027 -1029 0
-1028 -1029 0
-1030 -1031 0
-1030 -1032 0
-1031 -1032 0
-1033 -1034 0
-1033 -1035 0
-1034 -1035 0
-1036 -1037 0
-1036 -1038 0
-1037 -1038 0
-1039 -1040 0
-1039 -1041 0
-1040 -1041 0
-1042 -1043 0
-1042 -1044 0
-1043 -1044 0
-1045 -1046 0
-1045 -1047 0
-1046 -1047 0
-1048 -1049 0
-1048 -1050 0
-1049 -1050 0
-1051 -1052 0
-1051 -1053 0
-1052 -1053 0
-1054 -1055 0
-1054 -1056 0
-1055 -1056 0
-1057 -1058 0
-1057 -1059 0
-1058 -1059 0
-1060 -1061 0
-1060 -1062 0
-1061 -1062 0
-1063 -1064 0
-1063 -1065 0
-1064 -1065 0
-1066 -1067 0
-1066 -1068 0
-1067 -1068 0
-1069 -1070 0
-1069 -1071 0
-1070 -1071 0
-1072 -1073 0
-1072 -1074 0
-1073 -1074 0
-1075 -1076 0
-1075 -1077 0
-1076 -1077 0
-1078 -1079 0
-1078 -1080 0
-1079 -1080 0
-1081 -1082 0
-1081 -1083 0
-1082 -1083 0
-1084 -1085 0
-1084 -1086 0
-1085 -1086 0
-1087 -1088 0
-1087 -1089 0
-1088 -1089 0
-1090 -1091 0
-1090 -1092 0
-1091 -1092 0
-1093 -1094 0
-1093 -1095 0
-1094 -1095 0
-1096 -1097 0
-1096 -1098 0
-1097 -1098 0
-1099 -1100 0
-1099 -1101 0
-1100 -1101 0
-1102 -1103 0
-1102 -1104 0
-1103 -1104 0
-1105 -1106 0
-1105 -1107 0
-1106 -1107 0
-1108 -1109 0
-1108 -1110 0
-1109 -1110 0
-1111 -1112 0
-1111 -1113 0
-1112 -1113 0
-1114 -1115 0
-1114 -1116 0
-1115 -1116 0
-1117 -1118 0
-1117 -1119 0
-1118 -1119 0
-1120 -1121 0
-1120 -1122 0
-1121 -1122 0
-1123 -1124 0
-1123 -1125 0
-1124 -1125 0
-1126 -1127 0
-1126 -1128 0
-1127 -1128 0
-1129 -1130 0
-1129 -1131 0
-1130 -1131 0
-1132 -1133 0
-1132 -1134 0
-1133 -1134 0
-1135 -1136 0
-1135 -1137 0
-1136 -1137 0
-1138 -1139 0
-1138 -1140 0
-1139 -1140 0
-1141 -1142 0
-1141 -1143 0
-1142 -1143 0
-1144 -1145 0
-1144 -1146 0
-1145 -1146 0
-1147 -1148 0
-1147 -1149 0
-1148 -1149 0
-1150 -1151 0
-1150 -1152 0
-1151 -1152 0
-1153 -1154 0
-1153 -1155 0
-1154 -1155 0
-1156 -1157 0
-1156 -1158 0
-1157 -1158 0
-1159 -1160 0
-1159 -1161 0
-1160 -1161 0
-1162 -1163 0
-1162 -1164 0
-1163 -1164 0
-1165 -1166 0
-1165 -1167 0
-1166 -1167 0
-1168 -1169 0
-1168 -1170 0
-1169 -1170 0
-1171 -1172 0
-1171 -1173 0
-1172 -1173 0
-1174 -1175 0
-1174 -1176 0
-1175 -1176 0
-1177 -1178 0
-1177 -1179 0
-1178 -1179 0
-1180 -1181 0
-1180 -1182 0
-1181 -1182 0
-1183 -1184 0
-1183 -1185 0
-1184 -1185 0
-1186 -1187 0
-1186 -1188 0
-1187 -1188 0
-1189 -1190 0
-1189 -1191 0
-1190 -1191 0
-1192 -1193 0
-1192 -1194 0
-1193 -1194 0
-1195 -1196 0
-1195 -1197 0
-1196 -1197 0
-1198 -1199 0
-1198 -1200 0
-1199 -1200 0
-1201 -1202 0
-1201 -1203 0
-1202 -1203 0
-1204 -1205 0
-1204 -1206 0
-1205 -1206 0
-1207 -1208 0
-1207 -1209 0
-1208 -1209 0
-1210 -1211 0
-1210 -1212 0
-1211 -1212 0
-1213 -1214 0
-1213 -1215 0
-1214 -1215 0
-1216 -1217 0
-1216 -1218 0
-1217 -1218 0
-1219 -1220 0
-1219 -1221 0
-1220 -1221 0
-1222 -1223 0
-1222 -1224 0
-1223 -1224 0
-1225 -1226 0
-1225 -1227 0
-1226 -1227 0
-1228 -1229 0
-1228 -1230 0
-1229 -1230 0
-1231 -1232 0
-1231 -1233 0
-1232 -1233 0
-1234 -1235 0
-1234 -1236 0
-1235 -1236 0
-1237 -1238 0
-1237 -1239 0
-1238 -1239 0
-1240 -1241 0
-1240 -1242 0
-1241 -1242 0
-1243 -1244 0
-1243 -1245 0
-1244 -1245 0
-1246 -1247 0
-1246 -1248 0
-1247 -1248 0
-1249 -1250 0
-1249 -1251 0
-1250 -1251 0
-1252 -1253 0
-1252 -1254 0
-1253 -1254 0
-1255 -1256 0
-1255 -1257 0
-1256 -1257 0
-1258 -1259 0
-1258 -1260 0
-1259 -1260 0
-1261 -1262 0
-1261 -1263 0
-1262 -1263 0
-1264 -1265 0
-1264 -1266 0
-1265 -1266 0
-1267 -1268 0
-1267 -1269 0
-1268 -1269 0
-1270 -1271 0
-1270 -1272 0
-1271 -1272 0
-1273 -1274 0
-1273 -1275 0
-1274 -1275 0
-1276 -1277 0
-1276 -1278 0
-1277 -1278 0
-1279 -1280 0
-1279 -1281 0
-1280 -1281 0
-1282 -1283 0
-1282 -1284 0
-1283 -1284 0
-1285 -1286 0
-1285 -1287 0
-1286 -1287 0
-1288 -1289 0
-1288 -1290 0
-1289 -1290 0
-1291 -1292 0
-1291 -1293 0
-1292 -1293 0
-1294 -1295 0
-1294 -1296 0
-1295 -1296 0
-1297 -1298 0
-1297 -1299 0
-1298 -1299 0
-1300 -1301 0
-1300 -1302 0
-1301 -1302 0
-1303 -1304 0
-1303 -1305 0
-1304 -1305 0
-1306 -1307 0
-1306 -1308 0
-1307 -1308 0
-1309 -1310 0
-1309 -1311 0
-1310 -1311 0
-1312 -1313 0
-1312 -1314 0
-1313 -1314 0
-1315 -1316 0
-1315 -1317 0
-1316 -1317 0
-1318 -1319 0
-1318 -1320 0
-1319 -1320 0
-1321 -1322 0
-1321 -1323 0
-1322 -1323 0
-1324 -1325 0
-1324 -1326 0
-1325 -1326 0
-1327 -1328 0
-1327 -1329 0
-1328 -1329 0
-1330 -1331 0
-1330 -1332 0
-1331 -1332 0
-1333 -1334 0
-1333 -1335 0
-1334 -1335 0
-1336 -1337 0
-1336 -1338 0
-1337 -1338 0
-1339 -1340 0
-1339 -1341 0
-1340 -1341 0
-1342 -1343 0
-1342 -1344 0
-1343 -1344 0
-1345 -1346 0
-1345 -1347 0
-1346 -1347 0
-1348 -1349 0
-1348 -1350 0
-1349 -1350 0
-1351 -1352 0
-1351 -1353 0
-1352 -1353 0
-1354 -1355 0
-1354 -1356 0
-1355 -1356 0
-1357 -1358 0
-1357 -1359 0
-1358 -1359 0
-1360 -1361 0
-1360 -1362 0
-1361 -1362 0
-1363 -1364 0
-1363 -1365 0
-1364 -1365 0
-1366 -1367 0
-1366 -1368 0
-1367 -1368 0
-1369 -1370 0
-1369 -1371 0
-1370 -1371 0
-1372 -1373 0
-1372 -1374 0
-1373 -1374 0
-1375 -1376 0
-1375 -1377 0
-1376 -1377 0
-1378 -1379 0
-1378 -1380 0
-1379 -1380 0
-1381 -1382 0
-1381 -1383 0
-1382 -1383 0
-1384 -1385 0
-1384 -1386 0
-1385 -1386 0
-1387 -1388 0
-1387 -1389 0
-1388 -1389 0
-1390 -1391 0
-1390 -1392 0
-1391 -1392 0
-1393 -1394 0
-1393 -1395 0
-1394 -1395 0
-1396 -1397 0
-1396 -1398 0
-1397 -1398 0
-1399 -1400 0
-1399 -1401 0
-1400 -1401 0
-1402 -1403 0
-1402 -1404 0
-1403 -1404 0
-1405 -1406 0
-1405 -1407 0
-1406 -1407 0
-1408 -1409 0
-1408 -1410 0
-1409 -1410 0
-1411 -1412 0
-1411 -1413 0
-1412 -1413 0
-1414 -1415 0
-1414 -1416 0
-1415 -1416 0
-1417 -1418 0
-1417 -1419 0
-1418 -1419 0
-1420 -1421 0
-1420 -1422 0
-1421 -1422 0
-1423 -1424 0
-1423 -1425 0
-1424 -1425 0
-1426 -1427 0
-1426 -1428 0
-1427 -1428 0
-1429 -1430 0
-1429 -1431 0
-1430 -1431 0
-1432 -1433 0
-1432 -1434 0
-1433 -1434 0
-1435 -1436 0
-1435 -1437 0
-1436 -1437 0
-1438 -1439 0
-1438 -1440 0
-1439 -1440 0
-1441 -1442 0
-1441 -1443 0
-1442 -1443 0
-1444 -1445 0
-1444 -1446 0
-1445 -1446 0
-1447 -1448 0
-1447 -1449 0
-1448 -1449 0
-1450 -1451 0
-1450 -1452 0
-1451 -1452 0
-1453 -1454 0
-1453 -1455 0
-1454 -1455 0
-1456 -1457 0
-1456 -1458 0
-1457 -1458 0
-1459 -1460 0
-1459 -1461 0
-1460 -1461 0
-1462 -1463 0
-1462 -1464 0
-1463 -1464 0
-1465 -1466 0
-1465 -1467 0
-1466 -1467 0
-1468 -1469 0
-1468 -1470 0
-1469 -1470 0
-1471 -1472 0
-1471 -1473 0
-1472 -1473 0
-1474 -1475 0
-1474 -1476 0
-1475 -1476 0
-1477 -1478 0
-1477 -1479 0
-1478 -1479 0
-1480 -1481 0
-1480 -1482 0
-1481 -1482 0
-1483 -1484 0
-1483 -1485 0
-1484 -1485 0
-1486 -1487 0
-1486 -1488 0
-1487 -1488 0
-1489 -1490 0
-1489 -1491 0
-1490 -1491 0
-1492 -1493 0
-1492 -1494 0
-1493 -1494 0
-1495 -1496 0
-1495 -1497 0
-1496 -1497 0
-1498 -1499 0
-1498 -1500 0
-1499 -1500 0
-1 -340 0
-2 -341 0
-3 -342 0
-1 -1123 0
-2 -1124 0
-3 -1125 0
-4 -112 0
-5 -113 0
-6 -114 0
-4 -436 0
-5 -437 0
-6 -438 0
-4 -598 0
-5 -599 0
-6 -600 0
-4 -835 0
-5 -836 0
-6 -837 0
-4 -979 0
-5 -980 0
-6 -981 0
-4 -1156 0
-5 -1157 0
-6 -1158 0
-7 -106 0
-8 -107 0
-9 -108 0
-7 -541 0
-8 -542 0
-9 -543 0
-7 -616 0
-8 -617 0
-9 -618 0
-7 -1030 0
-8 -1031 0
-9 -1032 0
-7 -1294 0
-8 -1295 0
-9 -1296 0
-7 -1435 0
-8 -1436 0
-9 -1437 0
-10 -220 0
-11 -221 0
-12 -222 0
-10 -820 0
-11 -821 0
-12 -822 0
-10 -1003 0
-11 -1004 0
-12 -1005 0
-10 -1141 0
-11 -1142 0
-12 -1143 0
-13 -241 0
-14 -242 0
-15 -243 0
-13 -733 0
-14 -734 0
-15 -735 0
-13 -820 0
-14 -821 0
-15 -822 0
-13 -1372 0
-14 -1373 0
-15 -1374 0
-13 -1492 0
-14 -1493 0
-15 -1494 0
-16 -37 0
-17 -38 0
-18 -39 0
-16 -484 0
-17 -485 0
-18 -486 0
-16 -769 0
-17 -770 0
-18 -771 0
-16 -1261 0
-17 -1262 0
-18 -1263 0
-19 -202 0
-20 -203 0
-21 -204 0
-19 -280 0
-20 -281 0
-21 -282 0
-19 -370 0
-20 -371 0
-21 -372 0
-19 -523 0
-20 -524 0
-21 -525 0
-19 -988 0
-20 -989 0
-21 -990 0
-22 -943 0
-23 -944 0
-24 -945 0
-22 -964 0
-23 -965 0
-24 -966 0
-22 -1276 0
-23 -1277 0
-24 -1278 0
-25 -139 0
-26 -140 0
-27 -141 0
-25 -502 0
-26 -503 0
-27 -504 0
-25 -877 0
-26 -878 0
-27 -879 0
-25 -1168 0
-26 -1169 0
-27 -1170 0
-25 -1294 0
-26 -1295 0
-27 -1296 0
-28 -52 0
-29 -53 0
-30 -54 0
-28 -1234 0
-29 -1235 0
-30 -1236 0
-31 -211 0
-32 -212 0
-33 -213 0
-31 -502 0
-32 -503 0
-33 -504 0
-31 -964 0
-32 -965 0
-33 -966 0
-31 -1306 0
-32 -1307 0
-33 -1308 0
-34 -730 0
-35 -731 0
-36 -732 0
-34 -733 0
-35 -734 0
-36 -735 0
-34 -1039 0
-35 -1040 0
-36 -1041 0
-37 -82 0
-38 -83 0
-39 -84 0
-37 -547 0
-38 -548 0
-39 -549 0
-37 -694 0
-38 -695 0
-39 -696 0
-37 -1063 0
-38 -1064 0
-39 -1065 0
-40 -115 0
-41 -116 0
-42 -117 0
-40 -556 0
-41 -557 0
-42 -558 0
-40 -778 0
-41 -779 0
-42 -780 0
-43 -106 0
-44 -107 0
-45 -108 0
-43 -1192 0
-44 -1193 0
-45 -1194 0
-43 -1288 0
-44 -1289 0
-45 -1290 0
-43 -1390 0
-44 -1391 0
-45 -1392 0
-43 -1396 0
-44 -1397 0
-45 -1398 0
-46 -106 0
-47 -107 0
-48 -108 0
-46 -1063 0
-47 -1064 0
-48 -1065 0
-46 -1357 0
-47 -1358 0
-48 -1359 0
-49 -118 0
-50 -119 0
-51 -120 0
-49 -208 0
-50 -209 0
-51 -210 0
-49 -589 0
-50 -590 0
-51 -591 0
-49 -1048 0
-50 -1049 0
-51 -1050 0
-49 -1255 0
-50 -1256 0
-51 -1257 0
-49 -1357 0
-50 -1358 0
-51 -1359 0
-52 -550 0
-53 -551 0
-54 -552 0
-52 -1222 0
-53 -1223 0
-54 -1224 0
-52 -1447 0
-53 -1448 0
-54 -1449 0
-52 -1474 0
-53 -1475 0
-54 -1476 0
-55 -721 0
-56 -722 0
-57 -723 0
-55 -1036 0
-56 -1037 0
-57 -1038 0
-55 -1132 0
-56 -1133 0
-57 -1134 0
-55 -1174 0
-56 -1175 0
-57 -1176 0
-55 -1360 0
-56 -1361 0
-57 -1362 0
-55 -1363 0
-56 -1364 0
-57 -1365 0
-58 -202 0
-59 -203 0
-60 -204 0
-58 -574 0
-59 -575 0
-60 -576 0
-58 -1108 0
-59 -1109 0
-60 -1110 0
-61 -355 0
-62 -356 0
-63 -357 0
-61 -574 0
-62 -575 0
-63 -576 0
-61 -607 0
-62 -608 0
-63 -609 0
-61 -628 0
-62 -629 0
-63 -630 0
-61 -868 0
-62 -869 0
-63 -870 0
-61 -1015 0
-62 -1016 0
-63 -1017 0
-61 -1078 0
-62 -1079 0
-63 -1080 0
-61 -1129 0
-62 -1130 0
-63 -1131 0
-64 -340 0
-65 -341 0
-66 -342 0
-64 -415 0
-65 -416 0
-66 -417 0
-64 -457 0
-65 -458 0
-66 -459 0
-64 -919 0
-65 -920 0
-66 -921 0
-64 -967 0
-65 -968 0
-66 -969 0
-64 -1021 0
-65 -1022 0
-66 -1023 0
-64 -1138 0
-65 -1139 0
-66 -1140 0
-67 -181 0
-68 -182 0
-69 -183 0
-67 -226 0
-68 -227 0
-69 -228 0
-67 -301 0
-68 -302 0
-69 -303 0
-67 -403 0
-68 -404 0
-69 -405 0
-67 -487 0
-68 -488 0
-69 -489 0
-67 -640 0
-68 -641 0
-69 -642 0
-67 -1336 0
-68 -1337 0
-69 -1338 0
-70 -184 0
-71 -185 0
-72 -186 0
-70 -235 0
-71 -236 0
-72 -237 0
-70 -712 0
-71 -713 0
-72 -714 0
-70 -1033 0
-71 -1034 0
-72 -1035 0
-70 -1105 0
-71 -1106 0
-72 -1107 0
-73 -91 0
-74 -92 0
-75 -93 0
-73 -280 0
-74 -281 0
-75 -282 0
-73 -421 0
-74 -422 0
-75 -423 0
-73 -490 0
-74 -491 0
-75 -492 0
-73 -643 0
-74 -644 0
-75 -645 0
-73 -1378 0
-74 -1379 0
-75 -1380 0
-76 -709 0
-77 -710 0
-78 -711 0
-76 -1018 0
-77 -1019 0
-78 -1020 0
-76 -1234 0
-77 -1235 0
-78 -1236 0
-79 -178 0
-80 -179 0
-81 -180 0
-79 -202 0
-80 -203 0
-81 -204 0
-79 -253 0
-80 -254 0
-81 -255 0
-79 -556 0
-80 -557 0
-81 -558 0
-79 -619 0
-80 -620 0
-81 -621 0
-79 -703 0
-80 -704 0
-81 -705 0
-79 -1057 0
-80 -1058 0
-81 -1059 0
-79 -1219 0
-80 -1220 0
-81 -1221 0
-79 -1246 0
-80 -1247 0
-81 -1248 0
-82 -856 0
-83 -857 0
-84 -858 0
-85 -277 0
-86 -278 0
-87 -279 0
-85 -550 0
-86 -551 0
-87 -552 0
-85 -784 0
-86 -785 0
-87 -786 0
-85 -1246 0
-86 -1247 0
-87 -1248 0
-85 -1414 0
-86 -1415 0
-87 -1416 0
-88 -1096 0
-89 -1097 0
-90 -1098 0
-88 -1123 0
-89 -1124 0
-90 -1125 0
-88 -1180 0
-89 -1181 0
-90 -1182 0
-91 -193 0
-92 -194 0
-93 -195 0
-91 -538 0
-92 -539 0
-93 -540 0
-91 -886 0
-92 -887 0
-93 -888 0
-91 -1165 0
-92 -1166 0
-93 -1167 0
-94 -1291 0
-95 -1292 0
-96 -1293 0
-94 -1372 0
-95 -1373 0
-96 -1374 0
-100 -124 0
-101 -125 0
-102 -126 0
-100 -142 0
-101 -143 0
-102 -144 0
-100 -307 0
-101 -308 0
-102 -309 0
-100 -934 0
-101 -935 0
-102 -936 0
-100 -1015 0
-101 -1016 0
-102 -1017 0
-100 -1372 0
-101 -1373 0
-102 -1374 0
-103 -406 0
-104 -407 0
-105 -408 0
-106 -799 0
-107 -800 0
-108 -801 0
-106 -1429 0
-107 -1430 0
-108 -1431 0
-109 -181 0
-110 -182 0
-111 -183 0
-109 -253 0
-110 -254 0
-111 -255 0
-109 -424 0
-110 -425 0
-111 -426 0
-109 -637 0
-110 -638 0
-111 -639 0
-109 -646 0
-110 -647 0
-111 -648 0
-109 -1075 0
-110 -1076 0
-111 -1077 0
-112 -388 0
-113 -389 0
-114 -390 0
-112 -463 0
-113 -464 0
-114 -465 0
-112 -670 0
-113 -671 0
-114 -672 0
-112 -1012 0
-113 -1013 0
-114 -1014 0
-112 -1135 0
-113 -1136 0
-114 -1137 0
-112 -1138 0
-113 -1139 0
-114 -1140 0
-115 -226 0
-116 -227 0
-117 -228 0
-118 -142 0
-119 -143 0
-120 -144 0
-118 -244 0
-119 -245 0
-120 -246 0
-118 -991 0
-119 -992 0
-120 -993 0
-118 -1003 0
-119 -1004 0
-120 -1005 0
-121 -448 0
-122 -449 0
-123 -450 0
-121 -553 0
-122 -554 0
-123 -555 0
-121 -667 0
-122 -668 0
-123 -669 0
-121 -913 0
-122 -914 0
-123 -915 0
-121 -1096 0
-122 -1097 0
-123 -1098 0
-121 -1132 0
-122 -1133 0
-123 -1134 0
-121 -1240 0
-122 -1241 0
-123 -1242 0
-121 -1249 0
-122 -1250 0
-123 -1251 0
-124 -208 0
-125 -209 0
-126 -210 0
-124 -373 0
-125 -374 0
-126 -375 0
-124 -376 0
-125 -377 0
-126 -378 0
-124 -733 0
-125 -734 0
-126 -735 0
-124 -805 0
-125 -806 0
-126 -807 0
-124 -1195 0
-125 -1196 0
-126 -1197 0
-124 -1234 0
-125 -1235 0
-126 -1236 0
-127 -220 0
-128 -221 0
-129 -222 0
-127 -778 0
-128 -779 0
-129 -780 0
-127 -934 0
-128 -935 0
-129 -936 0
-127 -1132 0
-128 -1133 0
-129 -1134 0
-127 -1171 0
-128 -1172 0
-129 -1173 0
-127 -1204 0
-128 -1205 0
-129 -1206 0
-130 -823 0
-131 -824 0
-132 -825 0
-130 -1075 0
-131 -1076 0
-132 -1077 0
-130 -1120 0
-131 -1121 0
-132 -1122 0
-133 -154 0
-134 -155 0
-135 -156 0
-133 -577 0
-134 -578 0
-135 -579 0
-133 -604 0
-134 -605 0
-135 -606 0
-136 -214 0
-137 -215 0
-138 -216 0
-136 -511 0
-137 -512 0
-138 -513 0
-136 -1093 0
-137 -1094 0
-138 -1095 0
-136 -1102 0
-137 -1103 0
-138 -1104 0
-136 -1108 0
-137 -1109 0
-138 -1110 0
-136 -1120 0
-137 -1121 0
-138 -1122 0
-136 -1324 0
-137 -1325 0
-138 -1326 0
-136 -1369 0
-137 -1370 0
-138 -1371 0
-136 -1426 0
-137 -1427 0
-138 -1428 0
-139 -430 0
-140 -431 0
-141 -432 0
-139 -781 0
-140 -782 0
-141 -783 0
-139 -919 0
-140 -920 0
-141 -921 0
-139 -1084 0
-140 -1085 0
-141 -1086 0
-139 -1294 0
-140 -1295 0
-141 -1296 0
-139 -1396 0
-140 -1397 0
-141 -1398 0
-142 -985 0
-143 -986 0
-144 -987 0
-142 -1015 0
-143 -1016 0
-144 -1017 0
-142 -1159 0
-143 -1160 0
-144 -1161 0
-145 -286 0
-146 -287 0
-147 -288 0
-145 -514 0
-146 -515 0
-147 -516 0
-145 -1072 0
-146 -1073 0
-147 -1074 0
-148 -211 0
-149 -212 0
-150 -213 0
-148 -304 0
-149 -305 0
-150 -306 0
-148 -589 0
-149 -590 0
-150 -591 0
-148 -1270 0
-149 -1271 0
-150 -1272 0
-148 -1351 0
-149 -1352 0
-150 -1353 0
-151 -292 0
-152 -293 0
-153 -294 0
-151 -631 0
-152 -632 0
-153 -633 0
-151 -760 0
-152 -761 0
-153 -762 0
-151 -787 0
-152 -788 0
-153 -789 0
-151 -805 0
-152 -806 0
-153 -807 0
-151 -1126 0
-152 -1127 0
-153 -1128 0
-151 -1150 0
-152 -1151 0
-153 -1152 0
-151 -1420 0
-152 -1421 0
-153 -1422 0
-151 -1486 0
-152 -1487 0
-153 -1488 0
-154 -421 0
-155 -422 0
-156 -423 0
-154 -649 0
-155 -650 0
-156 -651 0
-154 -739 0
-155 -740 0
-156 -741 0
-154 -793 0
-155 -794 0
-156 -795 0
-154 -1390 0
-155 -1391 0
-156 -1392 0
-157 -352 0
-158 -353 0
-159 -354 0
-157 -916 0
-158 -917 0
-159 -918 0
-157 -1120 0
-158 -1121 0
-159 -1122 0
-157 -1243 0
-158 -1244 0
-159 -1245 0
-160 -286 0
-161 -287 0
-162 -288 0
-160 -748 0
-161 -749 0
-162 -750 0
-160 -913 0
-161 -914 0
-162 -915 0
-160 -940 0
-161 -941 0
-162 -942 0
-163 -787 0
-164 -788 0
-165 -789 0
-163 -835 0
-164 -836 0
-165 -837 0
-163 -1261 0
-164 -1262 0
-165 -1263 0
-166 -553 0
-167 -554 0
-168 -555 0
-166 -1042 0
-167 -1043 0
-168 -1044 0
-166 -1048 0
-167 -1049 0
-168 -1050 0
-169 -466 0
-170 -467 0
-171 -468 0
-169 -841 0
-170 -842 0
-171 -843 0
-172 -220 0
-173 -221 0
-174 -222 0
-172 -457 0
-173 -458 0
-174 -459 0
-172 -532 0
-173 -533 0
-174 -534 0
-172 -775 0
-173 -776 0
-174 -777 0
-172 -1435 0
-173 -1436 0
-174 -1437 0
-175 -820 0
-176 -821 0
-177 -822 0
-175 -877 0
-176 -878 0
-177 -879 0
-175 -1024 0
-176 -1025 0
-177 -1026 0
-175 -1036 0
-176 -1037 0
-177 -1038 0
-175 -1057 0
-176 -1058 0
-177 -1059 0
-175 -1138 0
-176 -1139 0
-177 -1140 0
-175 -1495 0
-176 -1496 0
-177 -1497 0
-178 -205 0
-179 -206 0
-180 -207 0
-178 -508 0
-179 -509 0
-180 -510 0
-178 -796 0
-179 -797 0
-180 -798 0
-178 -1066 0
-179 -1067 0
-180 -1068 0
-178 -1195 0
-179 -1196 0
-180 -1197 0
-181 -571 0
-182 -572 0
-183 -573 0
-181 -709 0
-182 -710 0
-183 -711 0
-181 -766 0
-182 -767 0
-183 -768 0
-181 -961 0
-182 -962 0
-183 -963 0
-181 -1213 0
-182 -1214 0
-183 -1215 0
-181 -1498 0
-182 -1499 0
-183 -1500 0
-184 -205 0
-185 -206 0
-186 -207 0
-184 -487 0
-185 -488 0
-186 -489 0
-184 -937 0
-185 -938 0
-186 -939 0
-184 -1033 0
-185 -1034 0
-186 -1035 0
-184 -1048 0
-185 -1049 0
-186 -1050 0
-184 -1378 0
-185 -1379 0
-186 -1380 0
-184 -1432 0
-185 -1433 0
-186 -1434 0
-187 -586 0
-188 -587 0
-189 -588 0
-187 -631 0
-188 -632 0
-189 -633 0
-187 -751 0
-188 -752 0
-189 -753 0
-187 -937 0
-188 -938 0
-189 -939 0
-187 -1105 0
-188 -1106 0
-189 -1107 0
-187 -1108 0
-188 -1109 0
-189 -1110 0
-190 -652 0
-191 -653 0
-192 -654 0
-190 -1000 0
-191 -1001 0
-192 -1002 0
-190 -1300 0
-191 -1301 0
-192 -1302 0
-193 -766 0
-194 -767 0
-195 -768 0
-193 -928 0
-194 -929 0
-195 -930 0
-193 -1072 0
-194 -1073 0
-195 -1074 0
-193 -1462 0
-194 -1463 0
-195 -1464 0
-196 -640 0
-197 -641 0
-198 -642 0
-196 -928 0
-197 -929 0
-198 -930 0
-196 -958 0
-197 -959 0
-198 -960 0
-196 -1219 0
-197 -1220 0
-198 -1221 0
-196 -1426 0
-197 -1427 0
-198 -1428 0
-199 -496 0
-200 -497 0
-201 -498 0
-199 -1276 0
-200 -1277 0
-201 -1278 0
-199 -1444 0
-200 -1445 0
-201 -1446 0
-199 -1453 0
-200 -1454 0
-201 -1455 0
-202 -460 0
-203 -461 0
-204 -462 0
-202 -685 0
-203 -686 0
-204 -687 0
-202 -877 0
-203 -878 0
-204 -879 0
-202 -1060 0
-203 -1061 0
-204 -1062 0
-202 -1117 0
-203 -1118 0
-204 -1119 0
-202 -1186 0
-203 -1187 0
-204 -1188 0
-202 -1270 0
-203 -1271 0
-204 -1272 0
-205 -1054 0
-206 -1055 0
-207 -1056 0
-205 -1222 0
-206 -1223 0
-207 -1224 0
-205 -1369 0
-206 -1370 0
-207 -1371 0
-208 -343 0
-209 -344 0
-210 -345 0
-208 -715 0
-209 -716 0
-210 -717 0
-208 -1030 0
-209 -1031 0
-210 -1032 0
-211 -235 0
-212 -236 0
-213 -237 0
-211 -1129 0
-212 -1130 0
-213 -1131 0
-214 -412 0
-215 -413 0
-216 -414 0
-214 -754 0
-215 -755 0
-216 -756 0
-214 -1246 0
-215 -1247 0
-216 -1248 0
-214 -1336 0
-215 -1337 0
-216 -1338 0
-214 -1342 0
-215 -1343 0
-216 -1344 0
-217 -625 0
-218 -626 0
-219 -627 0
-217 -1282 0
-218 -1283 0
-219 -1284 0
-217 -1453 0
-218 -1454 0
-219 -1455 0
-217 -1465 0
-218 -1466 0
-219 -1467 0
-220 -310 0
-221 -311 0
-222 -312 0
-220 -316 0
-221 -317 0
-222 -318 0
-220 -1336 0
-221 -1337 0
-222 -1338 0
-220 -1351 0
-221 -1352 0
-222 -1353 0
-223 -316 0
-224 -317 0
-225 -318 0
-223 -541 0
-224 -542 0
-225 -543 0
-223 -628 0
-224 -629 0
-225 -630 0
-223 -826 0
-224 -827 0
-225 -828 0
-223 -937 0
-224 -938 0
-225 -939 0
-226 -289 0
-227 -290 0
-228 -291 0
-226 -328 0
-227 -329 0
-228 -330 0
-226 -556 0
-227 -557 0
-228 -558 0
-229 -664 0
-230 -665 0
-231 -666 0
-229 -739 0
-230 -740 0
-231 -741 0
-229 -802 0
-230 -803 0
-231 -804 0
-229 -1492 0
-230 -1493 0
-231 -1494 0
-232 -364 0
-233 -365 0
-234 -366 0
-232 -793 0
-233 -794 0
-234 -795 0
-232 -1084 0
-233 -1085 0
-234 -1086 0
-232 -1390 0
-233 -1391 0
-234 -1392 0
-235 -997 0
-236 -998 0
-237 -999 0
-235 -1396 0
-236 -1397 0
-237 -1398 0
-238 -262 0
-239 -263 0
-240 -264 0
-238 -487 0
-239 -488 0
-240 -489 0
-238 -829 0
-239 -830 0
-240 -831 0
-238 -1438 0
-239 -1439 0
-240 -1440 0
-241 -580 0
-242 -581 0
-243 -582 0
-241 -1294 0
-242 -1295 0
-243 -1296 0
-241 -1297 0
-242 -1298 0
-243 -1299 0
-244 -931 0
-245 -932 0
-246 -933 0
-247 -301 0
-248 -302 0
-249 -303 0
-247 -631 0
-248 -632 0
-249 -633 0
-247 -931 0
-248 -932 0
-249 -933 0
-247 -1033 0
-248 -1034 0
-249 -1035 0
-247 -1039 0
-248 -1040 0
-249 -1041 0
-247 -1435 0
-248 -1436 0
-249 -1437 0
-250 -265 0
-251 -266 0
-252 -267 0
-250 -382 0
-251 -383 0
-252 -384 0
-250 -679 0
-251 -680 0
-252 -681 0
-250 -1054 0
-251 -1055 0
-252 -1056 0
-250 -1108 0
-251 -1109 0
-252 -1110 0
-253 -472 0
-254 -473 0
-255 -474 0
-253 -643 0
-254 -644 0
-255 -645 0
-253 -907 0
-254 -908 0
-255 -909 0
-253 -1072 0
-254 -1073 0
-255 -1074 0
-256 -427 0
-257 -428 0
-258 -429 0
-256 -772 0
-257 -773 0
-258 -774 0
-256 -1084 0
-257 -1085 0
-258 -1086 0
-259 -346 0
-260 -347 0
-261 -348 0
-259 -439 0
-260 -440 0
-261 -441 0
-259 -661 0
-260 -662 0
-261 -663 0
-259 -676 0
-260 -677 0
-261 -678 0
-259 -781 0
-260 -782 0
-261 -783 0
-259 -1012 0
-260 -1013 0
-261 -1014 0
-259 -1072 0
-260 -1073 0
-261 -1074 0
-259 -1444 0
-260 -1445 0
-261 -1446 0
-262 -634 0
-263 -635 0
-264 -636 0
-262 -766 0
-263 -767 0
-264 -768 0
-262 -967 0
-263 -968 0
-264 -969 0
-265 -625 0
-266 -626 0
-267 -627 0
-265 -844 0
-266 -845 0
-267 -846 0
-265 -1012 0
-266 -1013 0
-267 -1014 0
-265 -1207 0
-266 -1208 0
-267 -1209 0
-265 -1405 0
-266 -1406 0
-267 -1407 0
-268 -439 0
-269 -440 0
-270 -441 0
-268 -1375 0
-269 -1376 0
-270 -1377 0
-271 -295 0
-272 -296 0
-273 -297 0
-271 -892 0
-272 -893 0
-273 -894 0
-271 -1264 0
-272 -1265 0
-273 -1266 0
-274 -391 0
-275 -392 0
-276 -393 0
-274 -865 0
-275 -866 0
-276 -867 0
-274 -1000 0
-275 -1001 0
-276 -1002 0
-274 -1141 0
-275 -1142 0
-276 -1143 0
-277 -298 0
-278 -299 0
-279 -300 0
-277 -859 0
-278 -860 0
-279 -861 0
-277 -1009 0
-278 -1010 0
-279 -1011 0
-277 -1057 0
-278 -1058 0
-279 -1059 0
-277 -1273 0
-278 -1274 0
-279 -1275 0
-280 -847 0
-281 -848 0
-282 -849 0
-280 -1027 0
-281 -1028 0
-282 -1029 0
-283 -1417 0
-284 -1418 0
-285 -1419 0
-283 -1459 0
-284 -1460 0
-285 -1461 0
-286 -514 0
-287 -515 0
-288 -516 0
-286 -523 0
-287 -524 0
-288 -525 0
-286 -1054 0
-287 -1055 0
-288 -1056 0
-286 -1138 0
-287 -1139 0
-288 -1140 0
-286 -1348 0
-287 -1349 0
-288 -1350 0
-289 -376 0
-290 -377 0
-291 -378 0
-289 -412 0
-290 -413 0
-291 -414 0
-289 -724 0
-290 -725 0
-291 -726 0
-289 -955 0
-290 -956 0
-291 -957 0
-289 -982 0
-290 -983 0
-291 -984 0
-289 -1459 0
-290 -1460 0
-291 -1461 0
-292 -529 0
-293 -530 0
-294 -531 0
-292 -772 0
-293 -773 0
-294 -774 0
-292 -1198 0
-293 -1199 0
-294 -1200 0
-295 -358 0
-296 -359 0
-297 -360 0
-295 -1045 0
-296 -1046 0
-297 -1047 0
-295 -1123 0
-296 -1124 0
-297 -1125 0
-295 -1126 0
-296 -1127 0
-297 -1128 0
-295 -1249 0
-296 -1250 0
-297 -1251 0
-295 -1273 0
-296 -1274 0
-297 -1275 0
-298 -484 0
-299 -485 0
-300 -486 0
-298 -514 0
-299 -515 0
-300 -516 0
-298 -1177 0
-299 -1178 0
-300 -1179 0
-298 -1189 0
-299 -1190 0
-300 -1191 0
-298 -1324 0
-299 -1325 0
-300 -1326 0
-298 -1387 0
-299 -1388 0
-300 -1389 0
-301 -385 0
-302 -386 0
-303 -387 0
-301 -475 0
-302 -476 0
-303 -477 0
-301 -643 0
-302 -644 0
-303 -645 0
-301 -769 0
-302 -770 0
-303 -771 0
-301 -1084 0
-302 -1085 0
-303 -1086 0
-301 -1102 0
-302 -1103 0
-303 -1104 0
-304 -379 0
-305 -380 0
-306 -381 0
-304 -751 0
-305 -752 0
-306 -753 0
-304 -1315 0
-305 -1316 0
-306 -1317 0
-304 -1465 0
-305 -1466 0
-306 -1467 0
-307 -664 0
-308 -665 0
-309 -666 0
-307 -994 0
-308 -995 0
-309 -996 0
-307 -1066 0
-308 -1067 0
-309 -1068 0
-307 -1099 0
-308 -1100 0
-309 -1101 0
-307 -1162 0
-308 -1163 0
-309 -1164 0
-307 -1375 0
-308 -1376 0
-309 -1377 0
-307 -1423 0
-308 -1424 0
-309 -1425 0
-310 -442 0
-311 -443 0
-312 -444 0
-310 -655 0
-311 -656 0
-312 -657 0
-310 -1174 0
-311 -1175 0
-312 -1176 0
-310 -1417 0
-311 -1418 0
-312 -1419 0
-313 -727 0
-314 -728 0
-315 -729 0
-313 -862 0
-314 -863 0
-315 -864 0
-316 -1144 0
-317 -1145 0
-318 -1146 0
-316 -1153 0
-317 -1154 0
-318 -1155 0
-316 -1420 0
-317 -1421 0
-318 -1422 0
-319 -376 0
-320 -377 0
-321 -378 0
-319 -436 0
-320 -437 0
-321 -438 0
-319 -448 0
-320 -449 0
-321 -450 0
-319 -646 0
-320 -647 0
-321 -648 0
-319 -700 0
-320 -701 0
-321 -702 0
-319 -1060 0
-320 -1061 0
-321 -1062 0
-319 -1219 0
-320 -1220 0
-321 -1221 0
-319 -1228 0
-320 -1229 0
-321 -1230 0
-319 -1447 0
-320 -1448 0
-321 -1449 0
-322 -382 0
-323 -383 0
-324 -384 0
-322 -562 0
-323 -563 0
-324 -564 0
-322 -955 0
-323 -956 0
-324 -957 0
-322 -979 0
-323 -980 0
-324 -981 0
-322 -1252 0
-323 -1253 0
-324 -1254 0
-322 -1348 0
-323 -1349 0
-324 -1350 0
-322 -1405 0
-323 -1406 0
-324 -1407 0
-325 -367 0
-326 -368 0
-327 -369 0
-325 -1021 0
-326 -1022 0
-327 -1023 0
-328 -523 0
-329 -524 0
-330 -525 0
-328 -742 0
-329 -743 0
-330 -744 0
-328 -862 0
-329 -863 0
-330 -864 0
-328 -961 0
-329 -962 0
-330 -963 0
-328 -1057 0
-329 -1058 0
-330 -1059 0
-328 -1081 0
-329 -1082 0
-330 -1083 0
-328 -1249 0
-329 -1250 0
-330 -1251 0
-328 -1339 0
-329 -1340 0
-330 -1341 0
-331 -367 0
-332 -368 0
-333 -369 0
-331 -373 0
-332 -374 0
-333 -375 0
-331 -832 0
-332 -833 0
-333 -834 0
-334 -466 0
-335 -467 0
-336 -468 0
-334 -586 0
-335 -587 0
-336 -588 0
-334 -739 0
-335 -740 0
-336 -741 0
-334 -949 0
-335 -950 0
-336 -951 0
-334 -1132 0
-335 -1133 0
-336 -1134 0
-334 -1303 0
-335 -1304 0
-336 -1305 0
-337 -1102 0
-338 -1103 0
-339 -1104 0
-340 -592 0
-341 -593 0
-342 -594 0
-340 -706 0
-341 -707 0
-342 -708 0
-340 -892 0
-341 -893 0
-342 -894 0
-343 -946 0
-344 -947 0
-345 -948 0
-346 -631 0
-347 -632 0
-348 -633 0
-346 -865 0
-347 -866 0
-348 -867 0
-346 -1168 0
-347 -1169 0
-348 -1170 0
-349 -757 0
-350 -758 0
-351 -759 0
-349 -1006 0
-350 -1007 0
-351 -1008 0
-349 -1204 0
-350 -1205 0
-351 -1206 0
-349 -1330 0
-350 -1331 0
-351 -1332 0
-352 -652 0
-353 -653 0
-354 -654 0
-352 -781 0
-353 -782 0
-354 -783 0
-352 -1075 0
-353 -1076 0
-354 -1077 0
-352 -1093 0
-353 -1094 0
-354 -1095 0
-352 -1207 0
-353 -1208 0
-354 -1209 0
-355 -565 0
-356 -566 0
-357 -567 0
-355 -925 0
-356 -926 0
-357 -927 0
-355 -1000 0
-356 -1001 0
-357 -1002 0
-355 -1129 0
-356 -1130 0
-357 -1131 0
-355 -1306 0
-356 -1307 0
-357 -1308 0
-358 -631 0
-359 -632 0
-360 -633 0
-358 -904 0
-359 -905 0
-360 -906 0
-358 -1456 0
-359 -1457 0
-360 -1458 0
-361 -526 0
-362 -527 0
-363 -528 0
-361 -1045 0
-362 -1046 0
-363 -1047 0
-361 -1147 0
-362 -1148 0
-363 -1149 0
-364 -427 0
-365 -428 0
-366 -429 0
-364 -766 0
-365 -767 0
-366 -768 0
-364 -1012 0
-365 -1013 0
-366 -1014 0
-364 -1426 0
-365 -1427 0
-366 -1428 0
-367 -610 0
-368 -611 0
-369 -612 0
-367 -1012 0
-368 -1013 0
-369 -1014 0
-367 -1144 0
-368 -1145 0
-369 -1146 0
-367 -1177 0
-368 -1178 0
-369 -1179 0
-367 -1327 0
-368 -1328 0
-369 -1329 0
-367 -1369 0
-368 -1370 0
-369 -1371 0
-367 -1384 0
-368 -1385 0
-369 -1386 0
-367 -1420 0
-368 -1421 0
-369 -1422 0
-370 -1033 0
-371 -1034 0
-372 -1035 0
-370 -1255 0
-371 -1256 0
-372 -1257 0
-373 -517 0
-374 -518 0
-375 -519 0
-373 -610 0
-374 -611 0
-375 -612 0
-373 -736 0
-374 -737 0
-375 -738 0
-373 -799 0
-374 -800 0
-375 -801 0
-376 -649 0
-377 -650 0
-378 -651 0
-376 -778 0
-377 -779 0
-378 -780 0
-376 -1006 0
-377 -1007 0
-378 -1008 0
-376 -1234 0
-377 -1235 0
-378 -1236 0
-379 -934 0
-380 -935 0
-381 -936 0
-382 -682 0
-383 -683 0
-384 -684 0
-382 -1462 0
-383 -1463 0
-384 -1464 0
-385 -553 0
-386 -554 0
-387 -555 0
-385 -565 0
-386 -566 0
-387 -567 0
-388 -1075 0
-389 -1076 0
-390 -1077 0
-388 -1324 0
-389 -1325 0
-390 -1326 0
-391 -442 0
-392 -443 0
-393 -444 0
-394 -1033 0
-395 -1034 0
-396 -1035 0
-394 -1264 0
-395 -1265 0
-396 -1266 0
-394 -1345 0
-395 -1346 0
-396 -1347 0
-397 -607 0
-398 -608 0
-399 -609 0
-400 -472 0
-401 -473 0
-402 -474 0
-400 -1180 0
-401 -1181 0
-402 -1182 0
-400 -1213 0
-401 -1214 0
-402 -1215 0
-400 -1459 0
-401 -1460 0
-402 -1461 0
-403 -997 0
-404 -998 0
-405 -999 0
-403 -1492 0
-404 -1493 0
-405 -1494 0
-406 -430 0
-407 -431 0
-408 -432 0
-406 -466 0
-407 -467 0
-408 -468 0
-406 -469 0
-407 -470 0
-408 -471 0
-406 -481 0
-407 -482 0
-408 -483 0
-406 -490 0
-407 -491 0
-408 -492 0
-406 -646 0
-407 -647 0
-408 -648 0
-406 -772 0
-407 -773 0
-408 -774 0
-406 -1231 0
-407 -1232 0
-408 -1233 0
-409 -427 0
-410 -428 0
-411 -429 0
-409 -505 0
-410 -506 0
-411 -507 0
-409 -622 0
-410 -623 0
-411 -624 0
-409 -742 0
-410 -743 0
-411 -744 0
-409 -892 0
-410 -893 0
-411 -894 0
-409 -1276 0
-410 -1277 0
-411 -1278 0
-409 -1444 0
-410 -1445 0
-411 -1446 0
-412 -619 0
-413 -620 0
-414 -621 0
-412 -649 0
-413 -650 0
-414 -651 0
-412 -790 0
-413 -791 0
-414 -792 0
-412 -946 0
-413 -947 0
-414 -948 0
-412 -1204 0
-413 -1205 0
-414 -1206 0
-415 -586 0
-416 -587 0
-417 -588 0
-415 -832 0
-416 -833 0
-417 -834 0
-415 -925 0
-416 -926 0
-417 -927 0
-415 -1285 0
-416 -1286 0
-417 -1287 0
-418 -460 0
-419 -461 0
-420 -462 0
-418 -889 0
-419 -890 0
-420 -891 0
-418 -1405 0
-419 -1406 0
-420 -1407 0
-421 -484 0
-422 -485 0
-423 -486 0
-421 -538 0
-422 -539 0
-423 -540 0
-421 -706 0
-422 -707 0
-423 -708 0
-421 -1189 0
-422 -1190 0
-423 -1191 0
-424 -634 0
-425 -635 0
-426 -636 0
-424 -685 0
-425 -686 0
-426 -687 0
-424 -844 0
-425 -845 0
-426 -846 0
-424 -1294 0
-425 -1295 0
-426 -1296 0
-430 -466 0
-431 -467 0
-432 -468 0
-430 -949 0
-431 -950 0
-432 -951 0
-430 -1381 0
-431 -1382 0
-432 -1383 0
-433 -457 0
-434 -458 0
-435 -459 0
-433 -748 0
-434 -749 0
-435 -750 0
-433 -886 0
-434 -887 0
-435 -888 0
-433 -1186 0
-434 -1187 0
-435 -1188 0
-433 -1267 0
-434 -1268 0
-435 -1269 0
-433 -1342 0
-434 -1343 0
-435 -1344 0
-436 -670 0
-437 -671 0
-438 -672 0
-436 -970 0
-437 -971 0
-438 -972 0
-436 -982 0
-437 -983 0
-438 -984 0
-436 -1018 0
-437 -1019 0
-438 -1020 0
-436 -1162 0
-437 -1163 0
-438 -1164 0
-442 -469 0
-443 -470 0
-444 -471 0
-442 -601 0
-443 -602 0
-444 -603 0
-442 -712 0
-443 -713 0
-444 -714 0
-445 -1453 0
-446 -1454 0
-447 -1455 0
-448 -685 0
-449 -686 0
-450 -687 0
-448 -1150 0
-449 -1151 0
-450 -1152 0
-451 -541 0
-452 -542 0
-453 -543 0
-451 -1210 0
-452 -1211 0
-453 -1212 0
-451 -1324 0
-452 -1325 0
-453 -1326 0
-451 -1492 0
-452 -1493 0
-453 -1494 0
-454 -724 0
-455 -725 0
-456 -726 0
-454 -946 0
-455 -947 0
-456 -948 0
-454 -1273 0
-455 -1274 0
-456 -1275 0
-454 -1429 0
-455 -1430 0
-456 -1431 0
-457 -820 0
-458 -821 0
-459 -822 0
-457 -1045 0
-458 -1046 0
-459 -1047 0
-457 -1075 0
-458 -1076 0
-459 -1077 0
-460 -616 0
-461 -617 0
-462 -618 0
-460 -673 0
-461 -674 0
-462 -675 0
-460 -811 0
-461 -812 0
-462 -813 0
-463 -1147 0
-464 -1148 0
-465 -1149 0
-463 -1399 0
-464 -1400 0
-465 -1401 0
-463 -1435 0
-464 -1436 0
-465 -1437 0
-466 -574 0
-467 -575 0
-468 -576 0
-466 -793 0
-467 -794 0
-468 -795 0
-466 -1000 0
-467 -1001 0
-468 -1002 0
-466 -1015 0
-467 -1016 0
-468 -1017 0
-466 -1093 0
-467 -1094 0
-468 -1095 0
-472 -622 0
-473 -623 0
-474 -624 0
-472 -787 0
-473 -788 0
-474 -789 0
-475 -1189 0
-476 -1190 0
-477 -1191 0
-475 -1270 0
-476 -1271 0
-477 -1272 0
-475 -1408 0
-476 -1409 0
-477 -1410 0
-478 -826 0
-479 -827 0
-480 -828 0
-478 -1372 0
-479 -1373 0
-480 -1374 0
-478 -1477 0
-479 -1478 0
-480 -1479 0
-481 -610 0
-482 -611 0
-483 -612 0
-481 -961 0
-482 -962 0
-483 -963 0
-484 -934 0
-485 -935 0
-486 -936 0
-484 -1123 0
-485 -1124 0
-486 -1125 0
-484 -1360 0
-485 -1361 0
-486 -1362 0
-484 -1402 0
-485 -1403 0
-486 -1404 0
-487 -1087 0
-488 -1088 0
-489 -1089 0
-487 -1108 0
-488 -1109 0
-489 -1110 0
-487 -1174 0
-488 -1175 0
-489 -1176 0
-487 -1225 0
-488 -1226 0
-489 -1227 0
-490 -1123 0
-491 -1124 0
-492 -1125 0
-493 -685 0
-494 -686 0
-495 -687 0
-493 -976 0
-494 -977 0
-495 -978 0
-493 -1096 0
-494 -1097 0
-495 -1098 0
-496 -1210 0
-497 -1211 0
-498 -1212 0
-496 -1351 0
-497 -1352 0
-498 -1353 0
-499 -1444 0
-500 -1445 0
-501 -1446 0
-502 -1159 0
-503 -1160 0
-504 -1161 0
-502 -1426 0
-503 -1427 0
-504 -1428 0
-502 -1489 0
-503 -1490 0
-504 -1491 0
-505 -712 0
-506 -713 0
-507 -714 0
-505 -757 0
-506 -758 0
-507 -759 0
-505 -847 0
-506 -848 0
-507 -849 0
-505 -1063 0
-506 -1064 0
-507 -1065 0
-508 -925 0
-509 -926 0
-510 -927 0
-508 -1132 0
-509 -1133 0
-510 -1134 0
-508 -1156 0
-509 -1157 0
-510 -1158 0
-508 -1396 0
-509 -1397 0
-510 -1398 0
-511 -676 0
-512 -677 0
-513 -678 0
-511 -802 0
-512 -803 0
-513 -804 0
-511 -1051 0
-512 -1052 0
-513 -1053 0
-511 -1309 0
-512 -1310 0
-513 -1311 0
-511 -1384 0
-512 -1385 0
-513 -1386 0
-514 -619 0
-515 -620 0
-516 -621 0
-514 -1297 0
-515 -1298 0
-516 -1299 0
-517 -550 0
-518 -551 0
-519 -552 0
-517 -844 0
-518 -845 0
-519 -846 0
-517 -1120 0
-518 -1121 0
-519 -1122 0
-520 -1018 0
-521 -1019 0
-522 -1020 0
-520 -1093 0
-521 -1094 0
-522 -1095 0
-520 -1168 0
-521 -1169 0
-522 -1170 0
-520 -1297 0
-521 -1298 0
-522 -1299 0
-523 -691 0
-524 -692 0
-525 -693 0
-523 -886 0
-524 -887 0
-525 -888 0
-523 -901 0
-524 -902 0
-525 -903 0
-523 -1084 0
-524 -1085 0
-525 -1086 0
-526 -574 0
-527 -575 0
-528 -576 0
-526 -871 0
-527 -872 0
-528 -873 0
-526 -883 0
-527 -884 0
-528 -885 0
-526 -1030 0
-527 -1031 0
-528 -1032 0
-526 -1042 0
-527 -1043 0
-528 -1044 0
-529 -766 0
-530 -767 0
-531 -768 0
-529 -844 0
-530 -845 0
-531 -846 0
-529 -970 0
-530 -971 0
-531 -972 0
-529 -1093 0
-530 -1094 0
-531 -1095 0
-529 -1357 0
-530 -1358 0
-531 -1359 0
-532 -1012 0
-533 -1013 0
-534 -1014 0
-532 -1243 0
-533 -1244 0
-534 -1245 0
-532 -1333 0
-533 -1334 0
-534 -1335 0
-535 -850 0
-536 -851 0
-537 -852 0
-535 -940 0
-536 -941 0
-537 -942 0
-538 -859 0
-539 -860 0
-540 -861 0
-538 -889 0
-539 -890 0
-540 -891 0
-538 -1018 0
-539 -1019 0
-540 -1020 0
-538 -1381 0
-539 -1382 0
-540 -1383 0
-541 -691 0
-542 -692 0
-543 -693 0
-541 -1102 0
-542 -1103 0
-543 -1104 0
-544 -583 0
-545 -584 0
-546 -585 0
-544 -655 0
-545 -656 0
-546 -657 0
-544 -1147 0
-545 -1148 0
-546 -1149 0
-544 -1159 0
-545 -1160 0
-546 -1161 0
-547 -553 0
-548 -554 0
-549 -555 0
-547 -808 0
-548 -809 0
-549 -810 0
-547 -868 0
-548 -869 0
-549 -870 0
-553 -682 0
-554 -683 0
-555 -684 0
-553 -688 0
-554 -689 0
-555 -690 0
-553 -1312 0
-554 -1313 0
-555 -1314 0
-553 -1336 0
-554 -1337 0
-555 -1338 0
-553 -1396 0
-554 -1397 0
-555 -1398 0
-553 -1462 0
-554 -1463 0
-555 -1464 0
-556 -799 0
-557 -800 0
-558 -801 0
-556 -883 0
-557 -884 0
-558 -885 0
-556 -922 0
-557 -923 0
-558 -924 0
-556 -1174 0
-557 -1175 0
-558 -1176 0
-559 -562 0
-560 -563 0
-561 -564 0
-559 -1087 0
-560 -1088 0
-561 -1089 0
-559 -1360 0
-560 -1361 0
-561 -1362 0
-562 -838 0
-563 -839 0
-564 -840 0
-562 -892 0
-563 -893 0
-564 -894 0
-562 -1333 0
-563 -1334 0
-564 -1335 0
-565 -1180 0
-566 -1181 0
-567 -1182 0
-565 -1186 0
-566 -1187 0
-567 -1188 0
-568 -646 0
-569 -647 0
-570 -648 0
-568 -664 0
-569 -665 0
-570 -666 0
-568 -700 0
-569 -701 0
-570 -702 0
-568 -1432 0
-569 -1433 0
-570 -1434 0
-571 -610 0
-572 -611 0
-573 -612 0
-574 -712 0
-575 -713 0
-576 -714 0
-574 -715 0
-575 -716 0
-576 -717 0
-574 -1033 0
-575 -1034 0
-576 -1035 0
-580 -1330 0
-581 -1331 0
-582 -1332 0
-583 -877 0
-584 -878 0
-585 -879 0
-583 -1432 0
-584 -1433 0
-585 -1434 0
-586 -1210 0
-587 -1211 0
-588 -1212 0
-589 -748 0
-590 -749 0
-591 -750 0
-589 -1108 0
-590 -1109 0
-591 -1110 0
-589 -1315 0
-590 -1316 0
-591 -1317 0
-595 -1129 0
-596 -1130 0
-597 -1131 0
-598 -670 0
-599 -671 0
-600 -672 0
-598 -859 0
-599 -860 0
-600 -861 0
-598 -1327 0
-599 -1328 0
-600 -1329 0
-601 -1045 0
-602 -1046 0
-603 -1047 0
-601 -1108 0
-602 -1109 0
-603 -1110 0
-601 -1465 0
-602 -1466 0
-603 -1467 0
-604 -1420 0
-605 -1421 0
-606 -1422 0
-607 -667 0
-608 -668 0
-609 -669 0
-607 -1240 0
-608 -1241 0
-609 -1242 0
-607 -1417 0
-608 -1418 0
-609 -1419 0
-610 -1150 0
-611 -1151 0
-612 -1152 0
-610 -1285 0
-611 -1286 0
-612 -1287 0
-610 -1375 0
-611 -1376 0
-612 -1377 0
-616 -784 0
-617 -785 0
-618 -786 0
-616 -1306 0
-617 -1307 0
-618 -1308 0
-616 -1372 0
-617 -1373 0
-618 -1374 0
-619 -967 0
-620 -968 0
-621 -969 0
-619 -1498 0
-620 -1499 0
-621 -1500 0
-622 -796 0
-623 -797 0
-624 -798 0
-622 -1096 0
-623 -1097 0
-624 -1098 0
-625 -865 0
-626 -866 0
-627 -867 0
-625 -973 0
-626 -974 0
-627 -975 0
-625 -1234 0
-626 -1235 0
-627 -1236 0
-625 -1312 0
-626 -1313 0
-627 -1314 0
-628 -1192 0
-629 -1193 0
-630 -1194 0
-631 -937 0
-632 -938 0
-633 -939 0
-631 -1069 0
-632 -1070 0
-633 -1071 0
-634 -712 0
-635 -713 0
-636 -714 0
-634 -739 0
-635 -740 0
-636 -741 0
-634 -991 0
-635 -992 0
-636 -993 0
-634 -1387 0
-635 -1388 0
-636 -1389 0
-637 -856 0
-638 -857 0
-639 -858 0
-637 -1009 0
-638 -1010 0
-639 -1011 0
-640 -772 0
-641 -773 0
-642 -774 0
-640 -787 0
-641 -788 0
-642 -789 0
-640 -901 0
-641 -902 0
-642 -903 0
-643 -673 0
-644 -674 0
-645 -675 0
-643 -823 0
-644 -824 0
-645 -825 0
-643 -850 0
-644 -851 0
-645 -852 0
-643 -1300 0
-644 -1301 0
-645 -1302 0
-643 -1375 0
-644 -1376 0
-645 -1377 0
-646 -763 0
-647 -764 0
-648 -765 0
-646 -1426 0
-647 -1427 0
-648 -1428 0
-649 -658 0
-650 -659 0
-651 -660 0
-649 -817 0
-650 -818 0
-651 -819 0
-649 -1141 0
-650 -1142 0
-651 -1143 0
-649 -1408 0
-650 -1409 0
-651 -1410 0
-649 -1450 0
-650 -1451 0
-651 -1452 0
-652 -667 0
-653 -668 0
-654 -669 0
-655 -667 0
-656 -668 0
-657 -669 0
-655 -832 0
-656 -833 0
-657 -834 0
-655 -1114 0
-656 -1115 0
-657 -1116 0
-655 -1273 0
-656 -1274 0
-657 -1275 0
-658 -736 0
-659 -737 0
-660 -738 0
-658 -1063 0
-659 -1064 0
-660 -1065 0
-661 -721 0
-662 -722 0
-663 -723 0
-661 -904 0
-662 -905 0
-663 -906 0
-661 -1072 0
-662 -1073 0
-663 -1074 0
-661 -1321 0
-662 -1322 0
-663 -1323 0
-661 -1351 0
-662 -1352 0
-663 -1353 0
-661 -1429 0
-662 -1430 0
-663 -1431 0
-664 -958 0
-665 -959 0
-666 -960 0
-664 -1183 0
-665 -1184 0
-666 -1185 0
-667 -694 0
-668 -695 0
-669 -696 0
-667 -793 0
-668 -794 0
-669 -795 0
-667 -811 0
-668 -812 0
-669 -813 0
-667 -1159 0
-668 -1160 0
-669 -1161 0
-667 -1282 0
-668 -1283 0
-669 -1284 0
-667 -1489 0
-668 -1490 0
-669 -1491 0
-670 -838 0
-671 -839 0
-672 -840 0
-670 -856 0
-671 -857 0
-672 -858 0
-670 -1060 0
-671 -1061 0
-672 -1062 0
-670 -1345 0
-671 -1346 0
-672 -1347 0
-670 -1420 0
-671 -1421 0
-672 -1422 0
-676 -1150 0
-677 -1151 0
-678 -1152 0
-676 -1306 0
-677 -1307 0
-678 -1308 0
-676 -1459 0
-677 -1460 0
-678 -1461 0
-679 -706 0
-680 -707 0
-681 -708 0
-679 -964 0
-680 -965 0
-681 -966 0
-679 -1486 0
-680 -1487 0
-681 -1488 0
-682 -898 0
-683 -899 0
-684 -900 0
-682 -1006 0
-683 -1007 0
-684 -1008 0
-682 -1417 0
-683 -1418 0
-684 -1419 0
-685 -739 0
-686 -740 0
-687 -741 0
-685 -1117 0
-686 -1118 0
-687 -1119 0
-685 -1210 0
-686 -1211 0
-687 -1212 0
-688 -1126 0
-689 -1127 0
-690 -1128 0
-688 -1312 0
-689 -1313 0
-690 -1314 0
-688 -1381 0
-689 -1382 0
-690 -1383 0
-688 -1441 0
-689 -1442 0
-690 -1443 0
-688 -1450 0
-689 -1451 0
-690 -1452 0
-691 -799 0
-692 -800 0
-693 -801 0
-691 -1192 0
-692 -1193 0
-693 -1194 0
-691 -1216 0
-692 -1217 0
-693 -1218 0
-691 -1300 0
-692 -1301 0
-693 -1302 0
-691 -1411 0
-692 -1412 0
-693 -1413 0
-697 -1099 0
-698 -1100 0
-699 -1101 0
-697 -1210 0
-698 -1211 0
-699 -1212 0
-697 -1279 0
-698 -1280 0
-699 -1281 0
-700 -967 0
-701 -968 0
-702 -969 0
-700 -1153 0
-701 -1154 0
-702 -1155 0
-700 -1411 0
-701 -1412 0
-702 -1413 0
-703 -976 0
-704 -977 0
-705 -978 0
-703 -1405 0
-704 -1406 0
-705 -1407 0
-706 -994 0
-707 -995 0
-708 -996 0
-706 -1321 0
-707 -1322 0
-708 -1323 0
-709 -1285 0
-710 -1286 0
-711 -1287 0
-709 -1348 0
-710 -1349 0
-711 -1350 0
-712 -775 0
-713 -776 0
-714 -777 0
-712 -826 0
-713 -827 0
-714 -828 0
-712 -958 0
-713 -959 0
-714 -960 0
-715 -1162 0
-716 -1163 0
-717 -1164 0
-718 -778 0
-719 -779 0
-720 -780 0
-721 -766 0
-722 -767 0
-723 -768 0
-721 -841 0
-722 -842 0
-723 -843 0
-721 -1042 0
-722 -1043 0
-723 -1044 0
-721 -1108 0
-722 -1109 0
-723 -1110 0
-724 -1231 0
-725 -1232 0
-726 -1233 0
-724 -1339 0
-725 -1340 0
-726 -1341 0
-727 -1219 0
-728 -1220 0
-729 -1221 0
-730 -1372 0
-731 -1373 0
-732 -1374 0
-733 -826 0
-734 -827 0
-735 -828 0
-733 -1141 0
-734 -1142 0
-735 -1143 0
-733 -1237 0
-734 -1238 0
-735 -1239 0
-736 -949 0
-737 -950 0
-738 -951 0
-736 -1225 0
-737 -1226 0
-738 -1227 0
-736 -1312 0
-737 -1313 0
-738 -1314 0
-736 -1402 0
-737 -1403 0
-738 -1404 0
-739 -1087 0
-740 -1088 0
-741 -1089 0
-745 -757 0
-746 -758 0
-747 -759 0
-745 -766 0
-746 -767 0
-747 -768 0
-745 -877 0
-746 -878 0
-747 -879 0
-745 -1030 0
-746 -1031 0
-747 -1032 0
-748 -931 0
-749 -932 0
-750 -933 0
-748 -1204 0
-749 -1205 0
-750 -1206 0
-748 -1309 0
-749 -1310 0
-750 -1311 0
-748 -1459 0
-749 -1460 0
-750 -1461 0
-748 -1468 0
-749 -1469 0
-750 -1470 0
-751 -754 0
-752 -755 0
-753 -756 0
-751 -892 0
-752 -893 0
-753 -894 0
-751 -955 0
-752 -956 0
-753 -957 0
-751 -1090 0
-752 -1091 0
-753 -1092 0
-751 -1240 0
-752 -1241 0
-753 -1242 0
-751 -1447 0
-752 -1448 0
-753 -1449 0
-754 -1093 0
-755 -1094 0
-756 -1095 0
-754 -1204 0
-755 -1205 0
-756 -1206 0
-757 -826 0
-758 -827 0
-759 -828 0
-757 -1021 0
-758 -1022 0
-759 -1023 0
-760 -1399 0
-761 -1400 0
-762 -1401 0
-763 -793 0
-764 -794 0
-765 -795 0
-763 -832 0
-764 -833 0
-765 -834 0
-763 -940 0
-764 -941 0
-765 -942 0
-766 -913 0
-767 -914 0
-768 -915 0
-766 -1207 0
-767 -1208 0
-768 -1209 0
-772 -1477 0
-773 -1478 0
-774 -1479 0
-775 -1087 0
-776 -1088 0
-777 -1089 0
-775 -1138 0
-776 -1139 0
-777 -1140 0
-781 -790 0
-782 -791 0
-783 -792 0
-781 -835 0
-782 -836 0
-783 -837 0
-781 -1447 0
-782 -1448 0
-783 -1449 0
-787 -847 0
-788 -848 0
-789 -849 0
-787 -997 0
-788 -998 0
-789 -999 0
-787 -1072 0
-788 -1073 0
-789 -1074 0
-787 -1105 0
-788 -1106 0
-789 -1107 0
-787 -1306 0
-788 -1307 0
-789 -1308 0
-790 -880 0
-791 -881 0
-792 -882 0
-790 -913 0
-791 -914 0
-792 -915 0
-793 -1489 0
-794 -1490 0
-795 -1491 0
-796 -844 0
-797 -845 0
-798 -846 0
-796 -859 0
-797 -860 0
-798 -861 0
-799 -958 0
-800 -959 0
-801 -960 0
-799 -1117 0
-800 -1118 0
-801 -1119 0
-802 -820 0
-803 -821 0
-804 -822 0
-802 -1258 0
-803 -1259 0
-804 -1260 0
-802 -1375 0
-803 -1376 0
-804 -1377 0
-805 -943 0
-806 -944 0
-807 -945 0
-805 -946 0
-806 -947 0
-807 -948 0
-805 -1072 0
-806 -1073 0
-807 -1074 0
-805 -1411 0
-806 -1412 0
-807 -1413 0
-808 -835 0
-809 -836 0
-810 -837 0
-808 -1177 0
-809 -1178 0
-810 -1179 0
-811 -1093 0
-812 -1094 0
-813 -1095 0
-814 -1234 0
-815 -1235 0
-816 -1236 0
-817 -1012 0
-818 -1013 0
-819 -1014 0
-817 -1123 0
-818 -1124 0
-819 -1125 0
-817 -1453 0
-818 -1454 0
-819 -1455 0
-820 -901 0
-821 -902 0
-822 -903 0
-820 -1075 0
-821 -1076 0
-822 -1077 0
-820 -1168 0
-821 -1169 0
-822 -1170 0
-820 -1288 0
-821 -1289 0
-822 -1290 0
-820 -1408 0
-821 -1409 0
-822 -1410 0
-823 -1489 0
-824 -1490 0
-825 -1491 0
-826 -1012 0
-827 -1013 0
-828 -1014 0
-826 -1156 0
-827 -1157 0
-828 -1158 0
-826 -1183 0
-827 -1184 0
-828 -1185 0
-829 -1099 0
-830 -1100 0
-831 -1101 0
-832 -1201 0
-833 -1202 0
-834 -1203 0
-838 -1360 0
-839 -1361 0
-840 -1362 0
-841 -901 0
-842 -902 0
-843 -903 0
-841 -1135 0
-842 -1136 0
-843 -1137 0
-847 -1474 0
-848 -1475 0
-849 -1476 0
-850 -865 0
-851 -866 0
-852 -867 0
-850 -1474 0
-851 -1475 0
-852 -1476 0
-853 -886 0
-854 -887 0
-855 -888 0
-856 -991 0
-857 -992 0
-858 -993 0
-856 -1210 0
-857 -1211 0
-858 -1212 0
-859 -1051 0
-860 -1052 0
-861 -1053 0
-859 -1324 0
-860 -1325 0
-861 -1326 0
-859 -1351 0
-860 -1352 0
-861 -1353 0
-862 -1018 0
-863 -1019 0
-864 -1020 0
-865 -1249 0
-866 -1250 0
-867 -1251 0
-865 -1285 0
-866 -1286 0
-867 -1287 0
-865 -1456 0
-866 -1457 0
-867 -1458 0
-868 -1273 0
-869 -1274 0
-870 -1275 0
-871 -1138 0
-872 -1139 0
-873 -1140 0
-871 -1318 0
-872 -1319 0
-873 -1320 0
-874 -1063 0
-875 -1064 0
-876 -1065 0
-877 -913 0
-878 -914 0
-879 -915 0
-877 -1009 0
-878 -1010 0
-879 -1011 0
-877 -1255 0
-878 -1256 0
-879 -1257 0
-880 -1072 0
-881 -1073 0
-882 -1074 0
-880 -1144 0
-881 -1145 0
-882 -1146 0
-880 -1225 0
-881 -1226 0
-882 -1227 0
-880 -1318 0
-881 -1319 0
-882 -1320 0
-880 -1486 0
-881 -1487 0
-882 -1488 0
-883 -934 0
-884 -935 0
-885 -936 0
-883 -1180 0
-884 -1181 0
-885 -1182 0
-883 -1321 0
-884 -1322 0
-885 -1323 0
-886 -1024 0
-887 -1025 0
-888 -1026 0
-886 -1348 0
-887 -1349 0
-888 -1350 0
-886 -1474 0
-887 -1475 0
-888 -1476 0
-892 -1096 0
-893 -1097 0
-894 -1098 0
-892 -1168 0
-893 -1169 0
-894 -1170 0
-895 -1003 0
-896 -1004 0
-897 -1005 0
-895 -1213 0
-896 -1214 0
-897 -1215 0
-895 -1339 0
-896 -1340 0
-897 -1341 0
-895 -1414 0
-896 -1415 0
-897 -1416 0
-898 -1093 0
-899 -1094 0
-900 -1095 0
-901 -1204 0
-902 -1205 0
-903 -1206 0
-904 -1126 0
-905 -1127 0
-906 -1128 0
-904 -1276 0
-905 -1277 0
-906 -1278 0
-904 -1279 0
-905 -1280 0
-906 -1281 0
-907 -1201 0
-908 -1202 0
-909 -1203 0
-910 -1204 0
-911 -1205 0
-912 -1206 0
-913 -1132 0
-914 -1133 0
-915 -1134 0
-913 -1396 0
-914 -1397 0
-915 -1398 0
-916 -1228 0
-917 -1229 0
-918 -1230 0
-919 -982 0
-920 -983 0
-921 -984 0
-922 -1168 0
-923 -1169 0
-924 -1170 0
-922 -1258 0
-923 -1259 0
-924 -1260 0
-922 -1330 0
-923 -1331 0
-924 -1332 0
-922 -1408 0
-923 -1409 0
-924 -1410 0
-922 -1495 0
-923 -1496 0
-924 -1497 0
-925 -1105 0
-926 -1106 0
-927 -1107 0
-925 -1339 0
-926 -1340 0
-927 -1341 0
-928 -1030 0
-929 -1031 0
-930 -1032 0
-928 -1441 0
-929 -1442 0
-930 -1443 0
-931 -1402 0
-932 -1403 0
-933 -1404 0
-937 -1069 0
-938 -1070 0
-939 -1071 0
-937 -1174 0
-938 -1175 0
-939 -1176 0
-937 -1186 0
-938 -1187 0
-939 -1188 0
-937 -1306 0
-938 -1307 0
-939 -1308 0
-937 -1489 0
-938 -1490 0
-939 -1491 0
-940 -943 0
-941 -944 0
-942 -945 0
-940 -1084 0
-941 -1085 0
-942 -1086 0
-940 -1408 0
-941 -1409 0
-942 -1410 0
-946 -958 0
-947 -959 0
-948 -960 0
-946 -1483 0
-947 -1484 0
-948 -1485 0
-949 -1393 0
-950 -1394 0
-951 -1395 0
-955 -1309 0
-956 -1310 0
-957 -1311 0
-958 -1033 0
-959 -1034 0
-960 -1035 0
-958 -1300 0
-959 -1301 0
-960 -1302 0
-958 -1330 0
-959 -1331 0
-960 -1332 0
-961 -1441 0
-962 -1442 0
-963 -1443 0
-964 -1012 0
-965 -1013 0
-966 -1014 0
-964 -1072 0
-965 -1073 0
-966 -1074 0
-964 -1138 0
-965 -1139 0
-966 -1140 0
-964 -1441 0
-965 -1442 0
-966 -1443 0
-970 -1228 0
-971 -1229 0
-972 -1230 0
-970 -1375 0
-971 -1376 0
-972 -1377 0
-973 -1129 0
-974 -1130 0
-975 -1131 0
-973 -1147 0
-974 -1148 0
-975 -1149 0
-973 -1426 0
-974 -1427 0
-975 -1428 0
-973 -1456 0
-974 -1457 0
-975 -1458 0
-976 -1012 0
-977 -1013 0
-978 -1014 0
-976 -1054 0
-977 -1055 0
-978 -1056 0
-976 -1303 0
-977 -1304 0
-978 -1305 0
-976 -1333 0
-977 -1334 0
-978 -1335 0
-976 -1357 0
-977 -1358 0
-978 -1359 0
-979 -997 0
-980 -998 0
-981 -999 0
-979 -1066 0
-980 -1067 0
-981 -1068 0
-979 -1366 0
-980 -1367 0
-981 -1368 0
-991 -1096 0
-992 -1097 0
-993 -1098 0
-997 -1405 0
-998 -1406 0
-999 -1407 0
-1000 -1015 0
-1001 -1016 0
-1002 -1017 0
-1006 -1465 0
-1007 -1466 0
-1008 -1467 0
-1012 -1141 0
-1013 -1142 0
-1014 -1143 0
-1012 -1213 0
-1013 -1214 0
-1014 -1215 0
-1012 -1291 0
-1013 -1292 0
-1014 -1293 0
-1015 -1207 0
-1016 -1208 0
-1017 -1209 0
-1018 -1132 0
-1019 -1133 0
-1020 -1134 0
-1018 -1432 0
-1019 -1433 0
-1020 -1434 0
-1021 -1408 0
-1022 -1409 0
-1023 -1410 0
-1021 -1411 0
-1022 -1412 0
-1023 -1413 0
-1024 -1303 0
-1025 -1304 0
-1026 -1305 0
-1024 -1441 0
-1025 -1442 0
-1026 -1443 0
-1024 -1459 0
-1025 -1460 0
-1026 -1461 0
-1027 -1198 0
-1028 -1199 0
-1029 -1200 0
-1027 -1435 0
-1028 -1436 0
-1029 -1437 0
-1027 -1456 0
-1028 -1457 0
-1029 -1458 0
-1027 -1480 0
-1028 -1481 0
-1029 -1482 0
-1036 -1402 0
-1037 -1403 0
-1038 -1404 0
-1039 -1414 0
-1040 -1415 0
-1041 -1416 0
-1045 -1204 0
-1046 -1205 0
-1047 -1206 0
-1048 -1090 0
-1049 -1091 0
-1050 -1092 0
-1048 -1339 0
-1049 -1340 0
-1050 -1341 0
-1054 -1192 0
-1055 -1193 0
-1056 -1194 0
-1060 -1300 0
-1061 -1301 0
-1062 -1302 0
-1063 -1105 0
-1064 -1106 0
-1065 -1107 0
-1063 -1447 0
-1064 -1448 0
-1065 -1449 0
-1066 -1381 0
-1067 -1382 0
-1068 -1383 0
-1069 -1162 0
-1070 -1163 0
-1071 -1164 0
-1069 -1168 0
-1070 -1169 0
-1071 -1170 0
-1069 -1297 0
-1070 -1298 0
-1071 -1299 0
-1075 -1114 0
-1076 -1115 0
-1077 -1116 0
-1075 -1219 0
-1076 -1220 0
-1077 -1221 0
-1078 -1234 0
-1079 -1235 0
-1080 -1236 0
-1078 -1387 0
-1079 -1388 0
-1080 -1389 0
-1081 -1099 0
-1082 -1100 0
-1083 -1101 0
-1081 -1336 0
-1082 -1337 0
-1083 -1338 0
-1084 -1132 0
-1085 -1133 0
-1086 -1134 0
-1084 -1159 0
-1085 -1160 0
-1086 -1161 0
-1084 -1411 0
-1085 -1412 0
-1086 -1413 0
-1084 -1447 0
-1085 -1448 0
-1086 -1449 0
-1087 -1150 0
-1088 -1151 0
-1089 -1152 0
-1090 -1264 0
-1091 -1265 0
-1092 -1266 0
-1093 -1255 0
-1094 -1256 0
-1095 -1257 0
-1099 -1294 0
-1100 -1295 0
-1101 -1296 0
-1102 -1225 0
-1103 -1226 0
-1104 -1227 0
-1102 -1453 0
-1103 -1454 0
-1104 -1455 0
-1105 -1198 0
-1106 -1199 0
-1107 -1200 0
-1108 -1255 0
-1109 -1256 0
-1110 -1257 0
-1114 -1216 0
-1115 -1217 0
-1116 -1218 0
-1123 -1243 0
-1124 -1244 0
-1125 -1245 0
-1126 -1153 0
-1127 -1154 0
-1128 -1155 0
-1126 -1258 0
-1127 -1259 0
-1128 -1260 0
-1129 -1312 0
-1130 -1313 0
-1131 -1314 0
-1129 -1324 0
-1130 -1325 0
-1131 -1326 0
-1129 -1492 0
-1130 -1493 0
-1131 -1494 0
-1135 -1171 0
-1136 -1172 0
-1137 -1173 0
-1135 -1492 0
-1136 -1493 0
-1137 -1494 0
-1138 -1261 0
-1139 -1262 0
-1140 -1263 0
-1141 -1294 0
-1142 -1295 0
-1143 -1296 0
-1144 -1267 0
-1145 -1268 0
-1146 -1269 0
-1144 -1276 0
-1145 -1277 0
-1146 -1278 0
-1144 -1291 0
-1145 -1292 0
-1146 -1293 0
-1147 -1165 0
-1148 -1166 0
-1149 -1167 0
-1147 -1342 0
-1148 -1343 0
-1149 -1344 0
-1153 -1405 0
-1154 -1406 0
-1155 -1407 0
-1153 -1471 0
-1154 -1472 0
-1155 -1473 0
-1159 -1255 0
-1160 -1256 0
-1161 -1257 0
-1159 -1282 0
-1160 -1283 0
-1161 -1284 0
-1159 -1417 0
-1160 -1418 0
-1161 -1419 0
-1165 -1492 0
-1166 -1493 0
-1167 -1494 0
-1168 -1195 0
-1169 -1196 0
-1170 -1197 0
-1168 -1375 0
-1169 -1376 0
-1170 -1377 0
-1168 -1387 0
-1169 -1388 0
-1170 -1389 0
-1171 -1414 0
-1172 -1415 0
-1173 -1416 0
-1171 -1477 0
-1172 -1478 0
-1173 -1479 0
-1180 -1327 0
-1181 -1328 0
-1182 -1329 0
-1180 -1351 0
-1181 -1352 0
-1182 -1353 0
-1180 -1375 0
-1181 -1376 0
-1182 -1377 0
-1186 -1198 0
-1187 -1199 0
-1188 -1200 0
-1186 -1201 0
-1187 -1202 0
-1188 -1203 0
-1189 -1405 0
-1190 -1406 0
-1191 -1407 0
-1192 -1246 0
-1193 -1247 0
-1194 -1248 0
-1192 -1414 0
-1193 -1415 0
-1194 -1416 0
-1195 -1240 0
-1196 -1241 0
-1197 -1242 0
-1195 -1354 0
-1196 -1355 0
-1197 -1356 0
-1195 -1396 0
-1196 -1397 0
-1197 -1398 0
-1210 -1237 0
-1211 -1238 0
-1212 -1239 0
-1210 -1309 0
-1211 -1310 0
-1212 -1311 0
-1213 -1438 0
-1214 -1439 0
-1215 -1440 0
-1219 -1258 0
-1220 -1259 0
-1221 -1260 0
-1219 -1435 0
-1220 -1436 0
-1221 -1437 0
-1219 -1474 0
-1220 -1475 0
-1221 -1476 0
-1228 -1321 0
-1229 -1322 0
-1230 -1323 0
-1231 -1261 0
-1232 -1262 0
-1233 -1263 0
-1231 -1426 0
-1232 -1427 0
-1233 -1428 0
-1231 -1462 0
-1232 -1463 0
-1233 -1464 0
-1234 -1246 0
-1235 -1247 0
-1236 -1248 0
-1237 -1477 0
-1238 -1478 0
-1239 -1479 0
-1240 -1288 0
-1241 -1289 0
-1242 -1290 0
-1240 -1306 0
-1241 -1307 0
-1242 -1308 0
-1240 -1390 0
-1241 -1391 0
-1242 -1392 0
-1240 -1423 0
-1241 -1424 0
-1242 -1425 0
-1243 -1288 0
-1244 -1289 0
-1245 -1290 0
-1246 -1336 0
-1247 -1337 0
-1248 -1338 0
-1246 -1420 0
-1247 -1421 0
-1248 -1422 0
-1255 -1264 0
-1256 -1265 0
-1257 -1266 0
-1261 -1273 0
-1262 -1274 0
-1263 -1275 0
-1261 -1324 0
-1262 -1325 0
-1263 -1326 0
-1261 -1438 0
-1262 -1439 0
-1263 -1440 0
-1267 -1486 0
-1268 -1487 0
-1269 -1488 0
-1270 -1393 0
-1271 -1394 0
-1272 -1395 0
-1270 -1405 0
-1271 -1406 0
-1272 -1407 0
-1270 -1414 0
-1271 -1415 0
-1272 -1416 0
-1270 -1456 0
-1271 -1457 0
-1272 -1458 0
-1273 -1459 0
-1274 -1460 0
-1275 -1461 0
-1288 -1495 0
-1289 -1496 0
-1290 -1497 0
-1291 -1399 0
-1292 -1400 0
-1293 -1401 0
-1294 -1312 0
-1295 -1313 0
-1296 -1314 0
-1312 -1444 0
-1313 -1445 0
-1314 -1446 0
-1315 -1429 0
-1316 -1430 0
-1317 -1431 0
-1321 -1354 0
-1322 -1355 0
-1323 -1356 0
-1327 -1456 0
-1328 -1457 0
-1329 -1458 0
-1333 -1375 0
-1334 -1376 0
-1335 -1377 0
-1345 -1423 0
-1346 -1424 0
-1347 -1425 0
-1348 -1453 0
-1349 -1454 0
-1350 -1455 0
-1351 -1372 0
-1352 -1373 0
-1353 -1374 0
-1354 -1492 0
-1355 -1493 0
-1356 -1494 0
-1357 -1429 0
-1358 -1430 0
-1359 -1431 0
-1357 -1498 0
-1358 -1499 0
-1359 -1500 0
-1363 -1408 0
-1364 -1409 0
-1365 -1410 0
-1393 -1420 0
-1394 -1421 0
-1395 -1422 0
-1393 -1453 0
-1394 -1454 0
-1395 -1455 0
-1396 -1471 0
-1397 -1472 0
-1398 -1473 0
-1408 -1444 0
-1409 -1445 0
-1410 -1446 0
-1411 -1420 0
-1412 -1421 0
-1413 -1422 0
-1474 -1483 0
-1475 -1484 0
-1476 -1485 0
