p cnf 1500 5465
1 2 3 0
4 5 6 0
7 8 9 0
10 11 12 0
13 14 15 0
16 17 18 0
19 20 21 0
22 23 24 0
25 26 27 0
28 29 30 0
31 32 33 0
34 35 36 0
37 38 39 0
40 41 42 0
43 44 45 0
46 47 48 0
49 50 51 0
52 53 54 0
55 56 57 0
58 59 60 0
61 62 63 0
64 65 66 0
67 68 69 0
70 71 72 0
73 74 75 0
76 77 78 0
79 80 81 0
82 83 84 0
85 86 87 0
88 89 90 0
91 92 93 0
94 95 96 0
97 98 99 0
100 101 102 0
103 104 105 0
106 107 108 0
109 110 111 0
112 113 114 0
115 116 117 0
118 119 120 0
121 122 123 0
124 125 126 0
127 128 129 0
130 131 132 0
133 134 135 0
136 137 138 0
139 140 141 0
142 143 144 0
145 146 147 0
148 149 150 0
151 152 153 0
154 155 156 0
157 158 159 0
160 161 162 0
163 164 165 0
166 167 168 0
169 170 171 0
172 173 174 0
175 176 177 0
178 179 180 0
181 182 183 0
184 185 186 0
187 188 189 0
190 191 192 0
193 194 195 0
196 197 198 0
199 200 201 0
202 203 204 0
205 206 207 0
208 209 210 0
211 212 213 0
214 215 216 0
217 218 219 0
220 221 222 0
223 224 225 0
226 227 228 0
229 230 231 0
232 233 234 0
235 236 237 0
238 239 240 0
241 242 243 0
244 245 246 0
247 248 249 0
250 251 252 0
253 254 255 0
256 257 258 0
259 260 261 0
262 263 264 0
265 266 267 0
268 269 270 0
271 272 273 0
274 275 276 0
277 278 279 0
280 281 282 0
283 284 285 0
286 287 288 0
289 290 291 0
292 293 294 0
295 296 297 0
298 299 300 0
301 302 303 0
304 305 306 0
307 308 309 0
310 311 312 0
313 314 315 0
316 317 318 0
319 320 321 0
322 323 324 0
325 326 327 0
328 329 330 0
331 332 333 0
334 335 336 0
337 338 339 0
340 341 342 0
343 344 345 0
346 347 348 0
349 350 351 0
352 353 354 0
355 356 357 0
358 359 360 0
361 362 363 0
364 365 366 0
367 368 369 0
370 371 372 0
373 374 375 0
376 377 378 0
379 380 381 0
382 383 384 0
385 386 387 0
388 389 390 0
391 392 393 0
394 395 396 0
397 398 399 0
400 401 402 0
403 404 405 0
406 407 408 0
409 410 411 0
412 413 414 0
415 416 417 0
418 419 420 0
421 422 423 0
424 425 426 0
427 428 429 0
430 431 432 0
433 434 435 0
436 437 438 0
439 440 441 0
442 443 444 0
445 446 447 0
448 449 450 0
451 452 453 0
454 455 456 0
457 458 459 0
460 461 462 0
463 464 465 0
466 467 468 0
469 470 471 0
472 473 474 0
475 476 477 0
478 479 480 0
481 482 483 0
484 485 486 0
487 488 489 0
490 491 492 0
493 494 495 0
496 497 498 0
499 500 501 0
502 503 504 0
505 506 507 0
508 509 510 0
511 512 513 0
514 515 516 0
517 518 519 0
520 521 522 0
523 524 525 0
526 527 528 0
529 530 531 0
532 533 534 0
535 536 537 0
538 539 540 0
541 542 543 0
544 545 546 0
547 548 549 0
550 551 552 0
553 554 555 0
556 557 558 0
559 560 561 0
562 563 564 0
565 566 567 0
568 569 570 0
571 572 573 0
574 575 576 0
577 578 579 0
580 581 582 0
583 584 585 0
586 587 588 0
589 590 591 0
592 593 594 0
595 596 597 0
598 599 600 0
601 602 603 0
604 605 606 0
607 608 609 0
610 611 612 0
613 614 615 0
616 617 618 0
619 620 621 0
622 623 624 0
625 626 627 0
628 629 630 0
631 632 633 0
634 635 636 0
637 638 639 0
640 641 642 0
643 644 645 0
646 647 648 0
649 650 651 0
652 653 654 0
655 656 657 0
658 659 660 0
661 662 663 0
664 665 666 0
667 668 669 0
670 671 672 0
673 674 675 0
676 677 678 0
679 680 681 0
682 683 684 0
685 686 687 0
688 689 690 0
691 692 693 0
694 695 696 0
697 698 699 0
700 701 702 0
703 704 705 0
706 707 708 0
709 710 711 0
712 713 714 0
715 716 717 0
718 719 720 0
721 722 723 0
724 725 726 0
727 728 729 0
730 731 732 0
733 734 735 0
736 737 738 0
739 740 741 0
742 743 744 0
745 746 747 0
748 749 750 0
751 752 753 0
754 755 756 0
757 758 759 0
760 761 762 0
763 764 765 0
766 767 768 0
769 770 771 0
772 773 774 0
775 776 777 0
778 779 780 0
781 782 783 0
784 785 786 0
787 788 789 0
790 791 792 0
793 794 795 0
796 797 798 0
799 800 801 0
802 803 804 0
805 806 807 0
808 809 810 0
811 812 813 0
814 815 816 0
817 818 819 0
820 821 822 0
823 824 825 0
826 827 828 0
829 830 831 0
832 833 834 0
835 836 837 0
838 839 840 0
841 842 843 0
844 845 846 0
847 848 849 0
850 851 852 0
853 854 855 0
856 857 858 0
859 860 861 0
862 863 864 0
865 866 867 0
868 869 870 0
871 872 873 0
874 875 876 0
877 878 879 0
880 881 882 0
883 884 885 0
886 887 888 0
889 890 891 0
892 893 894 0
895 896 897 0
898 899 900 0
901 902 903 0
904 905 906 0
907 908 909 0
910 911 912 0
913 914 915 0
916 917 918 0
919 920 921 0
922 923 924 0
925 926 927 0
928 929 930 0
931 932 933 0
934 935 936 0
937 938 939 0
940 941 942 0
943 944 945 0
946 947 948 0
949 950 951 0
952 953 954 0
955 956 957 0
958 959 960 0
961 962 963 0
964 965 966 0
967 968 969 0
970 971 972 0
973 974 975 0
976 977 978 0
979 980 981 0
982 983 984 0
985 986 987 0
988 989 990 0
991 992 993 0
994 995 996 0
997 998 999 0
1000 1001 1002 0
1003 1004 1005 0
1006 1007 1008 0
1009 1010 1011 0
1012 1013 1014 0
1015 1016 1017 0
1018 1019 1020 0
1021 1022 1023 0
1024 1025 1026 0
1027 1028 1029 0
1030 1031 1032 0
1033 1034 1035 0
1036 1037 1038 0
1039 1040 1041 0
1042 1043 1044 0
1045 1046 1047 0
1048 1049 1050 0
1051 1052 1053 0
1054 1055 1056 0
1057 1058 1059 0
1060 1061 1062 0
1063 1064 1065 0
1066 1067 1068 0
1069 1070 1071 0
1072 1073 1074 0
1075 1076 1077 0
1078 1079 1080 0
1081 1082 1083 0
1084 1085 1086 0
1087 1088 1089 0
1090 1091 1092 0
1093 1094 1095 0
1096 1097 1098 0
1099 1100 1101 0
1102 1103 1104 0
1105 1106 1107 0
1108 1109 1110 0
1111 1112 1113 0
1114 1115 1116 0
1117 1118 1119 0
1120 1121 1122 0
1123 1124 1125 0
1126 1127 1128 0
1129 1130 1131 0
1132 1133 1134 0
1135 1136 1137 0
1138 1139 1140 0
1141 1142 1143 0
1144 1145 1146 0
1147 1148 1149 0
1150 1151 1152 0
1153 1154 1155 0
1156 1157 1158 0
1159 1160 1161 0
1162 1163 1164 0
1165 1166 1167 0
1168 1169 1170 0
1171 1172 1173 0
1174 1175 1176 0
1177 1178 1179 0
1180 1181 1182 0
1183 1184 1185 0
1186 1187 1188 0
1189 1190 1191 0
1192 1193 1194 0
1195 1196 1197 0
1198 1199 1200 0
1201 1202 1203 0
1204 1205 1206 0
1207 1208 1209 0
1210 1211 1212 0
1213 1214 1215 0
1216 1217 1218 0
1219 1220 1221 0
1222 1223 1224 0
1225 1226 1227 0
1228 1229 1230 0
1231 1232 1233 0
1234 1235 1236 0
1237 1238 1239 0
1240 1241 1242 0
1243 1244 1245 0
1246 1247 1248 0
1249 1250 1251 0
1252 1253 1254 0
1255 1256 1257 0
1258 1259 1260 0
1261 1262 1263 0
1264 1265 1266 0
1267 1268 1269 0
1270 1271 1272 0
1273 1274 1275 0
1276 1277 1278 0
1279 1280 1281 0
1282 1283 1284 0
1285 1286 1287 0
1288 1289 1290 0
1291 1292 1293 0
1294 1295 1296 0
1297 1298 1299 0
1300 1301 1302 0
1303 1304 1305 0
1306 1307 1308 0
1309 1310 1311 0
1312 1313 1314 0
1315 1316 1317 0
1318 1319 1320 0
1321 1322 1323 0
1324 1325 1326 0
1327 1328 1329 0
1330 1331 1332 0
1333 1334 1335 0
1336 1337 1338 0
1339 1340 1341 0
1342 1343 1344 0
1345 1346 1347 0
1348 1349 1350 0
1351 1352 1353 0
1354 1355 1356 0
1357 1358 1359 0
1360 1361 1362 0
1363 1364 1365 0
1366 1367 1368 0
1369 1370 1371 0
1372 1373 1374 0
1375 1376 1377 0
1378 1379 1380 0
1381 1382 1383 0
1384 1385 1386 0
1387 1388 1389 0
1390 1391 1392 0
1393 1394 1395 0
1396 1397 1398 0
1399 1400 1401 0
1402 1403 1404 0
1405 1406 1407 0
1408 1409 1410 0
1411 1412 1413 0
1414 1415 1416 0
1417 1418 1419 0
1420 1421 1422 0
1423 1424 1425 0
1426 1427 1428 0
1429 1430 1431 0
1432 1433 1434 0
1435 1436 1437 0
1438 1439 1440 0
1441 1442 1443 0
1444 1445 1446 0
1447 1448 1449 0
1450 1451 1452 0
1453 1454 1455 0
1456 1457 1458 0
1459 1460 1461 0
1462 1463 1464 0
1465 1466 1467 0
1468 1469 1470 0
1471 1472 1473 0
1474 1475 1476 0
1477 1478 1479 0
1480 1481 1482 0
1483 1484 1485 0
1486 1487 1488 0
1489 1490 1491 0
1492 1493 1494 0
1495 1496 1497 0
1498 1499 1500 0
-1 -2 0
-1 -3 0
-2 -3 0
-4 -5 0
-4 -6 0
-5 -6 0
-7 -8 0
-7 -9 0
-8 -9 0
-10 -11 0
-10 -12 0
-11 -12 0
-13 -14 0
-13 -15 0
-14 -15 0
-16 -17 0
-16 -18 0
-17 -18 0
-19 -20 0
-19 -21 0
-20 -21 0
-22 -23 0
-22 -24 0
-23 -24 0
-25 -26 0
-25 -27 0
-26 -27 0
-28 -29 0
-28 -30 0
-29 -30 0
-31 -32 0
-31 -33 0
-32 -33 0
-34 -35 0
-34 -36 0
-35 -36 0
-37 -38 0
-37 -39 0
-38 -39 0
-40 -41 0
-40 -42 0
-41 -42 0
-43 -44 0
-43 -45 0
-44 -45 0
-46 -47 0
-46 -48 0
-47 -48 0
-49 -50 0
-49 -51 0
-50 -51 0
-52 -53 0
-52 -54 0
-53 -54 0
-55 -56 0
-55 -57 0
-56 -57 0
-58 -59 0
-58 -60 0
-59 -60 0
-61 -62 0
-61 -63 0
-62 -63 0
-64 -65 0
-64 -66 0
-65 -66 0
-67 -68 0
-67 -69 0
-68 -69 0
-70 -71 0
-70 -72 0
-71 -72 0
-73 -74 0
-73 -75 0
-74 -75 0
-76 -77 0
-76 -78 0
-77 -78 0
-79 -80 0
-79 -81 0
-80 -81 0
-82 -83 0
-82 -84 0
-83 -84 0
-85 -86 0
-85 -87 0
-86 -87 0
-88 -89 0
-88 -90 0
-89 -90 0
-91 -92 0
-91 -93 0
-92 -93 0
-94 -95 0
-94 -96 0
-95 -96 0
-97 -98 0
-97 -99 0
-98 -99 0
-100 -101 0
-100 -102 0
-101 -102 0
-103 -104 0
-103 -105 0
-104 -105 0
-106 -107 0
-106 -108 0
-107 -108 0
-109 -110 0
-109 -111 0
-110 -111 0
-112 -113 0
-112 -114 0
-113 -114 0
-115 -116 0
-115 -117 0
-116 -117 0
-118 -119 0
-118 -120 0
-119 -120 0
-121 -122 0
-121 -123 0
-122 -123 0
-124 -125 0
-124 -126 0
-125 -126 0
-127 -128 0
-127 -129 0
-128 -129 0
-130 -131 0
-130 -132 0
-131 -132 0
-133 -134 0
-133 -135 0
-134 -135 0
-136 -137 0
-136 -138 0
-137 -138 0
-139 -140 0
-139 -141 0
-140 -141 0
-142 -143 0
-142 -144 0
-143 -144 0
-145 -146 0
-145 -147 0
-146 -147 0
-148 -149 0
-148 -150 0
-149 -150 0
-151 -152 0
-151 -153 0
-152 -153 0
-154 -155 0
-154 -156 0
-155 -156 0
-157 -158 0
-157 -159 0
-158 -159 0
-160 -161 0
-160 -162 0
-161 -162 0
-163 -164 0
-163 -165 0
-164 -165 0
-166 -167 0
-166 -168 0
-167 -168 0
-169 -170 0
-169 -171 0
-170 -171 0
-172 -173 0
-172 -174 0
-173 -174 0
-175 -176 0
-175 -177 0
-176 -177 0
-178 -179 0
-178 -180 0
-179 -180 0
-181 -182 0
-181 -183 0
-182 -183 0
-184 -185 0
-184 -186 0
-185 -186 0
-187 -188 0
-187 -189 0
-188 -189 0
-190 -191 0
-190 -192 0
-191 -192 0
-193 -194 0
-193 -195 0
-194 -195 0
-196 -197 0
-196 -198 0
-197 -198 0
-199 -200 0
-199 -201 0
-200 -201 0
-202 -203 0
-202 -204 0
-203 -204 0
-205 -206 0
-205 -207 0
-206 -207 0
-208 -209 0
-208 -210 0
-209 -210 0
-211 -212 0
-211 -213 0
-212 -213 0
-214 -215 0
-214 -216 0
-215 -216 0
-217 -218 0
-217 -219 0
-218 -219 0
-220 -221 0
-220 -222 0
-221 -222 0
-223 -224 0
-223 -225 0
-224 -225 0
-226 -227 0
-226 -228 0
-227 -228 0
-229 -230 0
-229 -231 0
-230 -231 0
-232 -233 0
-232 -234 0
-233 -234 0
-235 -236 0
-235 -237 0
-236 -237 0
-238 -239 0
-238 -240 0
-239 -240 0
-241 -242 0
-241 -243 0
-242 -243 0
-244 -245 0
-244 -246 0
-245 -246 0
-247 -248 0
-247 -249 0
-248 -249 0
-250 -251 0
-250 -252 0
-251 -252 0
-253 -254 0
-253 -255 0
-254 -255 0
-256 -257 0
-256 -258 0
-257 -258 0
-259 -260 0
-259 -261 0
-260 -261 0
-262 -263 0
-262 -264 0
-263 -264 0
-265 -266 0
-265 -267 0
-266 -267 0
-268 -269 0
-268 -270 0
-269 -270 0
-271 -272 0
-271 -273 0
-272 -273 0
-274 -275 0
-274 -276 0
-275 -276 0
-277 -278 0
-277 -279 0
-278 -279 0
-280 -281 0
-280 -282 0
-281 -282 0
-283 -284 0
-283 -285 0
-284 -285 0
-286 -287 0
-286 -288 0
-287 -288 0
-289 -290 0
-289 -291 0
-290 -291 0
-292 -293 0
-292 -294 0
-293 -294 0
-295 -296 0
-295 -297 0
-296 -297 0
-298 -299 0
-298 -300 0
-299 -300 0
-301 -302 0
-301 -303 0
-302 -303 0
-304 -305 0
-304 -306 0
-305 -306 0
-307 -308 0
-307 -309 0
-308 -309 0
-310 -311 0
-310 -312 0
-311 -312 0
-313 -314 0
-313 -315 0
-314 -315 0
-316 -317 0
-316 -318 0
-317 -318 0
-319 -320 0
-319 -321 0
-320 -321 0
-322 -323 0
-322 -324 0
-323 -324 0
-325 -326 0
-325 -327 0
-326 -327 0
-328 -329 0
-328 -330 0
-329 -330 0
-331 -332 0
-331 -333 0
-332 -333 0
-334 -335 0
-334 -336 0
-335 -336 0
-337 -338 0
-337 -339 0
-338 -339 0
-340 -341 0
-340 -342 0
-341 -342 0
-343 -344 0
-343 -345 0
-344 -345 0
-346 -347 0
-346 -348 0
-347 -348 0
-349 -350 0
-349 -351 0
-350 -351 0
-352 -353 0
-352 -354 0
-353 -354 0
-355 -356 0
-355 -357 0
-356 -357 0
-358 -359 0
-358 -360 0
-359 -360 0
-361 -362 0
-361 -363 0
-362 -363 0
-364 -365 0
-364 -366 0
-365 -366 0
-367 -368 0
-367 -369 0
-368 -369 0
-370 -371 0
-370 -372 0
-371 -372 0
-373 -374 0
-373 -375 0
-374 -375 0
-376 -377 0
-376 -378 0
-377 -378 0
-379 -380 0
-379 -381 0
-380 -381 0
-382 -383 0
-382 -384 0
-383 -384 0
-385 -386 0
-385 -387 0
-386 -387 0
-388 -389 0
-388 -390 0
-389 -390 0
-391 -392 0
-391 -393 0
-392 -393 0
-394 -395 0
-394 -396 0
-395 -396 0
-397 -398 0
-397 -399 0
-398 -399 0
-400 -401 0
-400 -402 0
-401 -402 0
-403 -404 0
-403 -405 0
-404 -405 0
-406 -407 0
-406 -408 0
-407 -408 0
-409 -410 0
-409 -411 0
-410 -411 0
-412 -413 0
-412 -414 0
-413 -414 0
-415 -416 0
-415 -417 0
-416 -417 0
-418 -419 0
-418 -420 0
-419 -420 0
-421 -422 0
-421 -423 0
-422 -423 0
-424 -425 0
-424 -426 0
-425 -426 0
-427 -428 0
-427 -429 0
-428 -429 0
-430 -431 0
-430 -432 0
-431 -432 0
-433 -434 0
-433 -435 0
-434 -435 0
-436 -437 0
-436 -438 0
-437 -438 0
-439 -440 0
-439 -441 0
-440 -441 0
-442 -443 0
-442 -444 0
-443 -444 0
-445 -446 0
-445 -447 0
-446 -447 0
-448 -449 0
-448 -450 0
-449 -450 0
-451 -452 0
-451 -453 0
-452 -453 0
-454 -455 0
-454 -456 0
-455 -456 0
-457 -458 0
-457 -459 0
-458 -459 0
-460 -461 0
-460 -462 0
-461 -462 0
-463 -464 0
-463 -465 0
-464 -465 0
-466 -467 0
-466 -468 0
-467 -468 0
-469 -470 0
-469 -471 0
-470 -471 0
-472 -473 0
-472 -474 0
-473 -474 0
-475 -476 0
-475 -477 0
-476 -477 0
-478 -479 0
-478 -480 0
-479 -480 0
-481 -482 0
-481 -483 0
-482 -483 0
-484 -485 0
-484 -486 0
-485 -486 0
-487 -488 0
-487 -489 0
-488 -489 0
-490 -491 0
-490 -492 0
-491 -492 0
-493 -494 0
-493 -495 0
-494 -495 0
-496 -497 0
-496 -498 0
-497 -498 0
-499 -500 0
-499 -501 0
-500 -501 0
-502 -503 0
-502 -504 0
-503 -504 0
-505 -506 0
-505 -507 0
-506 -507 0
-508 -509 0
-508 -510 0
-509 -510 0
-511 -512 0
-511 -513 0
-512 -513 0
-514 -515 0
-514 -516 0
-515 -516 0
-517 -518 0
-517 -519 0
-518 -519 0
-520 -521 0
-520 -522 0
-521 -522 0
-523 -524 0
-523 -525 0
-524 -525 0
-526 -527 0
-526 -528 0
-527 -528 0
-529 -530 0
-529 -531 0
-530 -531 0
-532 -533 0
-532 -534 0
-533 -534 0
-535 -536 0
-535 -537 0
-536 -537 0
-538 -539 0
-538 -540 0
-539 -540 0
-541 -542 0
-541 -543 0
-542 -543 0
-544 -545 0
-544 -546 0
-545 -546 0
-547 -548 0
-547 -549 0
-548 -549 0
-550 -551 0
-550 -552 0
-551 -552 0
-553 -554 0
-553 -555 0
-554 -555 0
-556 -557 0
-556 -558 0
-557 -558 0
-559 -560 0
-559 -561 0
-560 -561 0
-562 -563 0
-562 -564 0
-563 -564 0
-565 -566 0
-565 -567 0
-566 -567 0
-568 -569 0
-568 -570 0
-569 -570 0
-571 -572 0
-571 -573 0
-572 -573 0
-574 -575 0
-574 -576 0
-575 -576 0
-577 -578 0
-577 -579 0
-578 -579 0
-580 -581 0
-580 -582 0
-581 -582 0
-583 -584 0
-583 -585 0
-584 -585 0
-586 -587 0
-586 -588 0
-587 -588 0
-589 -590 0
-589 -591 0
-590 -591 0
-592 -593 0
-592 -594 0
-593 -594 0
-595 -596 0
-595 -597 0
-596 -597 0
-598 -599 0
-598 -600 0
-599 -600 0
-601 -602 0
-601 -603 0
-602 -603 0
-604 -605 0
-604 -606 0
-605 -606 0
-607 -608 0
-607 -609 0
-608 -609 0
-610 -611 0
-610 -612 0
-611 -612 0
-613 -614 0
-613 -615 0
-614 -615 0
-616 -617 0
-616 -618 0
-617 -618 0
-619 -620 0
-619 -621 0
-620 -621 0
-622 -623 0
-622 -624 0
-623 -624 0
-625 -626 0
-625 -627 0
-626 -627 0
-628 -629 0
-628 -630 0
-629 -630 0
-631 -632 0
-631 -633 0
-632 -633 0
-634 -635 0
-634 -636 0
-635 -636 0
-637 -638 0
-637 -639 0
-638 -639 0
-640 -641 0
-640 -642 0
-641 -642 0
-643 -644 0
-643 -645 0
-644 -645 0
-646 -647 0
-646 -648 0
-647 -648 0
-649 -650 0
-649 -651 0
-650 -651 0
-652 -653 0
-652 -654 0
-653 -654 0
-655 -656 0
-655 -657 0
-656 -657 0
-658 -659 0
-658 -660 0
-659 -660 0
-661 -662 0
-661 -663 0
-662 -663 0
-664 -665 0
-664 -666 0
-665 -666 0
-667 -668 0
-667 -669 0
-668 -669 0
-670 -671 0
-670 -672 0
-671 -672 0
-673 -674 0
-673 -675 0
-674 -675 0
-676 -677 0
-676 -678 0
-677 -678 0
-679 -680 0
-679 -681 0
-680 -681 0
-682 -683 0
-682 -684 0
-683 -684 0
-685 -686 0
-685 -687 0
-686 -687 0
-688 -689 0
-688 -690 0
-689 -690 0
-691 -692 0
-691 -693 0
-692 -693 0
-694 -695 0
-694 -696 0
-695 -696 0
-697 -698 0
-697 -699 0
-698 -699 0
-700 -701 0
-700 -702 0
-701 -702 0
-703 -704 0
-703 -705 0
-704 -705 0
-706 -707 0
-706 -708 0
-707 -708 0
-709 -710 0
-709 -711 0
-710 -711 0
-712 -713 0
-712 -714 0
-713 -714 0
-715 -716 0
-715 -717 0
-716 -717 0
-718 -719 0
-718 -720 0
-719 -720 0
-721 -722 0
-721 -723 0
-722 -723 0
-724 -725 0
-724 -726 0
-725 -726 0
-727 -728 0
-727 -729 0
-728 -729 0
-730 -731 0
-730 -732 0
-731 -732 0
-733 -734 0
-733 -735 0
-734 -735 0
-736 -737 0
-736 -738 0
-737 -738 0
-739 -740 0
-739 -741 0
-740 -741 0
-742 -743 0
-742 -744 0
-743 -744 0
-745 -746 0
-745 -747 0
-746 -747 0
-748 -749 0
-748 -750 0
-749 -750 0
-751 -752 0
-751 -753 0
-752 -753 0
-754 -755 0
-754 -756 0
-755 -756 0
-757 -758 0
-757 -759 0
-758 -759 0
-760 -761 0
-760 -762 0
-761 -762 0
-763 -764 0
-763 -765 0
-764 -765 0
-766 -767 0
-766 -768 0
-767 -768 0
-769 -770 0
-769 -771 0
-770 -771 0
-772 -773 0
-772 -774 0
-773 -774 0
-775 -776 0
-775 -777 0
-776 -777 0
-778 -779 0
-778 -780 0
-779 -780 0
-781 -782 0
-781 -783 0
-782 -783 0
-784 -785 0
-784 -786 0
-785 -786 0
-787 -788 0
-787 -789 0
-788 -789 0
-790 -791 0
-790 -792 0
-791 -792 0
-793 -794 0
-793 -795 0
-794 -795 0
-796 -797 0
-796 -798 0
-797 -798 0
-799 -800 0
-799 -801 0
-800 -801 0
-802 -803 0
-802 -804 0
-803 -804 0
-805 -806 0
-805 -807 0
-806 -807 0
-808 -809 0
-808 -810 0
-809 -810 0
-811 -812 0
-811 -813 0
-812 -813 0
-814 -815 0
-814 -816 0
-815 -816 0
-817 -818 0
-817 -819 0
-818 -819 0
-820 -821 0
-820 -822 0
-821 -822 0
-823 -824 0
-823 -825 0
-824 -825 0
-826 -827 0
-826 -828 0
-827 -828 0
-829 -830 0
-829 -831 0
-830 -831 0
-832 -833 0
-832 -834 0
-833 -834 0
-835 -836 0
-835 -837 0
-836 -837 0
-838 -839 0
-838 -840 0
-839 -840 0
-841 -842 0
-841 -843 0
-842 -843 0
-844 -845 0
-844 -846 0
-845 -846 0
-847 -848 0
-847 -849 0
-848 -849 0
-850 -851 0
-850 -852 0
-851 -852 0
-853 -854 0
-853 -855 0
-854 -855 0
-856 -857 0
-856 -858 0
-857 -858 0
-859 -860 0
-859 -861 0
-860 -861 0
-862 -863 0
-862 -864 0
-863 -864 0
-865 -866 0
-865 -867 0
-866 -867 0
-868 -869 0
-868 -870 0
-869 -870 0
-871 -872 0
-871 -873 0
-872 -873 0
-874 -875 0
-874 -876 0
-875 -876 0
-877 -878 0
-877 -879 0
-878 -879 0
-880 -881 0
-880 -882 0
-881 -882 0
-883 -884 0
-883 -885 0
-884 -885 0
-886 -887 0
-886 -888 0
-887 -888 0
-889 -890 0
-889 -891 0
-890 -891 0
-892 -893 0
-892 -894 0
-893 -894 0
-895 -896 0
-895 -897 0
-896 -897 0
-898 -899 0
-898 -900 0
-899 -900 0
-901 -902 0
-901 -903 0
-902 -903 0
-904 -905 0
-904 -906 0
-905 -906 0
-907 -908 0
-907 -909 0
-908 -909 0
-910 -911 0
-910 -912 0
-911 -912 0
-913 -914 0
-913 -915 0
-914 -915 0
-916 -917 0
-916 -918 0
-917 -918 0
-919 -920 0
-919 -921 0
-920 -921 0
-922 -923 0
-922 -924 0
-923 -924 0
-925 -926 0
-925 -927 0
-926 -927 0
-928 -929 0
-928 -930 0
-929 -930 0
-931 -932 0
-931 -933 0
-932 -933 0
-934 -935 0
-934 -936 0
-935 -936 0
-937 -938 0
-937 -939 0
-938 -939 0
-940 -941 0
-940 -942 0
-941 -942 0
-943 -944 0
-943 -945 0
-944 -945 0
-946 -947 0
-946 -948 0
-947 -948 0
-949 -950 0
-949 -951 0
-950 -951 0
-952 -953 0
-952 -954 0
-953 -954 0
-955 -956 0
-955 -957 0
-956 -957 0
-958 -959 0
-958 -960 0
-959 -960 0
-961 -962 0
-961 -963 0
-962 -963 0
-964 -965 0
-964 -966 0
-965 -966 0
-967 -968 0
-967 -969 0
-968 -969 0
-970 -971 0
-970 -972 0
-971 -972 0
-973 -974 0
-973 -975 0
-974 -975 0
-976 -977 0
-976 -978 0
-977 -978 0
-979 -980 0
-979 -981 0
-980 -981 0
-982 -983 0
-982 -984 0
-983 -984 0
-985 -986 0
-985 -987 0
-986 -987 0
-988 -989 0
-988 -990 0
-989 -990 0
-991 -992 0
-991 -993 0
-992 -993 0
-994 -995 0
-994 -996 0
-995 -996 0
-997 -998 0
-997 -999 0
-998 -999 0
-1000 -1001 0
-1000 -1002 0
-1001 -1002 0
-1003 -1004 0
-1003 -1005 0
-1004 -1005 0
-1006 -1007 0
-1006 -1008 0
-1007 -1008 0
-1009 -1010 0
-1009 -1011 0
-1010 -1011 0
-1012 -1013 0
-1012 -1014 0
-1013 -1014 0
-1015 -1016 0
-1015 -1017 0
-1016 -1017 0
-1018 -1019 0
-1018 -1020 0
-1019 -1020 0
-1021 -1022 0
-1021 -1023 0
-1022 -1023 0
-1024 -1025 0
-1024 -1026 0
-1025 -1026 0
-1027 -1028 0
-1027 -1029 0
-1028 -1029 0
-1030 -1031 0
-1030 -1032 0
-1031 -1032 0
-1033 -1034 0
-1033 -1035 0
-1034 -1035 0
-1036 -1037 0
-1036 -1038 0
-1037 -1038 0
-1039 -1040 0
-1039 -1041 0
-1040 -1041 0
-1042 -1043 0
-1042 -1044 0
-1043 -1044 0
-1045 -1046 0
-1045 -1047 0
-1046 -1047 0
-1048 -1049 0
-1048 -1050 0
-1049 -1050 0
-1051 -1052 0
-1051 -1053 0
-1052 -1053 0
-1054 -1055 0
-1054 -1056 0
-1055 -1056 0
-1057 -1058 0
-1057 -1059 0
-1058 -1059 0
-1060 -1061 0
-1060 -1062 0
-1061 -1062 0
-1063 -1064 0
-1063 -1065 0
-1064 -1065 0
-1066 -1067 0
-1066 -1068 0
-1067 -1068 0
-1069 -1070 0
-1069 -1071 0
-1070 -1071 0
-1072 -1073 0
-1072 -1074 0
-1073 -1074 0
-1075 -1076 0
-1075 -1077 0
-1076 -1077 0
-1078 -1079 0
-1078 -1080 0
-1079 -1080 0
-1081 -1082 0
-1081 -1083 0
-1082 -1083 0
-1084 -1085 0
-1084 -1086 0
-1085 -1086 0
-1087 -1088 0
-1087 -1089 0
-1088 -1089 0
-1090 -1091 0
-1090 -1092 0
-1091 -1092 0
-1093 -1094 0
-1093 -1095 0
-1094 -1095 0
-1096 -1097 0
-1096 -1098 0
-1097 -1098 0
-1099 -1100 0
-1099 -1101 0
-1100 -1101 0
-1102 -1103 0
-1102 -1104 0
-1103 -1104 0
-1105 -1106 0
-1105 -1107 0
-1106 -1107 0
-1108 -1109 0
-1108 -1110 0
-1109 -1110 0
-1111 -1112 0
-1111 -1113 0
-1112 -1113 0
-1114 -1115 0
-1114 -1116 0
-1115 -1116 0
-1117 -1118 0
-1117 -1119 0
-1118 -1119 0
-1120 -1121 0
-1120 -1122 0
-1121 -1122 0
-1123 -1124 0
-1123 -1125 0
-1124 -1125 0
-1126 -1127 0
-1126 -1128 0
-1127 -1128 0
-1129 -1130 0
-1129 -1131 0
-1130 -1131 0
-1132 -1133 0
-1132 -1134 0
-1133 -1134 0
-1135 -1136 0
-1135 -1137 0
-1136 -1137 0
-1138 -1139 0
-1138 -1140 0
-1139 -1140 0
-1141 -1142 0
-1141 -1143 0
-1142 -1143 0
-1144 -1145 0
-1144 -1146 0
-1145 -1146 0
-1147 -1148 0
-1147 -1149 0
-1148 -1149 0
-1150 -1151 0
-1150 -1152 0
-1151 -1152 0
-1153 -1154 0
-1153 -1155 0
-1154 -1155 0
-1156 -1157 0
-1156 -1158 0
-1157 -1158 0
-1159 -1160 0
-1159 -1161 0
-1160 -1161 0
-1162 -1163 0
-1162 -1164 0
-1163 -1164 0
-1165 -1166 0
-1165 -1167 0
-1166 -1167 0
-1168 -1169 0
-1168 -1170 0
-1169 -1170 0
-1171 -1172 0
-1171 -1173 0
-1172 -1173 0
-1174 -1175 0
-1174 -1176 0
-1175 -1176 0
-1177 -1178 0
-1177 -1179 0
-1178 -1179 0
-1180 -1181 0
-1180 -1182 0
-1181 -1182 0
-1183 -1184 0
-1183 -1185 0
-1184 -1185 0
-1186 -1187 0
-1186 -1188 0
-1187 -1188 0
-1189 -1190 0
-1189 -1191 0
-1190 -1191 0
-1192 -1193 0
-1192 -1194 0
-1193 -1194 0
-1195 -1196 0
-1195 -1197 0
-1196 -1197 0
-1198 -1199 0
-1198 -1200 0
-1199 -1200 0
-1201 -1202 0
-1201 -1203 0
-1202 -1203 0
-1204 -1205 0
-1204 -1206 0
-1205 -1206 0
-1207 -1208 0
-1207 -1209 0
-1208 -1209 0
-1210 -1211 0
-1210 -1212 0
-1211 -1212 0
-1213 -1214 0
-1213 -1215 0
-1214 -1215 0
-1216 -1217 0
-1216 -1218 0
-1217 -1218 0
-1219 -1220 0
-1219 -1221 0
-1220 -1221 0
-1222 -1223 0
-1222 -1224 0
-1223 -1224 0
-1225 -1226 0
-1225 -1227 0
-1226 -1227 0
-1228 -1229 0
-1228 -1230 0
-1229 -1230 0
-1231 -1232 0
-1231 -1233 0
-1232 -1233 0
-1234 -1235 0
-1234 -1236 0
-1235 -1236 0
-1237 -1238 0
-1237 -1239 0
-1238 -1239 0
-1240 -1241 0
-1240 -1242 0
-1241 -1242 0
-1243 -1244 0
-1243 -1245 0
-1244 -1245 0
-1246 -1247 0
-1246 -1248 0
-1247 -1248 0
-1249 -1250 0
-1249 -1251 0
-1250 -1251 0
-1252 -1253 0
-1252 -1254 0
-1253 -1254 0
-1255 -1256 0
-1255 -1257 0
-1256 -1257 0
-1258 -1259 0
-1258 -1260 0
-1259 -1260 0
-1261 -1262 0
-1261 -1263 0
-1262 -1263 0
-1264 -1265 0
-1264 -1266 0
-1265 -1266 0
-1267 -1268 0
-1267 -1269 0
-1268 -1269 0
-1270 -1271 0
-1270 -1272 0
-1271 -1272 0
-1273 -1274 0
-1273 -1275 0
-1274 -1275 0
-1276 -1277 0
-1276 -1278 0
-1277 -1278 0
-1279 -1280 0
-1279 -1281 0
-1280 -1281 0
-1282 -1283 0
-1282 -1284 0
-1283 -1284 0
-1285 -1286 0
-1285 -1287 0
-1286 -1287 0
-1288 -1289 0
-1288 -1290 0
-1289 -1290 0
-1291 -1292 0
-1291 -1293 0
-1292 -1293 0
-1294 -1295 0
-1294 -1296 0
-1295 -1296 0
-1297 -1298 0
-1297 -1299 0
-1298 -1299 0
-1300 -1301 0
-1300 -1302 0
-1301 -1302 0
-1303 -1304 0
-1303 -1305 0
-1304 -1305 0
-1306 -1307 0
-1306 -1308 0
-1307 -1308 0
-1309 -1310 0
-1309 -1311 0
-1310 -1311 0
-1312 -1313 0
-1312 -1314 0
-1313 -1314 0
-1315 -1316 0
-1315 -1317 0
-1316 -1317 0
-1318 -1319 0
-1318 -1320 0
-1319 -1320 0
-1321 -1322 0
-1321 -1323 0
-1322 -1323 0
-1324 -1325 0
-1324 -1326 0
-1325 -1326 0
-1327 -1328 0
-1327 -1329 0
-1328 -1329 0
-1330 -1331 0
-1330 -1332 0
-1331 -1332 0
-1333 -1334 0
-1333 -1335 0
-1334 -1335 0
-1336 -1337 0
-1336 -1338 0
-1337 -1338 0
-1339 -1340 0
-1339 -1341 0
-1340 -1341 0
-1342 -1343 0
-1342 -1344 0
-1343 -1344 0
-1345 -1346 0
-1345 -1347 0
-1346 -1347 0
-1348 -1349 0
-1348 -1350 0
-1349 -1350 0
-1351 -1352 0
-1351 -1353 0
-1352 -1353 0
-1354 -1355 0
-1354 -1356 0
-1355 -1356 0
-1357 -1358 0
-1357 -1359 0
-1358 -1359 0
-1360 -1361 0
-1360 -1362 0
-1361 -1362 0
-1363 -1364 0
-1363 -1365 0
-1364 -1365 0
-1366 -1367 0
-1366 -1368 0
-1367 -1368 0
-1369 -1370 0
-1369 -1371 0
-1370 -1371 0
-1372 -1373 0
-1372 -1374 0
-1373 -1374 0
-1375 -1376 0
-1375 -1377 0
-1376 -1377 0
-1378 -1379 0
-1378 -1380 0
-1379 -1380 0
-1381 -1382 0
-1381 -1383 0
-1382 -1383 0
-1384 -1385 0
-1384 -1386 0
-1385 -1386 0
-1387 -1388 0
-1387 -1389 0
-1388 -1389 0
-1390 -1391 0
-1390 -1392 0
-1391 -1392 0
-1393 -1394 0
-1393 -1395 0
-1394 -1395 0
-1396 -1397 0
-1396 -1398 0
-1397 -1398 0
-1399 -1400 0
-1399 -1401 0
-1400 -1401 0
-1402 -1403 0
-1402 -1404 0
-1403 -1404 0
-1405 -1406 0
-1405 -1407 0
-1406 -1407 0
-1408 -1409 0
-1408 -1410 0
-1409 -1410 0
-1411 -1412 0
-1411 -1413 0
-1412 -1413 0
-1414 -1415 0
-1414 -1416 0
-1415 -1416 0
-1417 -1418 0
-1417 -1419 0
-1418 -1419 0
-1420 -1421 0
-1420 -1422 0
-1421 -1422 0
-1423 -1424 0
-1423 -1425 0
-1424 -1425 0
-1426 -1427 0
-1426 -1428 0
-1427 -1428 0
-1429 -1430 0
-1429 -1431 0
-1430 -1431 0
-1432 -1433 0
-1432 -1434 0
-1433 -1434 0
-1435 -1436 0
-1435 -1437 0
-1436 -1437 0
-1438 -1439 0
-1438 -1440 0
-1439 -1440 0
-1441 -1442 0
-1441 -1443 0
-1442 -1443 0
-1444 -1445 0
-1444 -1446 0
-1445 -1446 0
-1447 -1448 0
-1447 -1449 0
-1448 -1449 0
-1450 -1451 0
-1450 -1452 0
-1451 -1452 0
-1453 -1454 0
-1453 -1455 0
-1454 -1455 0
-1456 -1457 0
-1456 -1458 0
-1457 -1458 0
-1459 -1460 0
-1459 -1461 0
-1460 -1461 0
-1462 -1463 0
-1462 -1464 0
-1463 -1464 0
-1465 -1466 0
-1465 -1467 0
-1466 -1467 0
-1468 -1469 0
-1468 -1470 0
-1469 -1470 0
-1471 -1472 0
-1471 -1473 0
-1472 -1473 0
-1474 -1475 0
-1474 -1476 0
-1475 -1476 0
-1477 -1478 0
-1477 -1479 0
-1478 -1479 0
-1480 -1481 0
-1480 -1482 0
-1481 -1482 0
-1483 -1484 0
-1483 -1485 0
-1484 -1485 0
-1486 -1487 0
-1486 -1488 0
-1487 -1488 0
-1489 -1490 0
-1489 -1491 0
-1490 -1491 0
-1492 -1493 0
-1492 -1494 0
-1493 -1494 0
-1495 -1496 0
-1495 -1497 0
-1496 -1497 0
-1498 -1499 0
-1498 -1500 0
-1499 -1500 0
-1 -133 0
-2 -134 0
-3 -135 0
-1 -544 0
-2 -545 0
-3 -546 0
-1 -625 0
-2 -626 0
-3 -627 0
-1 -646 0
-2 -647 0
-3 -648 0
-1 -1168 0
-2 -1169 0
-3 -1170 0
-1 -1477 0
-2 -1478 0
-3 -1479 0
-4 -52 0
-5 -53 0
-6 -54 0
-7 -292 0
-8 -293 0
-9 -294 0
-7 -466 0
-8 -467 0
-9 -468 0
-7 -589 0
-8 -590 0
-9 -591 0
-7 -1090 0
-8 -1091 0
-9 -1092 0
-7 -1189 0
-8 -1190 0
-9 -1191 0
-7 -1207 0
-8 -1208 0
-9 -1209 0
-10 -616 0
-11 -617 0
-12 -618 0
-10 -1093 0
-11 -1094 0
-12 -1095 0
-10 -1111 0
-11 -1112 0
-12 -1113 0
-10 -1225 0
-11 -1226 0
-12 -1227 0
-10 -1459 0
-11 -1460 0
-12 -1461 0
-13 -67 0
-14 -68 0
-15 -69 0
-13 -154 0
-14 -155 0
-15 -156 0
-13 -1213 0
-14 -1214 0
-15 -1215 0
-13 -1336 0
-14 -1337 0
-15 -1338 0
-16 -199 0
-17 -200 0
-18 -201 0
-16 -619 0
-17 -620 0
-18 -621 0
-16 -706 0
-17 -707 0
-18 -708 0
-16 -880 0
-17 -881 0
-18 -882 0
-16 -892 0
-17 -893 0
-18 -894 0
-19 -52 0
-20 -53 0
-21 -54 0
-19 -1117 0
-20 -1118 0
-21 -1119 0
-19 -1411 0
-20 -1412 0
-21 -1413 0
-19 -1462 0
-20 -1463 0
-21 -1464 0
-22 -85 0
-23 -86 0
-24 -87 0
-22 -181 0
-23 -182 0
-24 -183 0
-22 -445 0
-23 -446 0
-24 -447 0
-22 -691 0
-23 -692 0
-24 -693 0
-22 -859 0
-23 -860 0
-24 -861 0
-25 -73 0
-26 -74 0
-27 -75 0
-25 -301 0
-26 -302 0
-27 -303 0
-25 -619 0
-26 -620 0
-27 -621 0
-25 -793 0
-26 -794 0
-27 -795 0
-25 -910 0
-26 -911 0
-27 -912 0
-25 -1000 0
-26 -1001 0
-27 -1002 0
-25 -1267 0
-26 -1268 0
-27 -1269 0
-25 -1387 0
-26 -1388 0
-27 -1389 0
-25 -1393 0
-26 -1394 0
-27 -1395 0
-28 -100 0
-29 -101 0
-30 -102 0
-28 -940 0
-29 -941 0
-30 -942 0
-28 -964 0
-29 -965 0
-30 -966 0
-28 -1030 0
-29 -1031 0
-30 -1032 0
-28 -1210 0
-29 -1211 0
-30 -1212 0
-31 -283 0
-32 -284 0
-33 -285 0
-31 -1483 0
-32 -1484 0
-33 -1485 0
-34 -889 0
-35 -890 0
-36 -891 0
-34 -1027 0
-35 -1028 0
-36 -1029 0
-37 -232 0
-38 -233 0
-39 -234 0
-37 -757 0
-38 -758 0
-39 -759 0
-37 -898 0
-38 -899 0
-39 -900 0
-40 -241 0
-41 -242 0
-42 -243 0
-40 -394 0
-41 -395 0
-42 -396 0
-40 -679 0
-41 -680 0
-42 -681 0
-40 -787 0
-41 -788 0
-42 -789 0
-40 -862 0
-41 -863 0
-42 -864 0
-40 -1405 0
-41 -1406 0
-42 -1407 0
-43 -49 0
-44 -50 0
-45 -51 0
-43 -256 0
-44 -257 0
-45 -258 0
-43 -310 0
-44 -311 0
-45 -312 0
-43 -1456 0
-44 -1457 0
-45 -1458 0
-46 -193 0
-47 -194 0
-48 -195 0
-46 -490 0
-47 -491 0
-48 -492 0
-46 -499 0
-47 -500 0
-48 -501 0
-46 -520 0
-47 -521 0
-48 -522 0
-46 -844 0
-47 -845 0
-48 -846 0
-46 -1384 0
-47 -1385 0
-48 -1386 0
-49 -184 0
-50 -185 0
-51 -186 0
-49 -562 0
-50 -563 0
-51 -564 0
-49 -754 0
-50 -755 0
-51 -756 0
-49 -1075 0
-50 -1076 0
-51 -1077 0
-49 -1201 0
-50 -1202 0
-51 -1203 0
-52 -124 0
-53 -125 0
-54 -126 0
-52 -376 0
-53 -377 0
-54 -378 0
-52 -835 0
-53 -836 0
-54 -837 0
-52 -976 0
-53 -977 0
-54 -978 0
-55 -67 0
-56 -68 0
-57 -69 0
-55 -508 0
-56 -509 0
-57 -510 0
-55 -559 0
-56 -560 0
-57 -561 0
-55 -616 0
-56 -617 0
-57 -618 0
-55 -895 0
-56 -896 0
-57 -897 0
-55 -1159 0
-56 -1160 0
-57 -1161 0
-58 -181 0
-59 -182 0
-60 -183 0
-58 -394 0
-59 -395 0
-60 -396 0
-58 -607 0
-59 -608 0
-60 -609 0
-58 -727 0
-59 -728 0
-60 -729 0
-58 -898 0
-59 -899 0
-60 -900 0
-58 -928 0
-59 -929 0
-60 -930 0
-61 -310 0
-62 -311 0
-63 -312 0
-61 -586 0
-62 -587 0
-63 -588 0
-61 -631 0
-62 -632 0
-63 -633 0
-61 -793 0
-62 -794 0
-63 -795 0
-64 -1285 0
-65 -1286 0
-66 -1287 0
-67 -355 0
-68 -356 0
-69 -357 0
-67 -583 0
-68 -584 0
-69 -585 0
-67 -1306 0
-68 -1307 0
-69 -1308 0
-67 -1486 0
-68 -1487 0
-69 -1488 0
-70 -655 0
-71 -656 0
-72 -657 0
-70 -1072 0
-71 -1073 0
-72 -1074 0
-73 -409 0
-74 -410 0
-75 -411 0
-73 -550 0
-74 -551 0
-75 -552 0
-73 -958 0
-74 -959 0
-75 -960 0
-73 -1075 0
-74 -1076 0
-75 -1077 0
-73 -1435 0
-74 -1436 0
-75 -1437 0
-76 -103 0
-77 -104 0
-78 -105 0
-76 -193 0
-77 -194 0
-78 -195 0
-76 -406 0
-77 -407 0
-78 -408 0
-76 -775 0
-77 -776 0
-78 -777 0
-76 -1273 0
-77 -1274 0
-78 -1275 0
-79 -589 0
-80 -590 0
-81 -591 0
-79 -1024 0
-80 -1025 0
-81 -1026 0
-79 -1132 0
-80 -1133 0
-81 -1134 0
-82 -130 0
-83 -131 0
-84 -132 0
-82 -166 0
-83 -167 0
-84 -168 0
-82 -319 0
-83 -320 0
-84 -321 0
-82 -724 0
-83 -725 0
-84 -726 0
-82 -1432 0
-83 -1433 0
-84 -1434 0
-85 -661 0
-86 -662 0
-87 -663 0
-85 -808 0
-86 -809 0
-87 -810 0
-85 -889 0
-86 -890 0
-87 -891 0
-85 -1165 0
-86 -1166 0
-87 -1167 0
-88 -214 0
-89 -215 0
-90 -216 0
-88 -658 0
-89 -659 0
-90 -660 0
-88 -835 0
-89 -836 0
-90 -837 0
-88 -1165 0
-89 -1166 0
-90 -1167 0
-91 -277 0
-92 -278 0
-93 -279 0
-91 -514 0
-92 -515 0
-93 -516 0
-91 -1063 0
-92 -1064 0
-93 -1065 0
-94 -241 0
-95 -242 0
-96 -243 0
-94 -490 0
-95 -491 0
-96 -492 0
-97 -1033 0
-98 -1034 0
-99 -1035 0
-97 -1396 0
-98 -1397 0
-99 -1398 0
-100 -280 0
-101 -281 0
-102 -282 0
-100 -571 0
-101 -572 0
-102 -573 0
-100 -700 0
-101 -701 0
-102 -702 0
-100 -1390 0
-101 -1391 0
-102 -1392 0
-100 -1420 0
-101 -1421 0
-102 -1422 0
-103 -154 0
-104 -155 0
-105 -156 0
-103 -235 0
-104 -236 0
-105 -237 0
-103 -391 0
-104 -392 0
-105 -393 0
-103 -586 0
-104 -587 0
-105 -588 0
-106 -577 0
-107 -578 0
-108 -579 0
-106 -1477 0
-107 -1478 0
-108 -1479 0
-109 -958 0
-110 -959 0
-111 -960 0
-109 -1063 0
-110 -1064 0
-111 -1065 0
-109 -1363 0
-110 -1364 0
-111 -1365 0
-112 -832 0
-113 -833 0
-114 -834 0
-112 -859 0
-113 -860 0
-114 -861 0
-112 -1000 0
-113 -1001 0
-114 -1002 0
-112 -1123 0
-113 -1124 0
-114 -1125 0
-112 -1258 0
-113 -1259 0
-114 -1260 0
-115 -490 0
-116 -491 0
-117 -492 0
-115 -871 0
-116 -872 0
-117 -873 0
-115 -949 0
-116 -950 0
-117 -951 0
-115 -1138 0
-116 -1139 0
-117 -1140 0
-115 -1399 0
-116 -1400 0
-117 -1401 0
-118 -562 0
-119 -563 0
-120 -564 0
-118 -655 0
-119 -656 0
-120 -657 0
-118 -1051 0
-119 -1052 0
-120 -1053 0
-121 -169 0
-122 -170 0
-123 -171 0
-121 -421 0
-122 -422 0
-123 -423 0
-121 -733 0
-122 -734 0
-123 -735 0
-121 -1126 0
-122 -1127 0
-123 -1128 0
-121 -1171 0
-122 -1172 0
-123 -1173 0
-121 -1210 0
-122 -1211 0
-123 -1212 0
-124 -535 0
-125 -536 0
-126 -537 0
-124 -568 0
-125 -569 0
-126 -570 0
-124 -586 0
-125 -587 0
-126 -588 0
-124 -760 0
-125 -761 0
-126 -762 0
-124 -781 0
-125 -782 0
-126 -783 0
-127 -394 0
-128 -395 0
-129 -396 0
-127 -487 0
-128 -488 0
-129 -489 0
-127 -1021 0
-128 -1022 0
-129 -1023 0
-130 -436 0
-131 -437 0
-132 -438 0
-130 -820 0
-131 -821 0
-132 -822 0
-130 -844 0
-131 -845 0
-132 -846 0
-133 -136 0
-134 -137 0
-135 -138 0
-133 -685 0
-134 -686 0
-135 -687 0
-133 -1441 0
-134 -1442 0
-135 -1443 0
-136 -250 0
-137 -251 0
-138 -252 0
-136 -556 0
-137 -557 0
-138 -558 0
-136 -604 0
-137 -605 0
-138 -606 0
-136 -1171 0
-137 -1172 0
-138 -1173 0
-136 -1222 0
-137 -1223 0
-138 -1224 0
-139 -664 0
-140 -665 0
-141 -666 0
-139 -688 0
-140 -689 0
-141 -690 0
-139 -757 0
-140 -758 0
-141 -759 0
-139 -871 0
-140 -872 0
-141 -873 0
-142 -259 0
-143 -260 0
-144 -261 0
-142 -460 0
-143 -461 0
-144 -462 0
-142 -520 0
-143 -521 0
-144 -522 0
-142 -541 0
-143 -542 0
-144 -543 0
-142 -760 0
-143 -761 0
-144 -762 0
-142 -907 0
-143 -908 0
-144 -909 0
-142 -1384 0
-143 -1385 0
-144 -1386 0
-145 -289 0
-146 -290 0
-147 -291 0
-145 -292 0
-146 -293 0
-147 -294 0
-145 -430 0
-146 -431 0
-147 -432 0
-145 -499 0
-146 -500 0
-147 -501 0
-145 -649 0
-146 -650 0
-147 -651 0
-145 -811 0
-146 -812 0
-147 -813 0
-145 -922 0
-146 -923 0
-147 -924 0
-145 -1111 0
-146 -1112 0
-147 -1113 0
-145 -1408 0
-146 -1409 0
-147 -1410 0
-145 -1450 0
-146 -1451 0
-147 -1452 0
-148 -1018 0
-149 -1019 0
-150 -1020 0
-148 -1177 0
-149 -1178 0
-150 -1179 0
-148 -1483 0
-149 -1484 0
-150 -1485 0
-151 -244 0
-152 -245 0
-153 -246 0
-151 -250 0
-152 -251 0
-153 -252 0
-151 -283 0
-152 -284 0
-153 -285 0
-151 -574 0
-152 -575 0
-153 -576 0
-151 -1060 0
-152 -1061 0
-153 -1062 0
-154 -262 0
-155 -263 0
-156 -264 0
-154 -925 0
-155 -926 0
-156 -927 0
-154 -973 0
-155 -974 0
-156 -975 0
-154 -1324 0
-155 -1325 0
-156 -1326 0
-157 -613 0
-158 -614 0
-159 -615 0
-157 -955 0
-158 -956 0
-159 -957 0
-157 -1372 0
-158 -1373 0
-159 -1374 0
-160 -460 0
-161 -461 0
-162 -462 0
-160 -493 0
-161 -494 0
-162 -495 0
-160 -1375 0
-161 -1376 0
-162 -1377 0
-166 -256 0
-167 -257 0
-168 -258 0
-166 -649 0
-167 -650 0
-168 -651 0
-166 -1336 0
-167 -1337 0
-168 -1338 0
-169 -325 0
-170 -326 0
-171 -327 0
-172 -235 0
-173 -236 0
-174 -237 0
-172 -400 0
-173 -401 0
-174 -402 0
-172 -427 0
-173 -428 0
-174 -429 0
-172 -1099 0
-173 -1100 0
-174 -1101 0
-175 -337 0
-176 -338 0
-177 -339 0
-175 -829 0
-176 -830 0
-177 -831 0
-178 -400 0
-179 -401 0
-180 -402 0
-178 -583 0
-179 -584 0
-180 -585 0
-178 -613 0
-179 -614 0
-180 -615 0
-178 -1357 0
-179 -1358 0
-180 -1359 0
-181 -277 0
-182 -278 0
-183 -279 0
-181 -442 0
-182 -443 0
-183 -444 0
-181 -595 0
-182 -596 0
-183 -597 0
-184 -286 0
-185 -287 0
-186 -288 0
-184 -370 0
-185 -371 0
-186 -372 0
-184 -496 0
-185 -497 0
-186 -498 0
-184 -796 0
-185 -797 0
-186 -798 0
-184 -1276 0
-185 -1277 0
-186 -1278 0
-184 -1375 0
-185 -1376 0
-186 -1377 0
-187 -544 0
-188 -545 0
-189 -546 0
-187 -796 0
-188 -797 0
-189 -798 0
-187 -898 0
-188 -899 0
-189 -900 0
-190 -274 0
-191 -275 0
-192 -276 0
-190 -964 0
-191 -965 0
-192 -966 0
-190 -1132 0
-191 -1133 0
-192 -1134 0
-190 -1309 0
-191 -1310 0
-192 -1311 0
-190 -1324 0
-191 -1325 0
-192 -1326 0
-190 -1333 0
-191 -1334 0
-192 -1335 0
-190 -1363 0
-191 -1364 0
-192 -1365 0
-193 -856 0
-194 -857 0
-195 -858 0
-193 -1183 0
-194 -1184 0
-195 -1185 0
-193 -1318 0
-194 -1319 0
-195 -1320 0
-193 -1372 0
-194 -1373 0
-195 -1374 0
-193 -1432 0
-194 -1433 0
-195 -1434 0
-196 -268 0
-197 -269 0
-198 -270 0
-196 -433 0
-197 -434 0
-198 -435 0
-196 -1246 0
-197 -1247 0
-198 -1248 0
-196 -1312 0
-197 -1313 0
-198 -1314 0
-199 -241 0
-200 -242 0
-201 -243 0
-199 -430 0
-200 -431 0
-201 -432 0
-199 -613 0
-200 -614 0
-201 -615 0
-199 -1330 0
-200 -1331 0
-201 -1332 0
-199 -1372 0
-200 -1373 0
-201 -1374 0
-199 -1447 0
-200 -1448 0
-201 -1449 0
-199 -1468 0
-200 -1469 0
-201 -1470 0
-202 -268 0
-203 -269 0
-204 -270 0
-202 -754 0
-203 -755 0
-204 -756 0
-202 -772 0
-203 -773 0
-204 -774 0
-202 -1006 0
-203 -1007 0
-204 -1008 0
-202 -1054 0
-203 -1055 0
-204 -1056 0
-202 -1195 0
-203 -1196 0
-204 -1197 0
-202 -1444 0
-203 -1445 0
-204 -1446 0
-205 -355 0
-206 -356 0
-207 -357 0
-205 -1072 0
-206 -1073 0
-207 -1074 0
-205 -1195 0
-206 -1196 0
-207 -1197 0
-205 -1330 0
-206 -1331 0
-207 -1332 0
-205 -1348 0
-206 -1349 0
-207 -1350 0
-208 -349 0
-209 -350 0
-210 -351 0
-208 -748 0
-209 -749 0
-210 -750 0
-208 -904 0
-209 -905 0
-210 -906 0
-208 -1000 0
-209 -1001 0
-210 -1002 0
-208 -1063 0
-209 -1064 0
-210 -1065 0
-208 -1474 0
-209 -1475 0
-210 -1476 0
-211 -838 0
-212 -839 0
-213 -840 0
-211 -973 0
-212 -974 0
-213 -975 0
-211 -982 0
-212 -983 0
-213 -984 0
-211 -1048 0
-212 -1049 0
-213 -1050 0
-211 -1378 0
-212 -1379 0
-213 -1380 0
-211 -1381 0
-212 -1382 0
-213 -1383 0
-211 -1417 0
-212 -1418 0
-213 -1419 0
-214 -481 0
-215 -482 0
-216 -483 0
-214 -775 0
-215 -776 0
-216 -777 0
-214 -850 0
-215 -851 0
-216 -852 0
-214 -883 0
-215 -884 0
-216 -885 0
-214 -982 0
-215 -983 0
-216 -984 0
-214 -1186 0
-215 -1187 0
-216 -1188 0
-217 -301 0
-218 -302 0
-219 -303 0
-217 -1159 0
-218 -1160 0
-219 -1161 0
-217 -1390 0
-218 -1391 0
-219 -1392 0
-217 -1471 0
-218 -1472 0
-219 -1473 0
-220 -448 0
-221 -449 0
-222 -450 0
-220 -457 0
-221 -458 0
-222 -459 0
-220 -544 0
-221 -545 0
-222 -546 0
-220 -1072 0
-221 -1073 0
-222 -1074 0
-223 -538 0
-224 -539 0
-225 -540 0
-223 -655 0
-224 -656 0
-225 -657 0
-223 -715 0
-224 -716 0
-225 -717 0
-223 -799 0
-224 -800 0
-225 -801 0
-223 -859 0
-224 -860 0
-225 -861 0
-226 -694 0
-227 -695 0
-228 -696 0
-226 -1075 0
-227 -1076 0
-228 -1077 0
-226 -1360 0
-227 -1361 0
-228 -1362 0
-226 -1453 0
-227 -1454 0
-228 -1455 0
-226 -1465 0
-227 -1466 0
-228 -1467 0
-226 -1489 0
-227 -1490 0
-228 -1491 0
-229 -565 0
-230 -566 0
-231 -567 0
-229 -799 0
-230 -800 0
-231 -801 0
-229 -1174 0
-230 -1175 0
-231 -1176 0
-229 -1315 0
-230 -1316 0
-231 -1317 0
-229 -1432 0
-230 -1433 0
-231 -1434 0
-232 -394 0
-233 -395 0
-234 -396 0
-232 -445 0
-233 -446 0
-234 -447 0
-232 -988 0
-233 -989 0
-234 -990 0
-232 -1138 0
-233 -1139 0
-234 -1140 0
-232 -1258 0
-233 -1259 0
-234 -1260 0
-235 -259 0
-236 -260 0
-237 -261 0
-235 -784 0
-236 -785 0
-237 -786 0
-235 -814 0
-236 -815 0
-237 -816 0
-235 -832 0
-236 -833 0
-237 -834 0
-235 -1147 0
-236 -1148 0
-237 -1149 0
-238 -733 0
-239 -734 0
-240 -735 0
-238 -1456 0
-239 -1457 0
-240 -1458 0
-238 -1486 0
-239 -1487 0
-240 -1488 0
-241 -460 0
-242 -461 0
-243 -462 0
-241 -685 0
-242 -686 0
-243 -687 0
-241 -997 0
-242 -998 0
-243 -999 0
-241 -1186 0
-242 -1187 0
-243 -1188 0
-241 -1300 0
-242 -1301 0
-243 -1302 0
-244 -427 0
-245 -428 0
-246 -429 0
-244 -1126 0
-245 -1127 0
-246 -1128 0
-244 -1312 0
-245 -1313 0
-246 -1314 0
-244 -1327 0
-245 -1328 0
-246 -1329 0
-247 -841 0
-248 -842 0
-249 -843 0
-247 -1345 0
-248 -1346 0
-249 -1347 0
-250 -259 0
-251 -260 0
-252 -261 0
-250 -1105 0
-251 -1106 0
-252 -1107 0
-253 -832 0
-254 -833 0
-255 -834 0
-253 -877 0
-254 -878 0
-255 -879 0
-253 -895 0
-254 -896 0
-255 -897 0
-253 -1030 0
-254 -1031 0
-255 -1032 0
-253 -1117 0
-254 -1118 0
-255 -1119 0
-253 -1207 0
-254 -1208 0
-255 -1209 0
-253 -1228 0
-254 -1229 0
-255 -1230 0
-253 -1279 0
-254 -1280 0
-255 -1281 0
-256 -535 0
-257 -536 0
-258 -537 0
-256 -856 0
-257 -857 0
-258 -858 0
-256 -1327 0
-257 -1328 0
-258 -1329 0
-256 -1423 0
-257 -1424 0
-258 -1425 0
-259 -331 0
-260 -332 0
-261 -333 0
-259 -763 0
-260 -764 0
-261 -765 0
-259 -832 0
-260 -833 0
-261 -834 0
-259 -1096 0
-260 -1097 0
-261 -1098 0
-259 -1147 0
-260 -1148 0
-261 -1149 0
-259 -1309 0
-260 -1310 0
-261 -1311 0
-259 -1405 0
-260 -1406 0
-261 -1407 0
-262 -274 0
-263 -275 0
-264 -276 0
-262 -427 0
-263 -428 0
-264 -429 0
-262 -730 0
-263 -731 0
-264 -732 0
-262 -856 0
-263 -857 0
-264 -858 0
-262 -1447 0
-263 -1448 0
-264 -1449 0
-265 -517 0
-266 -518 0
-267 -519 0
-265 -778 0
-266 -779 0
-267 -780 0
-265 -1357 0
-266 -1358 0
-267 -1359 0
-268 -481 0
-269 -482 0
-270 -483 0
-268 -1297 0
-269 -1298 0
-270 -1299 0
-271 -337 0
-272 -338 0
-273 -339 0
-271 -682 0
-272 -683 0
-273 -684 0
-271 -802 0
-272 -803 0
-273 -804 0
-271 -820 0
-272 -821 0
-273 -822 0
-271 -1057 0
-272 -1058 0
-273 -1059 0
-274 -928 0
-275 -929 0
-276 -930 0
-274 -1039 0
-275 -1040 0
-276 -1041 0
-277 -367 0
-278 -368 0
-279 -369 0
-277 -427 0
-278 -428 0
-279 -429 0
-277 -502 0
-278 -503 0
-279 -504 0
-277 -925 0
-278 -926 0
-279 -927 0
-277 -1027 0
-278 -1028 0
-279 -1029 0
-277 -1294 0
-278 -1295 0
-279 -1296 0
-277 -1399 0
-278 -1400 0
-279 -1401 0
-280 -313 0
-281 -314 0
-282 -315 0
-280 -349 0
-281 -350 0
-282 -351 0
-280 -472 0
-281 -473 0
-282 -474 0
-280 -643 0
-281 -644 0
-282 -645 0
-280 -679 0
-281 -680 0
-282 -681 0
-283 -874 0
-284 -875 0
-285 -876 0
-283 -1267 0
-284 -1268 0
-285 -1269 0
-283 -1273 0
-284 -1274 0
-285 -1275 0
-286 -802 0
-287 -803 0
-288 -804 0
-286 -811 0
-287 -812 0
-288 -813 0
-286 -1306 0
-287 -1307 0
-288 -1308 0
-289 -547 0
-290 -548 0
-291 -549 0
-289 -658 0
-290 -659 0
-291 -660 0
-289 -943 0
-290 -944 0
-291 -945 0
-289 -1156 0
-290 -1157 0
-291 -1158 0
-289 -1177 0
-290 -1178 0
-291 -1179 0
-289 -1354 0
-290 -1355 0
-291 -1356 0
-289 -1453 0
-290 -1454 0
-291 -1455 0
-292 -412 0
-293 -413 0
-294 -414 0
-292 -478 0
-293 -479 0
-294 -480 0
-292 -799 0
-293 -800 0
-294 -801 0
-292 -1048 0
-293 -1049 0
-294 -1050 0
-292 -1123 0
-293 -1124 0
-294 -1125 0
-292 -1138 0
-293 -1139 0
-294 -1140 0
-292 -1228 0
-293 -1229 0
-294 -1230 0
-292 -1345 0
-293 -1346 0
-294 -1347 0
-295 -502 0
-296 -503 0
-297 -504 0
-295 -655 0
-296 -656 0
-297 -657 0
-295 -799 0
-296 -800 0
-297 -801 0
-295 -841 0
-296 -842 0
-297 -843 0
-298 -358 0
-299 -359 0
-300 -360 0
-298 -964 0
-299 -965 0
-300 -966 0
-298 -1345 0
-299 -1346 0
-300 -1347 0
-301 -646 0
-302 -647 0
-303 -648 0
-301 -667 0
-302 -668 0
-303 -669 0
-301 -1054 0
-302 -1055 0
-303 -1056 0
-301 -1264 0
-302 -1265 0
-303 -1266 0
-304 -460 0
-305 -461 0
-306 -462 0
-304 -751 0
-305 -752 0
-306 -753 0
-304 -1438 0
-305 -1439 0
-306 -1440 0
-307 -445 0
-308 -446 0
-309 -447 0
-307 -1111 0
-308 -1112 0
-309 -1113 0
-310 -694 0
-311 -695 0
-312 -696 0
-310 -754 0
-311 -755 0
-312 -756 0
-310 -862 0
-311 -863 0
-312 -864 0
-310 -877 0
-311 -878 0
-312 -879 0
-310 -1237 0
-311 -1238 0
-312 -1239 0
-313 -595 0
-314 -596 0
-315 -597 0
-313 -661 0
-314 -662 0
-315 -663 0
-313 -1048 0
-314 -1049 0
-315 -1050 0
-316 -484 0
-317 -485 0
-318 -486 0
-316 -820 0
-317 -821 0
-318 -822 0
-316 -1429 0
-317 -1430 0
-318 -1431 0
-319 -862 0
-320 -863 0
-321 -864 0
-319 -1033 0
-320 -1034 0
-321 -1035 0
-319 -1381 0
-320 -1382 0
-321 -1383 0
-322 -532 0
-323 -533 0
-324 -534 0
-322 -748 0
-323 -749 0
-324 -750 0
-322 -871 0
-323 -872 0
-324 -873 0
-322 -1210 0
-323 -1211 0
-324 -1212 0
-322 -1213 0
-323 -1214 0
-324 -1215 0
-322 -1426 0
-323 -1427 0
-324 -1428 0
-325 -520 0
-326 -521 0
-327 -522 0
-325 -1459 0
-326 -1460 0
-327 -1461 0
-328 -1402 0
-329 -1403 0
-330 -1404 0
-331 -403 0
-332 -404 0
-333 -405 0
-331 -466 0
-332 -467 0
-333 -468 0
-331 -757 0
-332 -758 0
-333 -759 0
-331 -787 0
-332 -788 0
-333 -789 0
-331 -853 0
-332 -854 0
-333 -855 0
-331 -1060 0
-332 -1061 0
-333 -1062 0
-331 -1177 0
-332 -1178 0
-333 -1179 0
-331 -1282 0
-332 -1283 0
-333 -1284 0
-331 -1480 0
-332 -1481 0
-333 -1482 0
-334 -337 0
-335 -338 0
-336 -339 0
-334 -376 0
-335 -377 0
-336 -378 0
-337 -949 0
-338 -950 0
-339 -951 0
-337 -1420 0
-338 -1421 0
-339 -1422 0
-340 -847 0
-341 -848 0
-342 -849 0
-340 -976 0
-341 -977 0
-342 -978 0
-340 -1345 0
-341 -1346 0
-342 -1347 0
-340 -1483 0
-341 -1484 0
-342 -1485 0
-343 -430 0
-344 -431 0
-345 -432 0
-343 -937 0
-344 -938 0
-345 -939 0
-343 -1051 0
-344 -1052 0
-345 -1053 0
-343 -1186 0
-344 -1187 0
-345 -1188 0
-346 -622 0
-347 -623 0
-348 -624 0
-346 -1327 0
-347 -1328 0
-348 -1329 0
-352 -730 0
-353 -731 0
-354 -732 0
-352 -1090 0
-353 -1091 0
-354 -1092 0
-352 -1153 0
-353 -1154 0
-354 -1155 0
-352 -1189 0
-353 -1190 0
-354 -1191 0
-355 -604 0
-356 -605 0
-357 -606 0
-355 -733 0
-356 -734 0
-357 -735 0
-355 -1018 0
-356 -1019 0
-357 -1020 0
-355 -1474 0
-356 -1475 0
-357 -1476 0
-358 -946 0
-359 -947 0
-360 -948 0
-358 -1180 0
-359 -1181 0
-360 -1182 0
-361 -391 0
-362 -392 0
-363 -393 0
-361 -403 0
-362 -404 0
-363 -405 0
-361 -547 0
-362 -548 0
-363 -549 0
-361 -637 0
-362 -638 0
-363 -639 0
-361 -811 0
-362 -812 0
-363 -813 0
-361 -967 0
-362 -968 0
-363 -969 0
-361 -973 0
-362 -974 0
-363 -975 0
-361 -1057 0
-362 -1058 0
-363 -1059 0
-364 -406 0
-365 -407 0
-366 -408 0
-364 -1414 0
-365 -1415 0
-366 -1416 0
-367 -1150 0
-368 -1151 0
-369 -1152 0
-370 -379 0
-371 -380 0
-372 -381 0
-370 -625 0
-371 -626 0
-372 -627 0
-370 -781 0
-371 -782 0
-372 -783 0
-370 -811 0
-371 -812 0
-372 -813 0
-370 -1369 0
-371 -1370 0
-372 -1371 0
-373 -652 0
-374 -653 0
-375 -654 0
-373 -691 0
-374 -692 0
-375 -693 0
-373 -769 0
-374 -770 0
-375 -771 0
-373 -1075 0
-374 -1076 0
-375 -1077 0
-373 -1219 0
-374 -1220 0
-375 -1221 0
-373 -1375 0
-374 -1376 0
-375 -1377 0
-373 -1489 0
-374 -1490 0
-375 -1491 0
-376 -448 0
-377 -449 0
-378 -450 0
-376 -544 0
-377 -545 0
-378 -546 0
-376 -976 0
-377 -977 0
-378 -978 0
-376 -1351 0
-377 -1352 0
-378 -1353 0
-379 -400 0
-380 -401 0
-381 -402 0
-379 -649 0
-380 -650 0
-381 -651 0
-379 -1132 0
-380 -1133 0
-381 -1134 0
-382 -418 0
-383 -419 0
-384 -420 0
-382 -655 0
-383 -656 0
-384 -657 0
-382 -1138 0
-383 -1139 0
-384 -1140 0
-382 -1210 0
-383 -1211 0
-384 -1212 0
-382 -1213 0
-383 -1214 0
-384 -1215 0
-382 -1441 0
-383 -1442 0
-384 -1443 0
-385 -460 0
-386 -461 0
-387 -462 0
-385 -706 0
-386 -707 0
-387 -708 0
-388 -451 0
-389 -452 0
-390 -453 0
-388 -823 0
-389 -824 0
-390 -825 0
-388 -877 0
-389 -878 0
-390 -879 0
-388 -1084 0
-389 -1085 0
-390 -1086 0
-391 -439 0
-392 -440 0
-393 -441 0
-391 -961 0
-392 -962 0
-393 -963 0
-391 -1312 0
-392 -1313 0
-393 -1314 0
-394 -1264 0
-395 -1265 0
-396 -1266 0
-397 -604 0
-398 -605 0
-399 -606 0
-400 -442 0
-401 -443 0
-402 -444 0
-400 -553 0
-401 -554 0
-402 -555 0
-400 -1210 0
-401 -1211 0
-402 -1212 0
-400 -1243 0
-401 -1244 0
-402 -1245 0
-400 -1438 0
-401 -1439 0
-402 -1440 0
-403 -448 0
-404 -449 0
-405 -450 0
-403 -526 0
-404 -527 0
-405 -528 0
-403 -739 0
-404 -740 0
-405 -741 0
-403 -1066 0
-404 -1067 0
-405 -1068 0
-403 -1354 0
-404 -1355 0
-405 -1356 0
-406 -418 0
-407 -419 0
-408 -420 0
-406 -1324 0
-407 -1325 0
-408 -1326 0
-406 -1486 0
-407 -1487 0
-408 -1488 0
-409 -799 0
-410 -800 0
-411 -801 0
-409 -853 0
-410 -854 0
-411 -855 0
-409 -934 0
-410 -935 0
-411 -936 0
-412 -532 0
-413 -533 0
-414 -534 0
-412 -694 0
-413 -695 0
-414 -696 0
-412 -937 0
-413 -938 0
-414 -939 0
-412 -1180 0
-413 -1181 0
-414 -1182 0
-412 -1216 0
-413 -1217 0
-414 -1218 0
-412 -1453 0
-413 -1454 0
-414 -1455 0
-418 -454 0
-419 -455 0
-420 -456 0
-418 -688 0
-419 -689 0
-420 -690 0
-418 -799 0
-419 -800 0
-420 -801 0
-418 -1144 0
-419 -1145 0
-420 -1146 0
-418 -1303 0
-419 -1304 0
-420 -1305 0
-418 -1342 0
-419 -1343 0
-420 -1344 0
-421 -478 0
-422 -479 0
-423 -480 0
-421 -562 0
-422 -563 0
-423 -564 0
-421 -907 0
-422 -908 0
-423 -909 0
-424 -1135 0
-425 -1136 0
-426 -1137 0
-427 -1261 0
-428 -1262 0
-429 -1263 0
-430 -1138 0
-431 -1139 0
-432 -1140 0
-430 -1195 0
-431 -1196 0
-432 -1197 0
-430 -1483 0
-431 -1484 0
-432 -1485 0
-433 -1042 0
-434 -1043 0
-435 -1044 0
-436 -724 0
-437 -725 0
-438 -726 0
-436 -898 0
-437 -899 0
-438 -900 0
-439 -478 0
-440 -479 0
-441 -480 0
-439 -547 0
-440 -548 0
-441 -549 0
-439 -1066 0
-440 -1067 0
-441 -1068 0
-439 -1132 0
-440 -1133 0
-441 -1134 0
-439 -1270 0
-440 -1271 0
-441 -1272 0
-439 -1324 0
-440 -1325 0
-441 -1326 0
-439 -1408 0
-440 -1409 0
-441 -1410 0
-439 -1444 0
-440 -1445 0
-441 -1446 0
-439 -1456 0
-440 -1457 0
-441 -1458 0
-442 -526 0
-443 -527 0
-444 -528 0
-442 -769 0
-443 -770 0
-444 -771 0
-442 -868 0
-443 -869 0
-444 -870 0
-442 -1045 0
-443 -1046 0
-444 -1047 0
-442 -1351 0
-443 -1352 0
-444 -1353 0
-445 -487 0
-446 -488 0
-447 -489 0
-445 -532 0
-446 -533 0
-447 -534 0
-445 -592 0
-446 -593 0
-447 -594 0
-445 -676 0
-446 -677 0
-447 -678 0
-445 -808 0
-446 -809 0
-447 -810 0
-445 -982 0
-446 -983 0
-447 -984 0
-445 -1405 0
-446 -1406 0
-447 -1407 0
-448 -952 0
-449 -953 0
-450 -954 0
-448 -1150 0
-449 -1151 0
-450 -1152 0
-448 -1255 0
-449 -1256 0
-450 -1257 0
-448 -1351 0
-449 -1352 0
-450 -1353 0
-451 -811 0
-452 -812 0
-453 -813 0
-451 -1069 0
-452 -1070 0
-453 -1071 0
-451 -1378 0
-452 -1379 0
-453 -1380 0
-454 -544 0
-455 -545 0
-456 -546 0
-454 -673 0
-455 -674 0
-456 -675 0
-454 -1102 0
-455 -1103 0
-456 -1104 0
-457 -568 0
-458 -569 0
-459 -570 0
-457 -928 0
-458 -929 0
-459 -930 0
-457 -1180 0
-458 -1181 0
-459 -1182 0
-457 -1390 0
-458 -1391 0
-459 -1392 0
-460 -1159 0
-461 -1160 0
-462 -1161 0
-463 -538 0
-464 -539 0
-465 -540 0
-463 -580 0
-464 -581 0
-465 -582 0
-463 -670 0
-464 -671 0
-465 -672 0
-463 -724 0
-464 -725 0
-465 -726 0
-466 -1183 0
-467 -1184 0
-468 -1185 0
-469 -715 0
-470 -716 0
-471 -717 0
-469 -826 0
-470 -827 0
-471 -828 0
-469 -1189 0
-470 -1190 0
-471 -1191 0
-472 -541 0
-473 -542 0
-474 -543 0
-475 -535 0
-476 -536 0
-477 -537 0
-475 -574 0
-476 -575 0
-477 -576 0
-475 -829 0
-476 -830 0
-477 -831 0
-475 -1078 0
-476 -1079 0
-477 -1080 0
-475 -1126 0
-476 -1127 0
-477 -1128 0
-475 -1435 0
-476 -1436 0
-477 -1437 0
-478 -580 0
-479 -581 0
-480 -582 0
-478 -937 0
-479 -938 0
-480 -939 0
-478 -940 0
-479 -941 0
-480 -942 0
-478 -1099 0
-479 -1100 0
-480 -1101 0
-481 -664 0
-482 -665 0
-483 -666 0
-481 -691 0
-482 -692 0
-483 -693 0
-481 -991 0
-482 -992 0
-483 -993 0
-481 -1297 0
-482 -1298 0
-483 -1299 0
-487 -1012 0
-488 -1013 0
-489 -1014 0
-487 -1210 0
-488 -1211 0
-489 -1212 0
-487 -1213 0
-488 -1214 0
-489 -1215 0
-487 -1405 0
-488 -1406 0
-489 -1407 0
-490 -571 0
-491 -572 0
-492 -573 0
-490 -901 0
-491 -902 0
-492 -903 0
-490 -1165 0
-491 -1166 0
-492 -1167 0
-490 -1186 0
-491 -1187 0
-492 -1188 0
-490 -1351 0
-491 -1352 0
-492 -1353 0
-493 -763 0
-494 -764 0
-495 -765 0
-493 -766 0
-494 -767 0
-495 -768 0
-493 -829 0
-494 -830 0
-495 -831 0
-496 -832 0
-497 -833 0
-498 -834 0
-502 -577 0
-503 -578 0
-504 -579 0
-502 -724 0
-503 -725 0
-504 -726 0
-502 -769 0
-503 -770 0
-504 -771 0
-502 -1054 0
-503 -1055 0
-504 -1056 0
-502 -1096 0
-503 -1097 0
-504 -1098 0
-502 -1264 0
-503 -1265 0
-504 -1266 0
-502 -1471 0
-503 -1472 0
-504 -1473 0
-502 -1477 0
-503 -1478 0
-504 -1479 0
-505 -1255 0
-506 -1256 0
-507 -1257 0
-505 -1468 0
-506 -1469 0
-507 -1470 0
-508 -1486 0
-509 -1487 0
-510 -1488 0
-511 -1186 0
-512 -1187 0
-513 -1188 0
-511 -1360 0
-512 -1361 0
-513 -1362 0
-511 -1390 0
-512 -1391 0
-513 -1392 0
-514 -715 0
-515 -716 0
-516 -717 0
-514 -1195 0
-515 -1196 0
-516 -1197 0
-517 -523 0
-518 -524 0
-519 -525 0
-520 -577 0
-521 -578 0
-522 -579 0
-520 -595 0
-521 -596 0
-522 -597 0
-520 -817 0
-521 -818 0
-522 -819 0
-520 -1117 0
-521 -1118 0
-522 -1119 0
-520 -1276 0
-521 -1277 0
-522 -1278 0
-520 -1279 0
-521 -1280 0
-522 -1281 0
-523 -595 0
-524 -596 0
-525 -597 0
-523 -1483 0
-524 -1484 0
-525 -1485 0
-526 -724 0
-527 -725 0
-528 -726 0
-526 -913 0
-527 -914 0
-528 -915 0
-526 -1300 0
-527 -1301 0
-528 -1302 0
-526 -1360 0
-527 -1361 0
-528 -1362 0
-529 -1114 0
-530 -1115 0
-531 -1116 0
-532 -595 0
-533 -596 0
-534 -597 0
-532 -1162 0
-533 -1163 0
-534 -1164 0
-532 -1333 0
-533 -1334 0
-534 -1335 0
-532 -1393 0
-533 -1394 0
-534 -1395 0
-535 -640 0
-536 -641 0
-537 -642 0
-535 -742 0
-536 -743 0
-537 -744 0
-535 -1222 0
-536 -1223 0
-537 -1224 0
-538 -748 0
-539 -749 0
-540 -750 0
-538 -847 0
-539 -848 0
-540 -849 0
-538 -859 0
-539 -860 0
-540 -861 0
-538 -916 0
-539 -917 0
-540 -918 0
-538 -1093 0
-539 -1094 0
-540 -1095 0
-541 -646 0
-542 -647 0
-543 -648 0
-541 -1318 0
-542 -1319 0
-543 -1320 0
-541 -1498 0
-542 -1499 0
-543 -1500 0
-544 -559 0
-545 -560 0
-546 -561 0
-544 -733 0
-545 -734 0
-546 -735 0
-544 -880 0
-545 -881 0
-546 -882 0
-544 -1117 0
-545 -1118 0
-546 -1119 0
-547 -667 0
-548 -668 0
-549 -669 0
-547 -1108 0
-548 -1109 0
-549 -1110 0
-547 -1231 0
-548 -1232 0
-549 -1233 0
-550 -697 0
-551 -698 0
-552 -699 0
-550 -943 0
-551 -944 0
-552 -945 0
-550 -997 0
-551 -998 0
-552 -999 0
-553 -667 0
-554 -668 0
-555 -669 0
-553 -835 0
-554 -836 0
-555 -837 0
-556 -625 0
-557 -626 0
-558 -627 0
-559 -844 0
-560 -845 0
-561 -846 0
-559 -1099 0
-560 -1100 0
-561 -1101 0
-559 -1207 0
-560 -1208 0
-561 -1209 0
-562 -1363 0
-563 -1364 0
-564 -1365 0
-562 -1456 0
-563 -1457 0
-564 -1458 0
-565 -697 0
-566 -698 0
-567 -699 0
-565 -739 0
-566 -740 0
-567 -741 0
-565 -790 0
-566 -791 0
-567 -792 0
-565 -970 0
-566 -971 0
-567 -972 0
-565 -1270 0
-566 -1271 0
-567 -1272 0
-565 -1390 0
-566 -1391 0
-567 -1392 0
-571 -625 0
-572 -626 0
-573 -627 0
-571 -1078 0
-572 -1079 0
-573 -1080 0
-571 -1285 0
-572 -1286 0
-573 -1287 0
-571 -1417 0
-572 -1418 0
-573 -1419 0
-574 -1117 0
-575 -1118 0
-576 -1119 0
-574 -1147 0
-575 -1148 0
-576 -1149 0
-574 -1294 0
-575 -1295 0
-576 -1296 0
-577 -895 0
-578 -896 0
-579 -897 0
-577 -1075 0
-578 -1076 0
-579 -1077 0
-580 -1156 0
-581 -1157 0
-582 -1158 0
-580 -1207 0
-581 -1208 0
-582 -1209 0
-580 -1324 0
-581 -1325 0
-582 -1326 0
-583 -1108 0
-584 -1109 0
-585 -1110 0
-583 -1393 0
-584 -1394 0
-585 -1395 0
-586 -796 0
-587 -797 0
-588 -798 0
-586 -889 0
-587 -890 0
-588 -891 0
-586 -892 0
-587 -893 0
-588 -894 0
-586 -1057 0
-587 -1058 0
-588 -1059 0
-586 -1108 0
-587 -1109 0
-588 -1110 0
-586 -1159 0
-587 -1160 0
-588 -1161 0
-586 -1465 0
-587 -1466 0
-588 -1467 0
-589 -856 0
-590 -857 0
-591 -858 0
-589 -1012 0
-590 -1013 0
-591 -1014 0
-589 -1288 0
-590 -1289 0
-591 -1290 0
-592 -1234 0
-593 -1235 0
-594 -1236 0
-595 -1138 0
-596 -1139 0
-597 -1140 0
-595 -1279 0
-596 -1280 0
-597 -1281 0
-595 -1426 0
-596 -1427 0
-597 -1428 0
-598 -1147 0
-599 -1148 0
-600 -1149 0
-598 -1252 0
-599 -1253 0
-600 -1254 0
-601 -808 0
-602 -809 0
-603 -810 0
-601 -892 0
-602 -893 0
-603 -894 0
-601 -1387 0
-602 -1388 0
-603 -1389 0
-604 -658 0
-605 -659 0
-606 -660 0
-604 -715 0
-605 -716 0
-606 -717 0
-604 -853 0
-605 -854 0
-606 -855 0
-604 -937 0
-605 -938 0
-606 -939 0
-607 -1021 0
-608 -1022 0
-609 -1023 0
-607 -1027 0
-608 -1028 0
-609 -1029 0
-607 -1144 0
-608 -1145 0
-609 -1146 0
-610 -634 0
-611 -635 0
-612 -636 0
-610 -664 0
-611 -665 0
-612 -666 0
-610 -844 0
-611 -845 0
-612 -846 0
-613 -835 0
-614 -836 0
-615 -837 0
-613 -928 0
-614 -929 0
-615 -930 0
-619 -865 0
-620 -866 0
-621 -867 0
-619 -1084 0
-620 -1085 0
-621 -1086 0
-619 -1330 0
-620 -1331 0
-621 -1332 0
-619 -1399 0
-620 -1400 0
-621 -1401 0
-619 -1411 0
-620 -1412 0
-621 -1413 0
-619 -1420 0
-620 -1421 0
-621 -1422 0
-622 -781 0
-623 -782 0
-624 -783 0
-622 -886 0
-623 -887 0
-624 -888 0
-622 -1357 0
-623 -1358 0
-624 -1359 0
-625 -772 0
-626 -773 0
-627 -774 0
-625 -985 0
-626 -986 0
-627 -987 0
-625 -991 0
-626 -992 0
-627 -993 0
-625 -1339 0
-626 -1340 0
-627 -1341 0
-628 -736 0
-629 -737 0
-630 -738 0
-628 -898 0
-629 -899 0
-630 -900 0
-628 -919 0
-629 -920 0
-630 -921 0
-628 -997 0
-629 -998 0
-630 -999 0
-628 -1057 0
-629 -1058 0
-630 -1059 0
-631 -739 0
-632 -740 0
-633 -741 0
-631 -1054 0
-632 -1055 0
-633 -1056 0
-634 -679 0
-635 -680 0
-636 -681 0
-634 -796 0
-635 -797 0
-636 -798 0
-634 -982 0
-635 -983 0
-636 -984 0
-637 -997 0
-638 -998 0
-639 -999 0
-637 -1072 0
-638 -1073 0
-639 -1074 0
-637 -1432 0
-638 -1433 0
-639 -1434 0
-640 -1006 0
-641 -1007 0
-642 -1008 0
-640 -1126 0
-641 -1127 0
-642 -1128 0
-643 -997 0
-644 -998 0
-645 -999 0
-646 -1306 0
-647 -1307 0
-648 -1308 0
-649 -658 0
-650 -659 0
-651 -660 0
-649 -796 0
-650 -797 0
-651 -798 0
-649 -841 0
-650 -842 0
-651 -843 0
-649 -1195 0
-650 -1196 0
-651 -1197 0
-652 -688 0
-653 -689 0
-654 -690 0
-652 -961 0
-653 -962 0
-654 -963 0
-655 -1270 0
-656 -1271 0
-657 -1272 0
-655 -1411 0
-656 -1412 0
-657 -1413 0
-658 -895 0
-659 -896 0
-660 -897 0
-658 -994 0
-659 -995 0
-660 -996 0
-658 -1099 0
-659 -1100 0
-660 -1101 0
-658 -1441 0
-659 -1442 0
-660 -1443 0
-661 -997 0
-662 -998 0
-663 -999 0
-661 -1126 0
-662 -1127 0
-663 -1128 0
-661 -1138 0
-662 -1139 0
-663 -1140 0
-661 -1468 0
-662 -1469 0
-663 -1470 0
-664 -742 0
-665 -743 0
-666 -744 0
-667 -793 0
-668 -794 0
-669 -795 0
-667 -1087 0
-668 -1088 0
-669 -1089 0
-667 -1138 0
-668 -1139 0
-669 -1140 0
-670 -1357 0
-671 -1358 0
-672 -1359 0
-673 -1477 0
-674 -1478 0
-675 -1479 0
-676 -1198 0
-677 -1199 0
-678 -1200 0
-676 -1309 0
-677 -1310 0
-678 -1311 0
-679 -694 0
-680 -695 0
-681 -696 0
-679 -1117 0
-680 -1118 0
-681 -1119 0
-679 -1237 0
-680 -1238 0
-681 -1239 0
-679 -1444 0
-680 -1445 0
-681 -1446 0
-682 -1177 0
-683 -1178 0
-684 -1179 0
-682 -1195 0
-683 -1196 0
-684 -1197 0
-685 -1348 0
-686 -1349 0
-687 -1350 0
-688 -772 0
-689 -773 0
-690 -774 0
-688 -784 0
-689 -785 0
-690 -786 0
-688 -1054 0
-689 -1055 0
-690 -1056 0
-688 -1453 0
-689 -1454 0
-690 -1455 0
-691 -760 0
-692 -761 0
-693 -762 0
-691 -763 0
-692 -764 0
-693 -765 0
-694 -760 0
-695 -761 0
-696 -762 0
-694 -844 0
-695 -845 0
-696 -846 0
-694 -1069 0
-695 -1070 0
-696 -1071 0
-694 -1447 0
-695 -1448 0
-696 -1449 0
-697 -916 0
-698 -917 0
-699 -918 0
-697 -1069 0
-698 -1070 0
-699 -1071 0
-700 -1474 0
-701 -1475 0
-702 -1476 0
-703 -1291 0
-704 -1292 0
-705 -1293 0
-706 -943 0
-707 -944 0
-708 -945 0
-706 -1324 0
-707 -1325 0
-708 -1326 0
-712 -1003 0
-713 -1004 0
-714 -1005 0
-712 -1324 0
-713 -1325 0
-714 -1326 0
-712 -1498 0
-713 -1499 0
-714 -1500 0
-715 -967 0
-716 -968 0
-717 -969 0
-715 -979 0
-716 -980 0
-717 -981 0
-718 -772 0
-719 -773 0
-720 -774 0
-718 -802 0
-719 -803 0
-720 -804 0
-718 -862 0
-719 -863 0
-720 -864 0
-721 -1018 0
-722 -1019 0
-723 -1020 0
-721 -1396 0
-722 -1397 0
-723 -1398 0
-724 -793 0
-725 -794 0
-726 -795 0
-724 -871 0
-725 -872 0
-726 -873 0
-724 -997 0
-725 -998 0
-726 -999 0
-727 -802 0
-728 -803 0
-729 -804 0
-727 -1228 0
-728 -1229 0
-729 -1230 0
-730 -835 0
-731 -836 0
-732 -837 0
-730 -1372 0
-731 -1373 0
-732 -1374 0
-733 -1261 0
-734 -1262 0
-735 -1263 0
-736 -1162 0
-737 -1163 0
-738 -1164 0
-736 -1420 0
-737 -1421 0
-738 -1422 0
-739 -1000 0
-740 -1001 0
-741 -1002 0
-739 -1042 0
-740 -1043 0
-741 -1044 0
-739 -1099 0
-740 -1100 0
-741 -1101 0
-739 -1264 0
-740 -1265 0
-741 -1266 0
-742 -748 0
-743 -749 0
-744 -750 0
-742 -1072 0
-743 -1073 0
-744 -1074 0
-742 -1420 0
-743 -1421 0
-744 -1422 0
-745 -1249 0
-746 -1250 0
-747 -1251 0
-748 -838 0
-749 -839 0
-750 -840 0
-748 -1180 0
-749 -1181 0
-750 -1182 0
-751 -1156 0
-752 -1157 0
-753 -1158 0
-751 -1234 0
-752 -1235 0
-753 -1236 0
-754 -1108 0
-755 -1109 0
-756 -1110 0
-754 -1183 0
-755 -1184 0
-756 -1185 0
-754 -1351 0
-755 -1352 0
-756 -1353 0
-757 -1150 0
-758 -1151 0
-759 -1152 0
-757 -1348 0
-758 -1349 0
-759 -1350 0
-757 -1462 0
-758 -1463 0
-759 -1464 0
-760 -1177 0
-761 -1178 0
-762 -1179 0
-763 -964 0
-764 -965 0
-765 -966 0
-763 -979 0
-764 -980 0
-765 -981 0
-763 -1048 0
-764 -1049 0
-765 -1050 0
-763 -1330 0
-764 -1331 0
-765 -1332 0
-763 -1363 0
-764 -1364 0
-765 -1365 0
-766 -799 0
-767 -800 0
-768 -801 0
-766 -1180 0
-767 -1181 0
-768 -1182 0
-766 -1276 0
-767 -1277 0
-768 -1278 0
-769 -772 0
-770 -773 0
-771 -774 0
-769 -949 0
-770 -950 0
-771 -951 0
-769 -1246 0
-770 -1247 0
-771 -1248 0
-772 -850 0
-773 -851 0
-774 -852 0
-772 -892 0
-773 -893 0
-774 -894 0
-775 -940 0
-776 -941 0
-777 -942 0
-775 -1282 0
-776 -1283 0
-777 -1284 0
-778 -967 0
-779 -968 0
-780 -969 0
-781 -1060 0
-782 -1061 0
-783 -1062 0
-787 -1351 0
-788 -1352 0
-789 -1353 0
-790 -964 0
-791 -965 0
-792 -966 0
-790 -1147 0
-791 -1148 0
-792 -1149 0
-790 -1237 0
-791 -1238 0
-792 -1239 0
-796 -1129 0
-797 -1130 0
-798 -1131 0
-796 -1255 0
-797 -1256 0
-798 -1257 0
-796 -1390 0
-797 -1391 0
-798 -1392 0
-799 -1054 0
-800 -1055 0
-801 -1056 0
-799 -1372 0
-800 -1373 0
-801 -1374 0
-802 -814 0
-803 -815 0
-804 -816 0
-802 -1045 0
-803 -1046 0
-804 -1047 0
-802 -1363 0
-803 -1364 0
-804 -1365 0
-805 -880 0
-806 -881 0
-807 -882 0
-805 -1288 0
-806 -1289 0
-807 -1290 0
-805 -1333 0
-806 -1334 0
-807 -1335 0
-805 -1495 0
-806 -1496 0
-807 -1497 0
-808 -1063 0
-809 -1064 0
-810 -1065 0
-808 -1072 0
-809 -1073 0
-810 -1074 0
-811 -895 0
-812 -896 0
-813 -897 0
-811 -1207 0
-812 -1208 0
-813 -1209 0
-811 -1411 0
-812 -1412 0
-813 -1413 0
-814 -1237 0
-815 -1238 0
-816 -1239 0
-817 -1492 0
-818 -1493 0
-819 -1494 0
-820 -886 0
-821 -887 0
-822 -888 0
-820 -1210 0
-821 -1211 0
-822 -1212 0
-823 -1423 0
-824 -1424 0
-825 -1425 0
-826 -919 0
-827 -920 0
-828 -921 0
-826 -1087 0
-827 -1088 0
-828 -1089 0
-826 -1222 0
-827 -1223 0
-828 -1224 0
-826 -1324 0
-827 -1325 0
-828 -1326 0
-829 -1114 0
-830 -1115 0
-831 -1116 0
-832 -1045 0
-833 -1046 0
-834 -1047 0
-835 -1246 0
-836 -1247 0
-837 -1248 0
-838 -871 0
-839 -872 0
-840 -873 0
-838 -1036 0
-839 -1037 0
-840 -1038 0
-841 -1105 0
-842 -1106 0
-843 -1107 0
-844 -964 0
-845 -965 0
-846 -966 0
-844 -1414 0
-845 -1415 0
-846 -1416 0
-847 -1135 0
-848 -1136 0
-849 -1137 0
-847 -1324 0
-848 -1325 0
-849 -1326 0
-850 -1273 0
-851 -1274 0
-852 -1275 0
-856 -1051 0
-857 -1052 0
-858 -1053 0
-856 -1156 0
-857 -1157 0
-858 -1158 0
-856 -1375 0
-857 -1376 0
-858 -1377 0
-859 -889 0
-860 -890 0
-861 -891 0
-862 -985 0
-863 -986 0
-864 -987 0
-862 -988 0
-863 -989 0
-864 -990 0
-862 -1051 0
-863 -1052 0
-864 -1053 0
-862 -1372 0
-863 -1373 0
-864 -1374 0
-868 -1426 0
-869 -1427 0
-870 -1428 0
-871 -967 0
-872 -968 0
-873 -969 0
-874 -1474 0
-875 -1475 0
-876 -1476 0
-877 -949 0
-878 -950 0
-879 -951 0
-877 -1330 0
-878 -1331 0
-879 -1332 0
-877 -1363 0
-878 -1364 0
-879 -1365 0
-883 -886 0
-884 -887 0
-885 -888 0
-883 -1390 0
-884 -1391 0
-885 -1392 0
-886 -1192 0
-887 -1193 0
-888 -1194 0
-892 -1066 0
-893 -1067 0
-894 -1068 0
-892 -1264 0
-893 -1265 0
-894 -1266 0
-895 -961 0
-896 -962 0
-897 -963 0
-895 -1108 0
-896 -1109 0
-897 -1110 0
-895 -1207 0
-896 -1208 0
-897 -1209 0
-895 -1354 0
-896 -1355 0
-897 -1356 0
-898 -913 0
-899 -914 0
-900 -915 0
-901 -1006 0
-902 -1007 0
-903 -1008 0
-901 -1171 0
-902 -1172 0
-903 -1173 0
-901 -1246 0
-902 -1247 0
-903 -1248 0
-901 -1252 0
-902 -1253 0
-903 -1254 0
-907 -1063 0
-908 -1064 0
-909 -1065 0
-907 -1222 0
-908 -1223 0
-909 -1224 0
-907 -1378 0
-908 -1379 0
-909 -1380 0
-916 -1480 0
-917 -1481 0
-918 -1482 0
-919 -1228 0
-920 -1229 0
-921 -1230 0
-919 -1240 0
-920 -1241 0
-921 -1242 0
-922 -1117 0
-923 -1118 0
-924 -1119 0
-922 -1345 0
-923 -1346 0
-924 -1347 0
-922 -1450 0
-923 -1451 0
-924 -1452 0
-922 -1492 0
-923 -1493 0
-924 -1494 0
-925 -1168 0
-926 -1169 0
-927 -1170 0
-925 -1255 0
-926 -1256 0
-927 -1257 0
-925 -1411 0
-926 -1412 0
-927 -1413 0
-928 -1384 0
-929 -1385 0
-930 -1386 0
-934 -1186 0
-935 -1187 0
-936 -1188 0
-937 -1126 0
-938 -1127 0
-939 -1128 0
-937 -1396 0
-938 -1397 0
-939 -1398 0
-940 -1231 0
-941 -1232 0
-942 -1233 0
-940 -1465 0
-941 -1466 0
-942 -1467 0
-943 -1417 0
-944 -1418 0
-945 -1419 0
-946 -1141 0
-947 -1142 0
-948 -1143 0
-946 -1243 0
-947 -1244 0
-948 -1245 0
-949 -976 0
-950 -977 0
-951 -978 0
-949 -1234 0
-950 -1235 0
-951 -1236 0
-949 -1483 0
-950 -1484 0
-951 -1485 0
-955 -997 0
-956 -998 0
-957 -999 0
-955 -1441 0
-956 -1442 0
-957 -1443 0
-958 -1087 0
-959 -1088 0
-960 -1089 0
-964 -1060 0
-965 -1061 0
-966 -1062 0
-964 -1360 0
-965 -1361 0
-966 -1362 0
-964 -1417 0
-965 -1418 0
-966 -1419 0
-967 -1450 0
-968 -1451 0
-969 -1452 0
-970 -1231 0
-971 -1232 0
-972 -1233 0
-970 -1429 0
-971 -1430 0
-972 -1431 0
-973 -1213 0
-974 -1214 0
-975 -1215 0
-976 -1009 0
-977 -1010 0
-978 -1011 0
-976 -1426 0
-977 -1427 0
-978 -1428 0
-979 -1288 0
-980 -1289 0
-981 -1290 0
-979 -1345 0
-980 -1346 0
-981 -1347 0
-982 -988 0
-983 -989 0
-984 -990 0
-982 -1003 0
-983 -1004 0
-984 -1005 0
-982 -1417 0
-983 -1418 0
-984 -1419 0
-985 -1240 0
-986 -1241 0
-987 -1242 0
-988 -1339 0
-989 -1340 0
-990 -1341 0
-991 -1051 0
-992 -1052 0
-993 -1053 0
-991 -1417 0
-992 -1418 0
-993 -1419 0
-991 -1456 0
-992 -1457 0
-993 -1458 0
-997 -1300 0
-998 -1301 0
-999 -1302 0
-1000 -1015 0
-1001 -1016 0
-1002 -1017 0
-1000 -1078 0
-1001 -1079 0
-1002 -1080 0
-1003 -1009 0
-1004 -1010 0
-1005 -1011 0
-1003 -1171 0
-1004 -1172 0
-1005 -1173 0
-1003 -1219 0
-1004 -1220 0
-1005 -1221 0
-1003 -1405 0
-1004 -1406 0
-1005 -1407 0
-1006 -1186 0
-1007 -1187 0
-1008 -1188 0
-1009 -1198 0
-1010 -1199 0
-1011 -1200 0
-1009 -1252 0
-1010 -1253 0
-1011 -1254 0
-1009 -1378 0
-1010 -1379 0
-1011 -1380 0
-1009 -1456 0
-1010 -1457 0
-1011 -1458 0
-1012 -1150 0
-1013 -1151 0
-1014 -1152 0
-1012 -1192 0
-1013 -1193 0
-1014 -1194 0
-1015 -1435 0
-1016 -1436 0
-1017 -1437 0
-1018 -1237 0
-1019 -1238 0
-1020 -1239 0
-1021 -1156 0
-1022 -1157 0
-1023 -1158 0
-1021 -1180 0
-1022 -1181 0
-1023 -1182 0
-1021 -1210 0
-1022 -1211 0
-1023 -1212 0
-1021 -1366 0
-1022 -1367 0
-1023 -1368 0
-1021 -1456 0
-1022 -1457 0
-1023 -1458 0
-1024 -1324 0
-1025 -1325 0
-1026 -1326 0
-1024 -1411 0
-1025 -1412 0
-1026 -1413 0
-1033 -1036 0
-1034 -1037 0
-1035 -1038 0
-1036 -1042 0
-1037 -1043 0
-1038 -1044 0
-1039 -1147 0
-1040 -1148 0
-1041 -1149 0
-1039 -1312 0
-1040 -1313 0
-1041 -1314 0
-1042 -1198 0
-1043 -1199 0
-1044 -1200 0
-1042 -1387 0
-1043 -1388 0
-1044 -1389 0
-1042 -1411 0
-1043 -1412 0
-1044 -1413 0
-1045 -1174 0
-1046 -1175 0
-1047 -1176 0
-1045 -1309 0
-1046 -1310 0
-1047 -1311 0
-1045 -1378 0
-1046 -1379 0
-1047 -1380 0
-1051 -1063 0
-1052 -1064 0
-1053 -1065 0
-1054 -1096 0
-1055 -1097 0
-1056 -1098 0
-1054 -1477 0
-1055 -1478 0
-1056 -1479 0
-1057 -1192 0
-1058 -1193 0
-1059 -1194 0
-1057 -1204 0
-1058 -1205 0
-1059 -1206 0
-1063 -1141 0
-1064 -1142 0
-1065 -1143 0
-1066 -1174 0
-1067 -1175 0
-1068 -1176 0
-1066 -1204 0
-1067 -1205 0
-1068 -1206 0
-1069 -1177 0
-1070 -1178 0
-1071 -1179 0
-1075 -1357 0
-1076 -1358 0
-1077 -1359 0
-1075 -1492 0
-1076 -1493 0
-1077 -1494 0
-1078 -1417 0
-1079 -1418 0
-1080 -1419 0
-1084 -1447 0
-1085 -1448 0
-1086 -1449 0
-1087 -1183 0
-1088 -1184 0
-1089 -1185 0
-1087 -1216 0
-1088 -1217 0
-1089 -1218 0
-1090 -1159 0
-1091 -1160 0
-1092 -1161 0
-1093 -1204 0
-1094 -1205 0
-1095 -1206 0
-1093 -1267 0
-1094 -1268 0
-1095 -1269 0
-1093 -1426 0
-1094 -1427 0
-1095 -1428 0
-1096 -1225 0
-1097 -1226 0
-1098 -1227 0
-1099 -1369 0
-1100 -1370 0
-1101 -1371 0
-1102 -1387 0
-1103 -1388 0
-1104 -1389 0
-1105 -1453 0
-1106 -1454 0
-1107 -1455 0
-1108 -1279 0
-1109 -1280 0
-1110 -1281 0
-1108 -1324 0
-1109 -1325 0
-1110 -1326 0
-1108 -1483 0
-1109 -1484 0
-1110 -1485 0
-1111 -1267 0
-1112 -1268 0
-1113 -1269 0
-1111 -1300 0
-1112 -1301 0
-1113 -1302 0
-1117 -1210 0
-1118 -1211 0
-1119 -1212 0
-1117 -1435 0
-1118 -1436 0
-1119 -1437 0
-1120 -1492 0
-1121 -1493 0
-1122 -1494 0
-1123 -1252 0
-1124 -1253 0
-1125 -1254 0
-1123 -1465 0
-1124 -1466 0
-1125 -1467 0
-1126 -1282 0
-1127 -1283 0
-1128 -1284 0
-1129 -1348 0
-1130 -1349 0
-1131 -1350 0
-1135 -1219 0
-1136 -1220 0
-1137 -1221 0
-1135 -1237 0
-1136 -1238 0
-1137 -1239 0
-1135 -1327 0
-1136 -1328 0
-1137 -1329 0
-1135 -1441 0
-1136 -1442 0
-1137 -1443 0
-1141 -1252 0
-1142 -1253 0
-1143 -1254 0
-1141 -1303 0
-1142 -1304 0
-1143 -1305 0
-1141 -1486 0
-1142 -1487 0
-1143 -1488 0
-1144 -1393 0
-1145 -1394 0
-1146 -1395 0
-1150 -1231 0
-1151 -1232 0
-1152 -1233 0
-1150 -1402 0
-1151 -1403 0
-1152 -1404 0
-1159 -1276 0
-1160 -1277 0
-1161 -1278 0
-1159 -1468 0
-1160 -1469 0
-1161 -1470 0
-1171 -1207 0
-1172 -1208 0
-1173 -1209 0
-1171 -1432 0
-1172 -1433 0
-1173 -1434 0
-1171 -1465 0
-1172 -1466 0
-1173 -1467 0
-1174 -1408 0
-1175 -1409 0
-1176 -1410 0
-1177 -1402 0
-1178 -1403 0
-1179 -1404 0
-1180 -1204 0
-1181 -1205 0
-1182 -1206 0
-1180 -1243 0
-1181 -1244 0
-1182 -1245 0
-1183 -1429 0
-1184 -1430 0
-1185 -1431 0
-1186 -1465 0
-1187 -1466 0
-1188 -1467 0
-1189 -1447 0
-1190 -1448 0
-1191 -1449 0
-1192 -1336 0
-1193 -1337 0
-1194 -1338 0
-1195 -1270 0
-1196 -1271 0
-1197 -1272 0
-1198 -1288 0
-1199 -1289 0
-1200 -1290 0
-1198 -1348 0
-1199 -1349 0
-1200 -1350 0
-1198 -1351 0
-1199 -1352 0
-1200 -1353 0
-1201 -1237 0
-1202 -1238 0
-1203 -1239 0
-1210 -1402 0
-1211 -1403 0
-1212 -1404 0
-1216 -1372 0
-1217 -1373 0
-1218 -1374 0
-1219 -1333 0
-1220 -1334 0
-1221 -1335 0
-1228 -1336 0
-1229 -1337 0
-1230 -1338 0
-1234 -1321 0
-1235 -1322 0
-1236 -1323 0
-1234 -1336 0
-1235 -1337 0
-1236 -1338 0
-1237 -1417 0
-1238 -1418 0
-1239 -1419 0
-1246 -1252 0
-1247 -1253 0
-1248 -1254 0
-1246 -1432 0
-1247 -1433 0
-1248 -1434 0
-1258 -1309 0
-1259 -1310 0
-1260 -1311 0
-1267 -1372 0
-1268 -1373 0
-1269 -1374 0
-1273 -1393 0
-1274 -1394 0
-1275 -1395 0
-1273 -1483 0
-1274 -1484 0
-1275 -1485 0
-1297 -1318 0
-1298 -1319 0
-1299 -1320 0
-1297 -1429 0
-1298 -1430 0
-1299 -1431 0
-1297 -1480 0
-1298 -1481 0
-1299 -1482 0
-1303 -1402 0
-1304 -1403 0
-1305 -1404 0
-1303 -1495 0
-1304 -1496 0
-1305 -1497 0
-1312 -1447 0
-1313 -1448 0
-1314 -1449 0
-1321 -1327 0
-1322 -1328 0
-1323 -1329 0
-1324 -1384 0
-1325 -1385 0
-1326 -1386 0
-1342 -1354 0
-1343 -1355 0
-1344 -1356 0
-1342 -1465 0
-1343 -1466 0
-1344 -1467 0
-1348 -1423 0
-1349 -1424 0
-1350 -1425 0
-1354 -1411 0
-1355 -1412 0
-1356 -1413 0
-1354 -1444 0
-1355 -1445 0
-1356 -1446 0
-1363 -1366 0
-1364 -1367 0
-1365 -1368 0
-1369 -1402 0
-1370 -1403 0
-1371 -1404 0
-1372 -1489 0
-1373 -1490 0
-1374 -1491 0
-1375 -1378 0
-1376 -1379 0
-1377 -1380 0
-1381 -1459 0
-1382 -1460 0
-1383 -1461 0
-1381 -1486 0
-1382 -1487 0
-1383 -1488 0
-1396 -1495 0
-1397 -1496 0
-1398 -1497 0
-1411 -1456 0
-1412 -1457 0
-1413 -1458 0
-1411 -1477 0
-1412 -1478 0
-1413 -1479 0
-1414 -1447 0
-1415 -1448 0
-1416 -1449 0
-1447 -1456 0
-1448 -1457 0
-1449 -1458 0
-1462 -1492 0
-1463 -1493 0
-1464 -1494 0
