p cnf 450 1917
68 -210 337 0
6 270 343 0
174 -341 -355 0
52 -222 427 0
12 -261 -430 0
95 -313 -410 0
106 -220 -425 0
-202 -222 -417 0
83 -169 -311 0
-57 -343 -351 0
48 -91 -243 0
35 125 187 0
-40 -217 -443 0
-94 -317 348 0
-27 -109 317 0
-87 367 -405 0
-34 102 232 0
-52 376 434 0
-139 -244 -359 0
-259 360 -437 0
104 -162 -322 0
-11 -61 -306 0
19 -218 -370 0
283 -319 352 0
102 277 -438 0
9 -53 95 0
-116 -168 -212 0
-5 -356 387 0
25 181 -356 0
-6 341 358 0
56 -110 -344 0
-89 201 204 0
36 -302 323 0
73 119 380 0
63 314 -386 0
100 -314 409 0
196 -369 398 0
153 207 238 0
164 -381 387 0
41 167 -238 0
165 -265 289 0
248 324 -429 0
-292 -319 -392 0
167 245 -376 0
-393 397 -421 0
223 -284 371 0
-26 -230 444 0
-39 110 -177 0
-107 -123 -183 0
112 -115 -444 0
-2 248 313 0
60 320 -410 0
28 -194 -442 0
-81 -301 445 0
277 403 -442 0
-189 225 -393 0
262 283 -369 0
-23 -52 -144 0
127 -251 370 0
-81 -238 -282 0
-45 203 359 0
-59 -82 115 0
54 -247 -364 0
47 249 258 0
3 -42 99 0
-205 -307 389 0
-27 -283 350 0
-102 231 -238 0
-213 359 -395 0
-100 -160 225 0
182 346 414 0
-53 -130 282 0
39 71 231 0
97 417 -450 0
-87 293 -377 0
-191 333 419 0
-45 -172 173 0
128 -153 426 0
-83 -354 -446 0
294 351 -394 0
111 207 -353 0
427 -434 -436 0
-111 -148 -294 0
-186 187 424 0
59 -176 185 0
42 -204 326 0
-162 359 440 0
-144 -180 238 0
65 -119 315 0
-29 151 -437 0
-45 141 349 0
35 114 358 0
181 -232 -431 0
-195 -226 245 0
-153 347 -403 0
128 -260 450 0
-37 148 -325 0
13 -43 411 0
23 36 307 0
-3 302 325 0
86 -233 277 0
-233 309 -377 0
23 205 246 0
238 374 -381 0
-164 215 231 0
-71 -307 374 0
-109 -249 -283 0
12 -127 -340 0
149 310 -436 0
32 84 -169 0
251 -433 -439 0
-10 101 168 0
247 -277 387 0
-126 -345 -350 0
-45 370 -412 0
-71 -231 -289 0
-51 -90 432 0
-259 -263 -380 0
130 188 -208 0
-62 201 401 0
1 236 -309 0
334 -402 -413 0
-139 -383 443 0
-25 157 163 0
86 -264 412 0
282 -344 -361 0
-10 80 -412 0
-132 -384 -404 0
64 295 434 0
-62 -87 254 0
128 179 -255 0
-84 -116 145 0
-218 370 -376 0
106 -281 416 0
-295 329 430 0
-4 -248 379 0
42 -124 -425 0
-262 -284 431 0
-91 -141 361 0
-196 -288 -441 0
186 288 352 0
-19 67 172 0
170 -222 -234 0
297 -432 -446 0
21 -214 -379 0
-46 -165 -333 0
66 -372 388 0
-93 195 407 0
204 -354 403 0
60 -285 -381 0
-62 -95 302 0
91 166 379 0
104 -138 438 0
12 -205 -414 0
101 189 259 0
-147 166 -306 0
147 -191 268 0
163 235 -365 0
-198 205 295 0
212 252 -272 0
-122 -289 318 0
-316 360 -376 0
-65 -78 -288 0
-267 -302 -365 0
46 -175 -320 0
245 283 437 0
36 256 388 0
-93 318 414 0
263 314 448 0
93 219 -277 0
-124 258 418 0
-104 353 -438 0
-130 -203 -232 0
-144 -317 -411 0
37 243 -300 0
-79 -322 -424 0
1 396 429 0
-32 -205 -247 0
-301 -357 -373 0
-9 59 -99 0
98 -256 -350 0
93 191 -440 0
-423 426 -442 0
225 -227 443 0
-90 -197 412 0
-34 -73 -418 0
-42 -253 -391 0
-55 383 391 0
-292 378 445 0
328 394 -398 0
56 138 -419 0
-267 377 -447 0
22 -83 337 0
-136 153 -392 0
101 -319 348 0
-215 275 -315 0
-179 304 -316 0
-175 -247 271 0
76 239 -374 0
224 -302 433 0
30 198 422 0
28 -123 231 0
-201 336 375 0
203 217 -377 0
-179 -433 -445 0
-92 -177 -273 0
-181 -183 186 0
244 -295 -313 0
35 -422 -445 0
-213 -314 -432 0
-149 154 263 0
151 -414 415 0
-41 69 186 0
120 187 384 0
47 91 -213 0
222 -371 395 0
146 -389 -428 0
-215 -318 -396 0
-4 -155 418 0
168 -257 275 0
-75 -267 -417 0
-35 128 -309 0
-89 -99 145 0
-109 -111 273 0
35 -312 319 0
-244 301 -401 0
53 245 274 0
-56 385 -400 0
80 -211 413 0
16 82 157 0
-60 92 -319 0
68 -193 402 0
-95 -110 395 0
48 -49 449 0
-197 244 284 0
-88 98 182 0
-153 374 -442 0
171 -192 365 0
67 137 -223 0
-407 -414 433 0
-184 -375 -435 0
-95 -192 -246 0
-6 -65 -95 0
-17 108 -218 0
-242 -299 -380 0
-91 284 311 0
124 -312 372 0
-130 -207 -405 0
-165 -295 421 0
-113 -190 -205 0
-28 173 424 0
7 -220 405 0
11 -43 -305 0
-231 -285 -410 0
3 -195 -227 0
16 -124 -399 0
10 143 243 0
106 -209 -395 0
3 -265 -343 0
2 -291 345 0
-252 -315 -384 0
84 -311 -354 0
-46 -56 107 0
-163 -307 333 0
110 -289 432 0
-92 289 -412 0
301 304 -414 0
189 258 282 0
100 177 327 0
11 -12 207 0
-80 -260 398 0
-145 -300 347 0
14 356 359 0
-41 71 86 0
80 -172 -438 0
-22 -67 -235 0
37 168 -311 0
-18 -175 224 0
80 -203 283 0
151 -299 396 0
287 -391 -426 0
2 -22 -101 0
145 340 372 0
-105 -200 -290 0
38 -229 443 0
51 197 -362 0
-31 -366 411 0
-99 169 -219 0
-16 -105 -308 0
-246 394 412 0
-21 95 177 0
126 248 439 0
34 121 -248 0
44 -200 448 0
-112 210 339 0
-8 -339 375 0
211 314 359 0
51 -70 281 0
-50 -243 425 0
-30 -286 -434 0
-133 -141 196 0
178 -286 -425 0
191 -195 298 0
86 -180 311 0
-150 266 -404 0
-45 370 -382 0
112 -205 -408 0
-11 -132 -268 0
-83 166 -181 0
297 347 -440 0
-118 -126 327 0
55 320 -410 0
-165 -182 204 0
-121 -172 200 0
5 -36 -413 0
-229 437 438 0
-72 271 -289 0
50 236 -257 0
-82 209 383 0
282 397 404 0
42 -326 410 0
-158 -199 -331 0
-229 241 363 0
31 156 223 0
271 298 -323 0
65 -136 140 0
-51 -87 -383 0
-83 -129 -327 0
-130 -158 293 0
97 -323 327 0
87 104 -165 0
-102 139 -374 0
59 -138 -450 0
-137 -160 -296 0
17 121 -364 0
195 308 433 0
8 404 424 0
307 -346 -382 0
82 -87 -171 0
-97 -310 313 0
3 117 191 0
22 167 -301 0
-30 -141 -223 0
-23 -167 -407 0
42 -300 -373 0
91 -256 -382 0
34 249 -383 0
-56 -119 152 0
-217 250 437 0
28 -61 432 0
57 69 225 0
-115 -173 263 0
-36 -208 248 0
146 230 250 0
89 -212 -349 0
11 337 351 0
50 210 -255 0
20 41 301 0
-215 -246 334 0
193 408 -410 0
-88 -332 -449 0
104 -120 152 0
45 -304 363 0
164 249 343 0
24 -409 -435 0
13 200 -316 0
169 -197 329 0
-56 226 -230 0
-43 -242 -412 0
83 151 158 0
328 356 395 0
93 -200 226 0
52 202 401 0
173 226 -252 0
3 -368 424 0
196 390 393 0
-66 258 -294 0
74 146 -243 0
11 55 -405 0
-151 -237 320 0
-251 -285 -327 0
63 -254 410 0
29 126 410 0
147 213 379 0
-40 -198 229 0
-240 -389 409 0
15 302 -414 0
194 279 390 0
-120 -339 350 0
89 -221 -367 0
-1 -194 253 0
416 437 -445 0
136 190 243 0
-34 166 -338 0
77 201 -343 0
-48 273 404 0
21 175 -441 0
-213 -226 -437 0
265 427 -440 0
-107 287 -371 0
-107 181 313 0
-62 -188 215 0
23 -422 432 0
-39 245 384 0
-168 233 242 0
-126 252 254 0
165 225 322 0
42 67 -188 0
-156 306 -416 0
-119 272 -412 0
335 -368 -427 0
-409 -438 450 0
-114 -389 -448 0
-171 -187 209 0
32 -47 301 0
-332 -365 430 0
-168 271 362 0
-132 -148 -285 0
248 413 447 0
136 -177 348 0
-11 303 322 0
14 -215 353 0
309 426 -430 0
-301 -304 320 0
-299 -300 -425 0
151 313 440 0
156 265 -404 0
14 -191 370 0
-11 29 -217 0
170 -358 -395 0
11 184 297 0
7 203 -253 0
-36 -343 424 0
-123 -251 -449 0
-119 338 -424 0
276 -285 376 0
32 64 -208 0
-123 268 331 0
-13 -96 -225 0
-55 -131 224 0
95 235 -384 0
295 308 -309 0
264 -307 -398 0
14 -16 229 0
-271 -310 -360 0
-25 245 284 0
-285 306 395 0
148 325 425 0
-116 -365 -417 0
-2 178 283 0
-105 -166 324 0
22 -145 -218 0
-150 -183 379 0
-345 385 -419 0
-3 -37 147 0
286 -315 354 0
11 -92 351 0
121 123 -185 0
-39 -64 -271 0
-241 246 -424 0
-228 274 -282 0
32 -219 405 0
40 -120 -153 0
79 -171 290 0
6 -139 -299 0
245 -332 372 0
174 314 -429 0
114 235 258 0
342 362 418 0
-196 -327 -392 0
-27 46 -117 0
172 -228 286 0
-62 93 392 0
51 119 -169 0
-98 204 426 0
-48 192 -208 0
-137 -269 -392 0
-11 -38 276 0
-150 -287 420 0
95 284 418 0
7 -112 -159 0
43 -73 -431 0
2 -37 -291 0
-32 -133 -254 0
173 195 245 0
-226 -247 434 0
-234 320 -401 0
8 244 343 0
144 416 -443 0
373 418 -426 0
181 305 -369 0
57 -240 382 0
15 -24 450 0
-24 -248 274 0
87 93 375 0
-156 281 403 0
25 120 -159 0
174 -276 -328 0
-300 -414 -424 0
209 -253 347 0
161 389 449 0
117 277 -302 0
302 326 -449 0
77 196 -208 0
-31 -61 -392 0
-62 -407 414 0
136 -231 439 0
-165 424 -427 0
-244 279 -391 0
-21 204 284 0
-13 -51 414 0
79 226 -345 0
57 -180 193 0
-126 269 364 0
-3 -85 -159 0
-105 120 -415 0
31 -329 -339 0
-56 -276 424 0
5 -149 -217 0
85 267 289 0
179 -203 448 0
-135 -209 219 0
73 -98 -287 0
-10 -57 364 0
293 373 -425 0
63 -251 436 0
148 220 413 0
-213 -218 388 0
-2 -57 -235 0
117 189 -221 0
-163 -200 -339 0
-37 -319 341 0
-82 -187 -292 0
-120 -215 419 0
-64 252 309 0
83 142 -183 0
-51 65 443 0
-16 -44 -297 0
-53 -279 380 0
14 340 -419 0
18 -258 -390 0
-124 190 281 0
-18 275 435 0
31 -315 -428 0
67 231 258 0
63 -253 -391 0
-82 -110 -210 0
-228 245 317 0
91 193 -307 0
265 281 445 0
61 155 381 0
71 -219 276 0
-223 -418 437 0
-12 -76 134 0
186 -334 -337 0
114 -115 -447 0
2 128 -211 0
-142 -368 440 0
-75 -98 -355 0
8 279 333 0
-151 271 -357 0
49 331 407 0
-152 -158 -300 0
152 -243 299 0
-76 176 -200 0
-1 -177 -276 0
-44 -227 359 0
-208 -380 444 0
-119 295 333 0
142 252 -296 0
3 -143 -226 0
-323 347 -382 0
54 -336 -358 0
-135 313 449 0
-8 319 413 0
99 -115 121 0
293 322 -399 0
-328 -338 -373 0
-269 386 -439 0
-299 362 -371 0
53 -190 -405 0
-100 266 -347 0
208 294 -391 0
-149 -300 315 0
74 135 180 0
14 87 172 0
-139 -149 220 0
-5 236 303 0
105 -168 422 0
-80 -377 -390 0
-29 -327 332 0
87 -144 423 0
248 -254 355 0
137 268 -336 0
6 202 -370 0
45 -265 -385 0
174 -312 -327 0
-202 -245 -260 0
102 176 -345 0
138 -168 -203 0
-115 -167 -393 0
57 -169 404 0
74 -81 -401 0
15 164 -435 0
202 217 332 0
62 217 373 0
260 -291 356 0
-285 -306 -375 0
-156 -316 -430 0
105 -145 219 0
-44 -245 324 0
228 266 328 0
-2 331 440 0
46 -180 229 0
-22 -52 -199 0
-50 -327 444 0
-39 -75 -94 0
-93 -311 -362 0
-5 50 410 0
22 -209 381 0
107 157 -326 0
103 171 388 0
-54 -82 -99 0
103 -133 -406 0
-119 -150 325 0
88 -343 -385 0
-46 113 -306 0
95 366 405 0
-16 99 150 0
5 -270 -305 0
11 -300 352 0
42 -59 -314 0
269 303 393 0
67 82 254 0
100 207 -302 0
55 -64 -163 0
52 -270 -325 0
-116 289 -307 0
-19 -307 416 0
64 -263 439 0
-20 -134 208 0
-148 -378 438 0
310 373 -418 0
-8 -26 267 0
-25 98 389 0
-61 203 -242 0
103 -284 -438 0
-213 -241 -375 0
-339 -374 439 0
-59 359 -371 0
-253 400 -408 0
280 -308 -390 0
75 175 247 0
-29 175 -392 0
-203 310 -445 0
104 133 259 0
-61 -284 -308 0
127 305 -436 0
105 335 343 0
-137 267 441 0
123 275 364 0
3 162 425 0
-27 98 -403 0
283 301 375 0
191 -249 -293 0
255 -270 311 0
-124 -210 -335 0
229 319 376 0
-30 -288 -420 0
79 -263 -352 0
-16 -101 -267 0
81 238 352 0
-254 -431 -433 0
-28 -110 349 0
-98 153 -370 0
101 181 447 0
-227 359 -411 0
-211 338 349 0
68 -143 206 0
-345 346 435 0
25 -366 386 0
310 -389 -435 0
-152 206 409 0
1 -190 -305 0
-78 -263 -312 0
28 97 304 0
-69 142 419 0
-109 373 -429 0
290 -387 -404 0
25 -218 305 0
55 -107 163 0
1 345 361 0
-60 222 -267 0
47 -61 -287 0
236 252 -267 0
-234 -304 367 0
-331 -340 428 0
106 216 289 0
-115 -323 -412 0
-163 -168 -332 0
-133 -162 -416 0
-13 -202 385 0
114 -269 -344 0
-97 132 370 0
38 197 -335 0
-169 193 -279 0
-158 -224 -296 0
-6 -354 393 0
-181 -279 -390 0
-35 268 -330 0
137 223 269 0
2 -109 415 0
-49 -88 -106 0
231 291 -400 0
17 170 400 0
-3 101 304 0
8 63 -434 0
324 338 439 0
185 259 -281 0
10 -407 432 0
-24 -83 -240 0
-129 156 -245 0
-313 -362 -367 0
-67 236 -438 0
-103 -152 -412 0
170 -193 -347 0
-27 -89 358 0
-106 -118 143 0
-141 -176 190 0
-30 163 -447 0
-155 -192 379 0
82 -91 -377 0
-51 129 -420 0
181 383 426 0
-415 -421 -438 0
-106 242 326 0
-20 -214 367 0
150 -224 450 0
-108 109 167 0
44 -311 411 0
30 -181 445 0
21 -118 319 0
366 -437 449 0
-187 -261 354 0
105 243 -416 0
26 221 418 0
17 42 299 0
-180 188 -416 0
-238 368 382 0
-98 387 417 0
72 -186 -220 0
122 -361 -450 0
13 355 391 0
-81 -98 143 0
-114 -140 350 0
-282 374 426 0
43 98 416 0
24 110 143 0
117 300 -424 0
-204 318 371 0
4 150 280 0
88 -360 438 0
89 326 -343 0
-174 -206 217 0
26 116 215 0
88 190 -210 0
240 286 428 0
-162 -230 -365 0
40 -97 -336 0
-7 82 432 0
1 27 160 0
-108 -376 -408 0
93 107 188 0
-104 159 352 0
27 -245 426 0
-174 -208 296 0
87 316 397 0
186 204 -286 0
-229 235 -302 0
-134 -179 418 0
13 -68 317 0
-8 -131 -186 0
18 129 219 0
224 296 321 0
66 -131 367 0
123 144 408 0
126 -403 404 0
36 -103 -180 0
65 -284 -447 0
-87 185 -202 0
-121 277 -343 0
-4 -13 230 0
218 226 -441 0
-123 -186 338 0
-133 -218 -276 0
-48 -193 -442 0
-106 126 207 0
236 299 -322 0
201 -214 421 0
46 51 -414 0
56 229 266 0
281 -359 -434 0
-89 208 232 0
191 225 405 0
-84 364 429 0
137 167 -208 0
46 146 -237 0
209 -368 -434 0
60 -168 323 0
-118 -185 -344 0
45 86 94 0
-163 172 280 0
-62 240 -375 0
42 -121 -344 0
-69 -72 421 0
180 199 -399 0
82 287 -324 0
-147 -182 -239 0
161 239 328 0
107 345 -450 0
17 -223 393 0
131 -379 386 0
33 40 -275 0
-145 -163 -447 0
-2 -14 437 0
-7 -37 349 0
-210 257 -313 0
285 324 -404 0
252 -380 411 0
-141 -168 386 0
168 -266 433 0
-228 -264 450 0
10 330 -443 0
-96 151 -357 0
219 276 -402 0
124 -313 330 0
-203 -223 -280 0
39 -211 308 0
-19 168 -179 0
-129 264 328 0
75 99 -240 0
-19 -223 -344 0
-76 324 -368 0
-148 -292 328 0
284 316 341 0
-56 -173 -319 0
117 423 -427 0
29 -143 -415 0
110 -142 169 0
-204 241 325 0
173 292 364 0
135 363 -441 0
-131 227 -237 0
260 361 370 0
1 -247 -380 0
-133 135 428 0
-94 162 381 0
18 -231 -266 0
-76 105 302 0
111 -215 -236 0
-59 -97 443 0
-149 323 -429 0
55 64 -374 0
48 247 266 0
-175 -226 418 0
-211 -222 364 0
-111 238 -266 0
96 120 -242 0
-126 -230 314 0
-70 -285 288 0
-324 335 345 0
180 -204 424 0
-114 123 -239 0
-88 106 152 0
-51 107 -132 0
-236 276 -351 0
-125 -299 -407 0
-163 294 353 0
145 218 281 0
134 148 186 0
10 -141 210 0
-9 -55 -271 0
-183 -210 -274 0
-32 -380 450 0
67 130 243 0
-266 390 421 0
31 -187 -230 0
19 292 -403 0
117 150 321 0
-77 -107 -153 0
-60 281 363 0
-151 -221 -358 0
187 -342 446 0
-181 374 -427 0
165 238 279 0
-56 143 -415 0
58 -283 344 0
45 252 -288 0
-180 337 -342 0
117 -336 395 0
236 -320 338 0
267 409 -444 0
50 -88 -148 0
8 -70 184 0
-242 -411 -426 0
17 120 384 0
55 93 397 0
73 274 -396 0
-61 -135 384 0
25 -164 -298 0
96 236 -303 0
6 61 74 0
-102 142 -352 0
-38 -176 347 0
176 -275 302 0
-35 66 149 0
43 170 -252 0
-142 -193 -359 0
-176 -189 -210 0
69 -121 -288 0
-126 -281 -404 0
139 -283 -450 0
175 -205 -371 0
5 160 -209 0
-223 262 368 0
289 -402 439 0
-124 206 -240 0
75 -91 -130 0
101 -105 314 0
88 -125 262 0
98 337 -361 0
183 295 358 0
249 290 334 0
-5 194 247 0
-77 -218 -321 0
-87 286 398 0
-228 260 350 0
29 135 306 0
178 -210 442 0
-233 427 434 0
56 -284 -430 0
-187 -301 327 0
82 228 -251 0
12 -50 -428 0
-19 58 199 0
-238 -383 421 0
-222 -359 385 0
-162 177 -418 0
2 -267 -419 0
96 -202 346 0
-85 -89 135 0
-182 183 -298 0
122 390 -425 0
-233 249 341 0
-113 441 -445 0
-284 -300 330 0
23 -367 -380 0
-20 166 -224 0
229 301 -339 0
-75 -94 271 0
-101 -113 379 0
49 -135 -213 0
7 27 144 0
335 -367 -431 0
162 268 -439 0
65 -119 -203 0
-36 -82 281 0
58 365 -441 0
-257 -393 394 0
45 220 -423 0
178 -344 434 0
-335 351 360 0
-18 -68 -393 0
-185 -225 271 0
-29 188 370 0
94 194 -254 0
-19 73 131 0
275 358 -418 0
-115 -222 -411 0
-135 219 -227 0
-44 372 -374 0
-202 276 331 0
304 -377 443 0
218 -324 -448 0
110 132 -242 0
237 280 -415 0
170 285 437 0
-200 210 -440 0
-62 107 -249 0
105 128 -162 0
36 145 -164 0
-25 293 -312 0
162 199 316 0
-34 -154 -337 0
97 -204 -324 0
4 279 -320 0
-200 -288 -385 0
60 -262 -282 0
-221 -225 -326 0
122 150 -373 0
-147 257 -261 0
-113 231 -378 0
72 -135 -150 0
-42 -311 -378 0
-15 79 -348 0
-155 -211 -328 0
-69 -97 392 0
-67 -211 296 0
22 -213 432 0
173 -391 -406 0
249 -263 347 0
66 -372 416 0
-71 270 411 0
-73 -164 -289 0
219 336 -445 0
30 161 173 0
-56 335 373 0
190 -290 -417 0
29 -151 -394 0
31 32 -347 0
35 211 -418 0
194 371 -448 0
-97 -264 -274 0
-126 -207 -357 0
1 13 -92 0
-17 -279 -350 0
-68 -200 -291 0
-169 234 -361 0
-171 252 401 0
139 145 357 0
57 247 430 0
330 391 393 0
221 256 320 0
20 -358 -447 0
143 -190 -212 0
-205 -282 448 0
-23 -203 307 0
8 180 -210 0
-35 63 -363 0
-21 149 167 0
86 181 275 0
53 -107 -193 0
-35 -305 -398 0
-54 208 -247 0
-64 239 271 0
-209 -265 -368 0
-151 282 425 0
229 276 -350 0
4 -231 -358 0
-33 -214 -266 0
-21 -192 379 0
79 -184 -431 0
119 186 -213 0
301 -373 421 0
30 289 -418 0
-94 -368 -430 0
6 -26 195 0
-135 -145 -349 0
-281 301 317 0
-108 -130 -240 0
-100 312 -328 0
-87 92 200 0
66 -68 341 0
185 -307 323 0
-43 -49 -300 0
-67 -127 311 0
-343 389 407 0
97 195 -341 0
-66 -258 -314 0
11 39 272 0
174 -267 328 0
105 -283 -349 0
44 89 408 0
-209 233 -342 0
125 -251 315 0
100 257 -419 0
-105 -183 -312 0
87 101 -176 0
94 -132 -226 0
-182 -291 303 0
43 -51 -121 0
20 312 350 0
-80 -105 107 0
-221 -400 434 0
76 -265 -297 0
38 -280 -332 0
271 -361 372 0
-171 287 306 0
-109 312 382 0
280 -322 396 0
87 -169 221 0
-116 252 256 0
-57 -146 -398 0
-8 -66 -239 0
116 123 -244 0
-214 -217 -311 0
91 95 109 0
10 -92 -273 0
97 322 -392 0
-210 262 -297 0
-362 -395 -436 0
11 -113 264 0
-56 59 411 0
-55 159 -306 0
-111 220 -249 0
-47 -388 433 0
-2 -67 -80 0
-223 276 -406 0
160 -184 308 0
58 -324 -329 0
247 249 -323 0
-14 -43 49 0
-139 -167 -262 0
238 286 338 0
-244 -265 -301 0
-52 -228 -288 0
-150 -407 -428 0
-79 326 342 0
-60 185 198 0
-268 405 -436 0
99 175 441 0
212 318 447 0
-228 -357 422 0
-133 255 -341 0
-51 -272 335 0
-4 227 -431 0
-68 168 269 0
81 -90 357 0
6 -102 243 0
128 -188 359 0
275 -441 449 0
194 252 -316 0
241 -380 -417 0
9 -387 -425 0
56 124 166 0
-88 284 445 0
48 -186 -416 0
140 266 -437 0
-75 -314 -421 0
9 321 -415 0
-63 164 -288 0
4 384 -421 0
188 317 -345 0
43 -199 299 0
-30 36 -120 0
5 139 -281 0
-25 -167 -252 0
-31 60 96 0
-111 -200 340 0
-32 -74 -348 0
-43 -300 436 0
155 261 327 0
94 374 392 0
-134 144 406 0
83 -185 -438 0
-139 -206 443 0
170 -237 -388 0
-109 328 418 0
22 -163 -286 0
80 261 330 0
192 -344 -442 0
-131 354 410 0
-146 231 446 0
197 383 412 0
-114 -300 393 0
181 311 312 0
91 97 -323 0
126 -242 -448 0
-77 -176 302 0
-85 222 -247 0
-172 -275 -431 0
72 -341 -380 0
101 254 428 0
49 -252 358 0
-290 377 449 0
146 340 -353 0
217 -308 -363 0
72 -74 -257 0
-2 169 236 0
54 260 -445 0
95 -167 325 0
124 248 -292 0
-12 -162 211 0
-154 256 328 0
56 78 273 0
-59 411 -418 0
223 392 -406 0
379 -389 -405 0
182 199 218 0
-118 250 -398 0
-268 323 394 0
87 255 338 0
-228 313 -336 0
135 -294 447 0
-4 73 -235 0
-57 365 428 0
11 36 254 0
-52 -118 -418 0
98 305 -361 0
107 400 415 0
14 -49 209 0
-170 -215 224 0
-223 325 -349 0
72 -237 309 0
8 -170 -313 0
27 109 -319 0
117 -205 340 0
-105 252 -353 0
140 -303 -439 0
116 248 -278 0
-29 260 305 0
-103 -165 -207 0
-97 167 -285 0
-384 393 -404 0
-30 63 -112 0
-202 -347 -419 0
232 269 276 0
-250 -271 -320 0
-87 134 -139 0
-145 -287 293 0
82 -150 278 0
-75 -154 -341 0
59 126 348 0
109 -268 433 0
-69 -303 -450 0
-151 -217 -261 0
-237 -398 -438 0
-185 230 -236 0
-51 -228 445 0
-86 155 276 0
-26 176 -401 0
30 85 194 0
272 434 -438 0
-9 104 -239 0
15 -109 -215 0
21 -135 325 0
-39 -218 -386 0
86 152 -359 0
-154 -305 -392 0
-79 -128 153 0
-53 -143 -394 0
82 102 198 0
137 348 -428 0
-181 186 230 0
150 265 315 0
-56 -99 173 0
-344 407 442 0
19 -349 -423 0
-44 -112 -300 0
302 -401 -440 0
207 -274 315 0
-33 381 -395 0
-18 339 421 0
-59 -201 -232 0
79 -171 217 0
-93 122 240 0
72 -328 446 0
105 -264 -391 0
-106 -136 366 0
9 174 -395 0
-37 -159 -427 0
112 -267 312 0
32 -53 -414 0
-226 -403 -421 0
-218 -303 -420 0
-91 -302 -318 0
-117 129 430 0
-138 -357 -373 0
101 276 349 0
-17 -38 403 0
17 -236 349 0
-125 -173 415 0
-68 270 -446 0
-112 228 -298 0
73 -168 -239 0
103 256 273 0
-2 326 334 0
88 -318 -442 0
-80 108 -450 0
223 329 439 0
-152 169 309 0
126 203 433 0
121 162 257 0
-87 -108 -394 0
-194 -386 444 0
72 163 297 0
-209 424 -438 0
-61 -365 -440 0
-290 413 -445 0
162 179 -444 0
199 256 390 0
191 -381 -447 0
-53 -210 312 0
76 117 -267 0
-311 -358 437 0
-117 174 304 0
178 364 -385 0
-142 -165 -260 0
-225 229 -403 0
-173 419 -445 0
80 264 -275 0
-174 -198 -303 0
69 158 360 0
32 42 59 0
54 62 418 0
110 276 280 0
-81 175 -191 0
-125 391 414 0
-11 179 272 0
-24 -80 449 0
33 -401 -406 0
78 -140 345 0
-74 -270 363 0
-11 206 -246 0
-32 -214 -276 0
-29 118 180 0
-266 -304 -417 0
2 -53 265 0
154 156 -423 0
88 -170 348 0
262 -266 411 0
-35 -82 -244 0
7 -272 -300 0
-188 -269 -327 0
-229 -338 450 0
-43 200 -311 0
348 403 -426 0
-103 -150 310 0
84 -166 410 0
-52 -95 -321 0
-170 304 -435 0
-199 -201 -427 0
-41 55 434 0
-139 388 -448 0
54 252 409 0
73 111 351 0
41 210 258 0
169 -319 427 0
-162 -233 -442 0
77 151 402 0
-195 -319 -416 0
-105 140 -355 0
-234 288 -318 0
321 343 -441 0
-148 191 440 0
20 -60 -131 0
-131 136 -200 0
32 -188 -192 0
103 289 -421 0
-20 211 -345 0
-31 55 -259 0
-40 -121 -429 0
-74 126 220 0
-139 165 346 0
178 189 316 0
124 286 -296 0
153 238 271 0
-75 -241 -326 0
-59 159 -443 0
65 96 359 0
-4 -266 287 0
51 108 371 0
-40 -254 440 0
128 149 -384 0
-45 -87 420 0
36 -269 441 0
94 -247 -329 0
-167 192 377 0
52 -96 -387 0
-59 229 351 0
150 -184 291 0
-75 -137 -167 0
13 103 437 0
291 -325 334 0
-73 -241 -413 0
-217 368 399 0
96 -140 -410 0
48 -59 326 0
-171 180 262 0
-240 -272 -380 0
39 -325 -423 0
102 -201 -304 0
23 -121 -242 0
48 -86 255 0
-111 114 -187 0
189 -204 421 0
-2 185 -390 0
-34 -55 96 0
10 -182 316 0
-157 244 -276 0
249 -269 -390 0
37 -61 191 0
126 -368 431 0
-12 71 342 0
-39 -123 -305 0
122 -248 -378 0
-86 107 -121 0
-289 348 349 0
102 -360 -406 0
70 -317 -321 0
-11 317 -368 0
237 315 -424 0
331 350 -416 0
-189 419 423 0
93 -414 -440 0
50 -98 -155 0
-203 -313 -424 0
28 114 259 0
116 -309 -392 0
116 -303 340 0
205 241 397 0
144 -324 333 0
-42 304 392 0
-135 376 392 0
89 -191 405 0
32 72 287 0
74 116 -377 0
-39 -116 -140 0
-193 269 -313 0
-271 -317 417 0
-76 -160 301 0
-165 323 449 0
-123 -285 419 0
71 72 390 0
-86 -184 -274 0
-200 -289 -365 0
-73 -167 434 0
52 198 276 0
26 -34 -261 0
46 -212 340 0
90 -383 405 0
-156 -157 216 0
10 85 -347 0
-69 104 -311 0
426 429 -432 0
46 -139 -149 0
142 244 249 0
10 -266 425 0
207 375 -404 0
-193 205 -302 0
280 292 319 0
13 -74 146 0
65 186 221 0
47 -364 -410 0
-5 174 442 0
92 234 -356 0
-92 424 -429 0
-20 -93 -329 0
-173 -208 340 0
-109 134 -345 0
-279 -283 -382 0
317 -324 381 0
119 134 243 0
-109 221 -296 0
310 387 430 0
-1 -72 -262 0
197 217 284 0
11 -42 161 0
-86 221 342 0
-125 -366 -400 0
-27 -50 -55 0
-28 -38 98 0
306 405 419 0
146 361 427 0
218 294 328 0
21 182 294 0
84 -150 171 0
105 -205 -295 0
112 187 -416 0
-256 -265 313 0
194 -354 -424 0
-152 -325 -428 0
-281 361 435 0
223 251 292 0
-78 -211 -250 0
73 -252 326 0
-267 403 428 0
41 278 -381 0
-6 -154 -178 0
43 117 -430 0
-58 74 -282 0
222 -246 -300 0
45 171 -266 0
-184 -196 -373 0
-54 393 -428 0
-25 47 107 0
134 -396 -438 0
-66 -219 434 0
-214 -350 -385 0
-190 282 -315 0
118 -300 -412 0
-285 -309 -314 0
136 -268 276 0
-50 -197 271 0
-190 208 337 0
12 -227 -232 0
126 208 -210 0
62 85 300 0
-111 279 428 0
-292 -312 377 0
-235 -389 419 0
38 344 436 0
42 -166 -224 0
49 259 -319 0
-196 260 341 0
-68 281 -341 0
-5 50 -314 0
83 -116 269 0
-215 258 418 0
129 -258 291 0
-227 -333 -445 0
104 117 118 0
-95 413 429 0
24 208 -306 0
-186 -218 -327 0
-129 218 -355 0
-14 -244 -257 0
368 440 447 0
-17 179 341 0
53 -217 446 0
35 -123 149 0
-87 -176 365 0
-344 -353 446 0
-89 111 -315 0
216 295 -345 0
-346 -356 -373 0
-149 278 -372 0
47 -64 -407 0
98 183 267 0
-141 -417 -449 0
-255 357 441 0
86 -91 -218 0
38 -43 -187 0
-4 30 392 0
165 283 -343 0
-19 -259 411 0
146 -160 -225 0
-95 325 444 0
90 229 297 0
-198 359 -443 0
83 -101 -393 0
127 -141 289 0
40 96 -329 0
-21 -327 -434 0
-173 -272 423 0
351 -365 -422 0
18 117 -258 0
44 129 307 0
-17 348 400 0
-157 -376 -417 0
-54 73 296 0
-125 211 379 0
211 -374 -385 0
41 164 270 0
15 49 -383 0
97 207 -259 0
-125 256 -265 0
55 -275 -307 0
-194 307 335 0
60 -150 417 0
124 284 -423 0
-278 -383 438 0
156 281 -416 0
10 137 264 0
144 224 401 0
262 370 -399 0
82 -317 370 0
10 328 441 0
53 -261 -366 0
209 -219 258 0
115 -256 423 0
47 -54 276 0
50 373 -385 0
47 107 -279 0
-67 236 336 0
271 286 306 0
-96 -276 -331 0
-73 -119 354 0
322 396 431 0
54 -285 443 0
-44 -111 421 0
-71 140 -156 0
-131 -352 -371 0
135 395 -406 0
-120 325 -343 0
12 -275 -308 0
192 -226 376 0
-213 240 257 0
-57 203 228 0
-25 123 278 0
-213 314 -342 0
-59 190 216 0
114 -171 -383 0
-16 -244 418 0
206 -329 433 0
-89 -184 208 0
-180 -194 318 0
35 -190 315 0
-60 92 426 0
24 186 -360 0
-21 93 -261 0
74 -125 -267 0
-19 -40 -398 0
-82 -90 -405 0
-4 -126 351 0
114 -178 -439 0
-5 136 -336 0
-52 267 -355 0
77 100 -148 0
-127 362 -405 0
275 420 435 0
36 235 407 0
-52 236 391 0
55 219 263 0
-79 -259 -303 0
-15 -20 138 0
12 -192 386 0
137 157 -270 0
130 300 -373 0
-85 -347 405 0
-172 282 -390 0
-84 212 -402 0
-222 261 288 0
-233 369 -447 0
41 173 305 0
-146 -181 -253 0
-108 -305 307 0
210 258 414 0
40 280 -305 0
-110 -263 322 0
149 363 -431 0
-74 -297 337 0
112 -164 -358 0
121 -167 -330 0
-141 -213 -375 0
119 -137 -266 0
344 345 -403 0
-51 297 -384 0
-121 -167 434 0
-32 125 -301 0
-43 -188 432 0
-132 286 378 0
-277 342 -439 0
396 420 -429 0
185 -217 -243 0
19 -65 -230 0
-79 224 -285 0
28 -104 -370 0
-137 223 -390 0
143 216 416 0
-257 393 -431 0
29 195 -355 0
-184 -287 -379 0
322 -378 -414 0
111 -256 349 0
-314 397 443 0
93 365 430 0
135 -336 428 0
-106 129 340 0
80 -265 -280 0
-19 257 -421 0
120 164 271 0
28 -283 -372 0
-161 188 211 0
-61 -231 -328 0
40 -59 -275 0
-270 -424 -438 0
-132 -233 388 0
-92 -126 -156 0
110 -170 185 0
-48 53 -404 0
-182 227 -396 0
-221 318 -450 0
-30 -124 -285 0
-68 -287 -348 0
-183 209 242 0
217 -234 411 0
-280 406 -408 0
1 -22 -350 0
85 425 447 0
-203 204 394 0
134 -157 -272 0
81 244 -269 0
-38 -91 -155 0
42 156 -441 0
172 270 -435 0
-89 -226 -246 0
-176 273 -317 0
261 306 -374 0
77 197 -254 0
-33 106 440 0
42 134 229 0
2 66 312 0
-86 -323 -337 0
-29 -235 -389 0
190 -224 -276 0
283 307 -318 0
-49 339 -417 0
69 231 283 0
121 -281 -290 0
-72 330 -390 0
-63 -160 -305 0
-149 331 -396 0
30 267 365 0
-80 346 385 0
-58 241 318 0
-6 17 85 0
19 -228 286 0
-125 -338 -448 0
-179 -236 386 0
50 142 -449 0
165 -176 391 0
195 -380 426 0
-2 95 435 0
-83 -319 -450 0
36 65 322 0
9 337 353 0
-39 -180 402 0
-228 -360 -372 0
-121 231 274 0
67 -270 -305 0
-160 259 -408 0
-206 -234 282 0
-30 -304 332 0
-208 226 428 0
-220 236 -252 0
-289 379 415 0
-38 -301 -376 0
-98 -141 -152 0
-274 286 -339 0
-36 261 -423 0
-137 -270 -307 0
7 -25 315 0
51 -177 293 0
91 296 361 0
34 196 441 0
93 -284 376 0
56 -389 406 0
155 -330 364 0
24 -79 401 0
-349 358 360 0
-78 -210 -221 0
118 144 -393 0
39 -264 412 0
-28 131 342 0
299 -348 450 0
-22 -171 -193 0
-233 286 449 0
-68 -155 268 0
274 -400 425 0
-71 126 -155 0
-12 -43 -151 0
-45 128 -279 0
-5 35 -141 0
-137 -393 417 0
-11 -333 -343 0
-63 -343 -356 0
20 -75 -248 0
54 -216 -343 0
58 -163 -255 0
163 -177 -419 0
-148 216 -278 0
-14 171 305 0
-43 -181 447 0
81 -303 -315 0
108 -257 -400 0
-101 -145 -315 0
39 -316 -423 0
-98 107 -211 0
-6 86 275 0
-11 -216 -233 0
160 259 -432 0
1 -241 393 0
83 166 -287 0
109 -333 -416 0
4 190 -232 0
26 230 -304 0
54 -363 377 0
-91 165 -206 0
-48 -84 -270 0
-44 -247 383 0
14 -79 -170 0
42 281 406 0
-77 81 -300 0
-406 -421 -435 0
-393 -406 -434 0
78 -167 -371 0
-169 -233 295 0
4 126 413 0
-78 -270 -343 0
-55 -213 -404 0
107 242 246 0
-180 -292 406 0
-291 -332 431 0
180 403 -436 0
-74 -134 -337 0
-76 -210 442 0
139 -163 -284 0
167 -234 -373 0
93 289 428 0
90 138 -145 0
-140 303 -383 0
153 227 -364 0
-189 -287 383 0
60 67 -306 0
96 -290 -358 0
-298 354 375 0
46 -191 329 0
-42 -311 316 0
323 372 432 0
-96 193 249 0
-128 -223 -282 0
-119 348 -402 0
-137 265 442 0
42 -172 -348 0
-65 122 -366 0
-127 -379 402 0
-67 -138 -264 0
-95 -149 -205 0
-72 362 447 0
-342 357 -418 0
-4 105 -391 0
-340 -375 428 0
-258 -381 416 0
118 132 -178 0
-125 -148 -276 0
-64 -405 416 0
-56 76 162 0
-99 148 415 0
-267 303 -328 0
165 -214 -395 0
-16 -82 405 0
39 -167 -325 0
-10 209 295 0
190 353 430 0
-138 180 -425 0
153 -161 -449 0
44 -57 -180 0
13 56 -434 0
-18 112 277 0
47 -375 401 0
88 137 303 0
-57 203 -441 0
94 -302 -374 0
302 -315 -422 0
-205 371 387 0
-29 265 -269 0
9 189 219 0
34 86 -133 0
-74 -116 -141 0
-221 -287 -346 0
-122 159 -314 0
-26 -307 -387 0
-90 98 435 0
157 -197 -435 0
-50 103 259 0
-105 -249 441 0
148 -277 297 0
-40 113 -434 0
28 87 -311 0
95 260 415 0
84 219 324 0
-307 -391 426 0
269 -409 437 0
19 -167 358 0
15 345 399 0
-17 135 406 0
-123 195 -425 0
-86 221 411 0
1 -201 413 0
-146 -361 427 0
-2 23 -112 0
222 -297 -417 0
-75 -104 -372 0
-72 -228 -442 0
33 -225 -227 0
35 264 291 0
119 -158 261 0
37 -280 399 0
-28 -156 188 0
79 129 179 0
6 136 -258 0
-60 -294 -365 0
-308 -317 -343 0
-82 173 -204 0
187 285 -306 0
337 -358 -438 0
384 -396 404 0
226 -287 -342 0
-21 -22 -312 0
-196 -245 316 0
-147 163 -393 0
223 361 398 0
-74 -205 395 0
170 214 -231 0
24 -323 -383 0
-133 227 243 0
186 -229 -239 0
305 324 -416 0
-63 141 368 0
297 -311 -445 0
-2 158 340 0
11 -128 393 0
-18 158 375 0
342 377 381 0
198 -343 402 0
113 229 -330 0
83 -298 440 0
41 306 371 0
-156 362 -442 0
-162 198 -254 0
-179 249 449 0
-8 -13 -365 0
-34 367 -393 0
-70 229 400 0
-303 307 -346 0
129 -260 -322 0
