p cnf 450 1917
-147 -183 -323 0
23 -147 -151 0
-97 -126 381 0
-99 -347 -421 0
-47 108 239 0
173 278 -372 0
63 -164 195 0
255 348 421 0
215 243 406 0
271 -355 427 0
-16 -330 352 0
215 -252 312 0
11 -34 -267 0
-63 -79 -250 0
-49 -272 439 0
-36 308 -351 0
-185 267 333 0
174 194 413 0
204 -294 431 0
-45 54 -246 0
-73 -202 329 0
-52 -251 445 0
123 211 230 0
122 -281 383 0
316 -369 436 0
263 310 351 0
-57 184 -312 0
42 -141 239 0
188 -303 354 0
-27 284 -449 0
4 -123 181 0
115 -188 -366 0
-130 -274 366 0
-151 259 -333 0
286 -403 -423 0
201 236 289 0
-129 337 -386 0
205 -247 347 0
122 264 -374 0
417 439 -443 0
-209 293 333 0
-25 432 436 0
-135 153 351 0
-27 305 -311 0
102 272 285 0
198 203 349 0
96 -252 314 0
-48 211 -242 0
144 165 211 0
45 -154 -320 0
-165 -326 -365 0
-184 295 346 0
-15 -319 413 0
-4 80 270 0
36 -347 382 0
-38 151 -224 0
-52 -181 238 0
126 392 -433 0
120 268 293 0
-186 373 408 0
222 -245 344 0
53 106 237 0
54 -189 390 0
-295 300 413 0
-81 -173 313 0
37 -122 -193 0
185 -258 -428 0
-152 381 411 0
-18 159 251 0
-95 108 147 0
-196 -383 388 0
-20 35 66 0
8 132 408 0
-246 326 444 0
96 -179 319 0
-142 -343 -446 0
80 302 358 0
313 -331 359 0
117 150 -440 0
317 355 370 0
-241 378 432 0
-172 -367 450 0
27 43 46 0
-181 -205 -436 0
-86 150 406 0
52 -372 447 0
63 246 356 0
-10 -334 -426 0
-107 169 -390 0
3 175 178 0
-96 231 344 0
-257 262 347 0
-24 103 346 0
22 309 429 0
-98 -120 -175 0
81 129 233 0
72 -333 -340 0
-205 -212 338 0
30 118 -282 0
-14 286 336 0
292 -407 433 0
108 169 421 0
6 -196 240 0
-76 137 164 0
205 327 353 0
-43 286 -417 0
-134 309 -385 0
34 -157 -418 0
-75 -168 442 0
-7 64 -314 0
-9 -109 215 0
101 -354 363 0
-226 269 328 0
41 213 246 0
21 179 341 0
-88 117 158 0
-259 -286 349 0
-201 -250 -366 0
-206 406 -450 0
178 220 -301 0
-92 147 212 0
-35 404 -422 0
131 362 -417 0
87 114 411 0
93 328 383 0
107 241 -265 0
-92 -107 305 0
-218 278 371 0
53 -205 -407 0
22 179 -344 0
-62 -135 137 0
103 -216 436 0
6 -44 -149 0
51 -409 -417 0
11 208 -345 0
-250 387 -437 0
-27 284 443 0
13 144 438 0
-53 117 -326 0
-152 -292 -341 0
25 -178 370 0
19 -130 404 0
45 -105 -408 0
-28 -98 -246 0
207 -337 393 0
-2 141 375 0
311 445 446 0
146 -367 -450 0
-64 87 -227 0
-149 270 -345 0
-65 -81 220 0
-56 -304 -344 0
-133 -167 418 0
81 -125 -391 0
104 171 -439 0
40 105 302 0
153 -437 -439 0
-147 -170 -406 0
-43 97 -250 0
-185 -263 -435 0
293 315 -439 0
53 -209 216 0
253 318 -352 0
115 -183 272 0
-63 75 447 0
-13 243 275 0
-36 -89 330 0
87 -335 407 0
-13 -351 -411 0
100 -314 -416 0
195 254 335 0
55 223 371 0
130 258 -424 0
184 316 387 0
-83 -131 -213 0
-8 -28 -267 0
18 -27 -118 0
-16 -299 365 0
-286 330 400 0
50 -190 -290 0
96 -155 -248 0
101 -267 304 0
-86 -322 -387 0
-198 -330 332 0
-322 -331 -417 0
-15 -176 -326 0
-99 131 211 0
-139 -335 -338 0
-153 -176 272 0
-269 340 -443 0
15 -98 175 0
119 196 346 0
103 430 -440 0
279 324 436 0
365 373 390 0
-65 -111 177 0
182 -298 -306 0
-235 -262 -311 0
-137 -331 421 0
97 118 -232 0
-160 281 301 0
50 -218 308 0
123 -155 223 0
31 73 341 0
-74 330 368 0
159 -355 -421 0
-128 152 -437 0
-34 -119 -135 0
154 289 -305 0
-43 189 206 0
-106 -203 -308 0
-39 238 -278 0
212 301 444 0
115 217 -360 0
-198 233 248 0
-224 -227 294 0
-1 120 -393 0
183 226 -276 0
-204 -347 415 0
206 277 440 0
171 -381 385 0
61 -64 -321 0
49 -228 -358 0
-143 231 390 0
-57 -248 -433 0
156 -163 234 0
322 374 -399 0
95 -104 -219 0
-120 197 275 0
98 180 -430 0
94 125 -326 0
-66 -96 417 0
5 -78 -439 0
218 258 336 0
-28 47 -139 0
79 86 418 0
83 236 -332 0
-58 -193 299 0
-1 -10 -200 0
-125 -361 450 0
-110 393 421 0
63 79 322 0
-191 225 280 0
75 164 -424 0
350 361 420 0
-248 310 382 0
62 -124 159 0
35 150 269 0
79 253 -289 0
6 232 -273 0
41 -111 190 0
99 -180 -438 0
102 164 228 0
-110 -134 -200 0
-128 291 -405 0
-59 101 395 0
20 -76 -382 0
61 174 -362 0
227 273 -369 0
60 283 -424 0
152 277 325 0
18 288 366 0
-125 -205 252 0
87 106 -202 0
-130 -186 412 0
-35 274 -339 0
-102 184 333 0
178 -284 309 0
-105 -170 -198 0
-108 -247 -315 0
33 200 444 0
28 54 318 0
5 -244 -430 0
205 -333 -382 0
52 -209 -351 0
-131 283 390 0
-200 242 -289 0
-64 221 370 0
187 350 390 0
105 290 -363 0
364 390 -401 0
122 295 -428 0
-77 231 434 0
-157 158 -420 0
31 49 294 0
-27 106 -321 0
-48 -167 -320 0
-17 -85 443 0
-1 27 89 0
295 -362 -379 0
32 72 342 0
148 -199 352 0
5 -39 344 0
111 -124 -389 0
-166 -191 311 0
17 324 -408 0
39 -269 -395 0
-12 149 -376 0
104 130 302 0
-7 -97 203 0
39 -242 276 0
-250 -320 -395 0
149 161 -440 0
-122 -156 389 0
21 368 -408 0
218 220 -260 0
24 -68 227 0
142 -170 292 0
13 75 -142 0
28 197 -317 0
85 -306 -406 0
-31 156 -279 0
-13 -261 -346 0
80 -238 400 0
260 -322 -447 0
-172 -192 373 0
-281 -384 -406 0
-121 -152 192 0
-267 -297 362 0
93 -131 273 0
-194 299 -442 0
328 351 445 0
-81 -118 418 0
257 -258 441 0
-181 -196 339 0
-14 40 133 0
-141 -307 -418 0
148 200 -243 0
-6 277 -422 0
340 -344 -371 0
32 -168 384 0
-135 181 182 0
243 -336 433 0
129 -294 -439 0
-198 216 345 0
210 241 279 0
-121 -246 -254 0
2 38 -367 0
-57 145 391 0
-261 384 402 0
-152 225 330 0
-207 281 376 0
-109 -253 317 0
-23 52 68 0
-27 64 171 0
2 132 214 0
77 -230 -304 0
-104 -159 -376 0
-44 -171 366 0
8 187 -338 0
-95 220 222 0
51 -294 -361 0
-247 318 336 0
-152 309 406 0
-36 112 347 0
-153 -242 324 0
75 -120 -267 0
147 -294 419 0
-412 -429 443 0
79 376 -431 0
-30 124 188 0
-12 86 -220 0
-5 -121 -145 0
161 -231 255 0
116 -118 -408 0
-260 -303 438 0
-165 210 -343 0
136 207 -275 0
53 -129 -312 0
116 248 387 0
-50 -241 243 0
64 258 287 0
-105 285 346 0
-129 206 448 0
156 258 -433 0
-37 105 -117 0
25 -144 186 0
-19 -133 -308 0
33 166 -374 0
-121 368 406 0
-79 -228 307 0
21 72 418 0
-157 -227 -281 0
-281 285 -430 0
-63 86 -256 0
-233 285 437 0
-105 -126 -171 0
158 -219 -283 0
-30 -183 -333 0
136 -189 367 0
179 -326 331 0
250 304 386 0
-128 -331 -443 0
-191 -320 377 0
-53 166 281 0
-30 -87 -403 0
88 -157 -183 0
-162 -283 -349 0
88 -256 396 0
-228 422 449 0
-108 -139 -379 0
-277 -293 -428 0
307 -363 413 0
-94 345 -350 0
-158 252 312 0
-163 168 -204 0
-18 59 -219 0
104 315 439 0
-201 -329 360 0
210 -226 297 0
133 -167 -250 0
6 121 130 0
16 -267 361 0
-74 -401 434 0
73 105 -380 0
-75 96 303 0
143 -309 -351 0
-37 -291 -394 0
9 -342 -364 0
125 382 -395 0
-7 -385 386 0
-77 174 -411 0
-72 -217 434 0
126 360 -385 0
-122 -218 -421 0
-226 250 435 0
30 112 190 0
72 -87 199 0
-326 -384 440 0
-165 -178 304 0
-198 236 -279 0
-150 195 397 0
4 -94 -152 0
196 -423 446 0
50 -389 445 0
122 -312 352 0
14 -42 -63 0
-49 -283 367 0
-63 209 249 0
95 379 383 0
-318 336 405 0
-55 63 149 0
-149 185 355 0
1 200 307 0
187 233 -282 0
78 318 -410 0
14 -71 -358 0
-37 40 -310 0
96 98 -322 0
-70 212 -371 0
-154 375 422 0
37 -176 -280 0
-10 -19 -242 0
-48 69 -72 0
-25 -173 -282 0
-62 -92 -429 0
-234 -236 267 0
-12 -29 338 0
21 315 359 0
118 -134 -198 0
-89 252 266 0
-75 -272 -413 0
13 105 223 0
-150 279 285 0
-234 -341 -430 0
-91 283 376 0
65 99 208 0
45 80 -279 0
76 287 -393 0
-21 130 203 0
239 313 -340 0
-219 -268 -340 0
63 -339 -442 0
137 -173 356 0
-283 331 334 0
22 -101 343 0
55 -188 404 0
-128 -400 -406 0
-32 298 -370 0
30 103 -192 0
62 -88 355 0
-10 -143 376 0
65 328 -364 0
-266 -362 387 0
-81 108 -145 0
-153 -216 373 0
-277 -384 396 0
64 -271 297 0
119 -229 346 0
-23 -263 420 0
233 -322 342 0
180 -214 -243 0
284 417 -428 0
-207 -273 -390 0
33 -375 -380 0
-171 -209 232 0
46 -91 -131 0
40 184 -198 0
57 -90 230 0
231 384 -430 0
-181 -239 405 0
168 251 296 0
-16 226 -373 0
-29 67 439 0
-2 -340 373 0
-49 204 -290 0
25 155 321 0
-171 206 -364 0
154 342 -382 0
205 312 -422 0
-329 371 -375 0
-128 -307 376 0
-264 -302 328 0
-9 -64 -317 0
98 -100 -315 0
-172 222 332 0
-10 -413 430 0
10 -208 -367 0
-65 -254 433 0
20 62 -172 0
-13 -84 -413 0
96 295 388 0
-171 201 387 0
133 158 -277 0
-279 -285 350 0
-20 267 444 0
2 206 432 0
-95 -318 411 0
-21 93 270 0
-56 -282 314 0
216 284 -445 0
111 -300 -330 0
-19 87 423 0
108 -210 216 0
-91 129 432 0
-268 370 -427 0
-193 -255 388 0
-20 -98 -142 0
268 315 -326 0
250 -290 -402 0
35 350 -382 0
141 260 -299 0
-74 156 265 0
285 315 -450 0
-8 -343 -390 0
-42 143 249 0
-90 -116 278 0
-23 193 -222 0
9 88 -224 0
-39 130 163 0
217 -228 362 0
99 327 364 0
10 44 432 0
-71 -156 -399 0
320 -398 -407 0
51 -149 -448 0
-181 207 -300 0
-78 -117 -396 0
-258 358 -386 0
66 115 182 0
43 246 397 0
328 -342 428 0
30 -94 -265 0
51 112 -143 0
-186 -430 -449 0
-14 33 -309 0
27 -161 -394 0
-173 -240 405 0
149 -324 366 0
-99 -218 271 0
108 -149 173 0
-62 -94 371 0
236 -302 426 0
-92 105 -408 0
137 -181 -447 0
4 -60 -184 0
11 -63 -387 0
-225 -387 -396 0
47 135 -401 0
64 88 225 0
-50 159 442 0
-59 -115 371 0
296 -359 367 0
187 239 -324 0
180 -224 -294 0
116 -206 -359 0
-145 -266 -448 0
-114 -145 -306 0
33 42 -117 0
-95 -262 366 0
208 -247 -261 0
-30 52 54 0
-228 236 334 0
353 -359 376 0
167 -210 295 0
-75 148 -379 0
5 -133 -441 0
12 53 285 0
40 91 241 0
-119 178 301 0
7 -68 -420 0
40 272 416 0
68 241 340 0
34 144 220 0
271 311 -373 0
-39 -161 196 0
-16 -95 -314 0
-303 381 -396 0
37 130 -178 0
334 -364 -398 0
231 365 432 0
-5 -236 -405 0
-2 -120 195 0
-174 -311 -397 0
-46 -114 -167 0
-100 119 -248 0
117 246 -320 0
9 131 389 0
42 238 -281 0
-220 341 -420 0
82 127 440 0
-19 37 -288 0
78 -140 -418 0
-143 287 405 0
-75 218 274 0
-108 -190 378 0
22 25 -447 0
-50 167 168 0
-27 103 -356 0
193 283 -404 0
-43 201 405 0
145 -249 300 0
-23 -40 217 0
41 76 333 0
-205 -262 286 0
-3 41 -336 0
6 7 -289 0
-86 268 425 0
67 199 233 0
-97 101 -153 0
89 -144 175 0
168 -378 409 0
25 87 96 0
7 -28 -345 0
72 159 -430 0
-65 362 -390 0
-119 -219 -255 0
-81 85 -110 0
-18 88 -146 0
102 373 -417 0
29 -388 447 0
7 -230 239 0
17 -65 -307 0
-202 310 344 0
-61 -129 151 0
-7 -156 -329 0
7 -172 -443 0
151 281 362 0
109 333 443 0
-134 -392 417 0
-255 308 322 0
277 -298 -315 0
71 391 396 0
239 298 449 0
-14 -329 -375 0
50 302 -320 0
-61 67 -287 0
-39 112 350 0
85 -105 -428 0
-95 -226 449 0
50 80 -145 0
-293 -305 -403 0
-29 48 339 0
91 -116 -233 0
-57 -183 429 0
-129 363 401 0
-275 320 -436 0
-41 131 -139 0
51 257 404 0
-16 272 -431 0
67 -71 -156 0
65 -182 -449 0
90 228 -387 0
148 -200 -214 0
364 427 -437 0
-204 248 -278 0
10 334 -442 0
210 211 326 0
139 -346 -439 0
361 -398 433 0
51 313 424 0
-94 -230 332 0
76 101 -188 0
157 183 -425 0
-16 -88 -308 0
-26 -76 433 0
185 334 406 0
-59 203 -432 0
-10 -218 271 0
-150 328 379 0
-299 421 446 0
66 295 424 0
326 367 -433 0
-80 161 285 0
-105 112 -149 0
92 -293 -411 0
117 121 127 0
-274 392 441 0
234 -242 277 0
-142 348 430 0
60 281 324 0
195 -290 401 0
33 -81 392 0
-7 25 197 0
42 126 254 0
-157 -198 203 0
-87 -118 -283 0
-90 371 -433 0
-155 221 -222 0
3 -55 394 0
272 360 439 0
-160 -248 -379 0
-121 -183 427 0
102 135 142 0
-368 -415 -432 0
36 -74 -272 0
-112 127 312 0
-115 173 449 0
33 -149 -226 0
48 213 -318 0
-75 -147 441 0
329 381 -398 0
-124 355 372 0
-89 351 433 0
226 -326 380 0
11 -268 -274 0
-45 140 439 0
71 126 -304 0
-27 328 436 0
96 -283 288 0
114 240 355 0
-134 -398 -418 0
-36 -371 -427 0
-4 302 431 0
-84 203 309 0
62 135 204 0
-160 166 -391 0
-184 243 -330 0
174 176 242 0
92 165 351 0
361 368 -372 0
-157 -164 261 0
-72 117 283 0
-68 233 306 0
39 45 -284 0
-114 -205 -445 0
-285 365 371 0
-349 -373 401 0
80 -211 -216 0
32 -72 -331 0
243 -246 -388 0
-1 204 217 0
-111 -135 176 0
-11 -57 -190 0
-8 -81 422 0
39 170 181 0
24 -171 379 0
34 290 437 0
-167 263 440 0
-93 -297 -404 0
-190 230 350 0
258 -397 -418 0
16 116 -149 0
91 -192 399 0
92 359 -394 0
40 -184 239 0
44 -230 394 0
64 -172 -291 0
-50 -82 -390 0
-69 422 432 0
20 -79 92 0
-37 -181 -426 0
11 71 -98 0
10 -222 -323 0
-122 -349 -378 0
243 251 -255 0
119 149 350 0
-187 -342 407 0
-3 54 392 0
-229 -283 436 0
126 -321 397 0
-62 212 428 0
-39 -253 276 0
98 368 -409 0
-353 -357 386 0
-147 241 -281 0
-113 231 -270 0
14 64 394 0
-36 144 209 0
77 -291 432 0
-123 329 -437 0
-197 217 226 0
-70 90 396 0
221 300 414 0
103 -249 328 0
-103 -273 445 0
98 -156 -438 0
102 -183 296 0
-32 370 381 0
-120 -387 -446 0
-137 226 -439 0
215 -330 -346 0
-58 -166 381 0
36 -66 227 0
-42 -49 -74 0
-39 197 395 0
-115 -164 340 0
131 155 175 0
-262 323 -384 0
327 -336 381 0
-183 184 -335 0
175 -280 294 0
-52 -157 272 0
104 -139 153 0
-103 178 263 0
62 -130 151 0
-204 -323 -417 0
72 -226 -436 0
206 -346 -411 0
39 -230 -391 0
149 291 387 0
-50 -147 -263 0
-213 271 -320 0
-190 -281 447 0
-236 -392 444 0
-36 203 -398 0
77 -102 368 0
-156 -214 -416 0
-19 218 226 0
208 -326 352 0
-121 325 419 0
358 -368 -430 0
56 -179 357 0
127 232 440 0
-52 59 60 0
9 -241 254 0
64 154 324 0
-222 -249 -270 0
-334 -375 -423 0
41 -118 254 0
-242 -374 420 0
-23 -301 426 0
82 -207 318 0
88 -207 414 0
-33 -176 408 0
-357 363 443 0
116 -134 -426 0
104 265 -364 0
-287 336 -374 0
-76 -296 -427 0
18 277 -390 0
235 302 -397 0
-149 -241 -341 0
-66 148 324 0
95 -314 -392 0
164 206 227 0
-208 -354 377 0
83 249 -442 0
-41 211 -311 0
-109 -238 -314 0
-129 -245 -257 0
-16 -18 -211 0
-182 -200 -285 0
178 395 426 0
-34 -47 423 0
-8 199 304 0
-192 264 -285 0
182 -217 -426 0
-79 -167 -368 0
131 -353 388 0
28 71 -147 0
-69 -391 -437 0
-75 254 382 0
-77 -95 190 0
191 -362 -445 0
-80 -207 -362 0
134 272 387 0
239 -352 -428 0
-124 301 305 0
33 -251 314 0
54 229 333 0
-232 -275 -307 0
-157 391 -425 0
-198 -208 415 0
318 -352 -436 0
20 68 -396 0
92 157 400 0
34 -205 280 0
313 -329 339 0
-179 -233 -407 0
147 -159 -348 0
-53 -135 -375 0
-138 257 -364 0
-111 -352 -428 0
-235 401 422 0
-240 248 432 0
2 -256 -336 0
29 -45 -123 0
-42 -95 413 0
-50 -80 -172 0
91 -142 -217 0
-64 -292 336 0
12 316 -418 0
-11 -372 400 0
322 -335 346 0
6 -12 -75 0
141 -270 396 0
69 -120 -173 0
-320 -337 373 0
-216 337 444 0
176 414 438 0
-65 289 308 0
-140 -165 350 0
-171 -202 -428 0
-105 151 -191 0
-26 225 233 0
-270 360 420 0
-92 105 -281 0
-62 -287 -441 0
-138 -203 445 0
92 -152 166 0
-25 74 119 0
11 -176 -229 0
-82 -151 359 0
-11 -209 -346 0
-52 -141 354 0
71 -177 -369 0
-63 -220 -285 0
-44 157 271 0
3 372 -409 0
133 232 -282 0
111 -118 -180 0
-25 89 -393 0
146 321 428 0
63 264 274 0
-122 285 384 0
-108 -319 -332 0
-105 -113 -227 0
103 -243 -418 0
190 201 -260 0
52 -356 -421 0
60 206 -224 0
17 -25 -267 0
-143 -316 -336 0
-56 85 168 0
96 405 449 0
100 -162 -370 0
-57 -220 295 0
39 -152 207 0
2 229 -385 0
128 134 228 0
-1 -125 429 0
331 388 -399 0
-248 285 354 0
147 273 -353 0
86 113 -138 0
-153 294 -355 0
42 -270 290 0
36 -95 -187 0
237 -303 -333 0
-163 321 392 0
193 297 -394 0
141 -163 240 0
-160 -315 -336 0
18 -133 326 0
-137 164 -294 0
96 -304 382 0
82 117 -318 0
66 71 -349 0
327 337 -401 0
-94 351 -440 0
322 -330 -437 0
102 -213 -372 0
206 -297 370 0
-187 212 -357 0
214 315 -395 0
63 191 204 0
-35 -234 382 0
-289 383 -416 0
-6 25 160 0
-8 -89 -256 0
255 -411 418 0
-176 -324 -434 0
54 -110 244 0
20 58 -353 0
-14 -411 442 0
-47 236 362 0
230 247 436 0
-132 253 417 0
39 -176 -389 0
170 -387 419 0
167 -238 -243 0
37 266 -318 0
182 313 388 0
81 192 -359 0
105 -318 379 0
108 330 -435 0
-118 -353 379 0
-131 -183 429 0
84 -130 150 0
-105 317 408 0
114 -198 -255 0
-20 57 -360 0
-10 -253 259 0
-147 -311 -396 0
-62 269 -301 0
50 82 154 0
287 -343 -360 0
28 -333 448 0
66 -237 -440 0
178 -402 446 0
189 305 395 0
-93 -186 366 0
98 -188 -449 0
-1 -206 -417 0
278 393 442 0
-122 296 -309 0
262 328 353 0
-5 -144 -388 0
-97 306 423 0
-251 -261 394 0
76 232 -277 0
16 230 253 0
-16 -145 -266 0
15 -121 -308 0
124 -163 270 0
23 45 -399 0
-304 392 -406 0
34 314 449 0
26 -120 -440 0
-183 427 448 0
10 -138 428 0
166 218 -362 0
-37 186 396 0
29 96 -355 0
122 325 422 0
-114 -175 265 0
34 -93 -205 0
99 296 -438 0
-104 159 340 0
-344 -345 383 0
15 -350 -351 0
92 111 443 0
-92 -216 -361 0
144 175 213 0
-54 98 104 0
66 305 -388 0
-52 -283 353 0
47 269 -351 0
-51 -196 -332 0
37 -139 336 0
-6 210 -310 0
45 -135 -384 0
-149 257 -353 0
-79 123 332 0
169 365 -440 0
-5 28 -130 0
-185 258 264 0
222 -277 282 0
100 -105 -255 0
-72 194 293 0
-50 -67 340 0
-78 154 -192 0
46 195 233 0
-21 254 398 0
135 -141 302 0
-154 -256 -284 0
140 203 -429 0
-86 -130 -401 0
-60 -64 -326 0
4 -212 -395 0
189 -278 347 0
-172 259 -329 0
86 -115 -371 0
-33 -102 244 0
-2 -81 98 0
96 -202 -350 0
-191 -234 404 0
87 309 -318 0
11 -238 316 0
145 -229 -356 0
-92 295 -313 0
-195 203 308 0
150 225 -267 0
-42 -191 -269 0
-139 -209 -306 0
29 -144 -316 0
-59 -266 -449 0
-167 263 361 0
-61 -222 359 0
34 -217 -420 0
69 -264 -408 0
295 296 -440 0
318 -351 393 0
69 164 -445 0
-7 -71 440 0
8 200 354 0
-302 359 422 0
1 -245 -349 0
124 154 -450 0
-183 264 275 0
134 149 -228 0
-115 195 -399 0
120 -222 -356 0
-190 -216 222 0
-98 240 -282 0
-257 310 -406 0
106 124 -217 0
171 231 390 0
123 185 331 0
93 159 408 0
22 157 -179 0
258 -274 -279 0
27 -274 332 0
-46 -72 367 0
-5 235 281 0
-31 -220 435 0
-185 316 331 0
-105 -169 193 0
-44 61 385 0
-239 316 -364 0
139 343 -345 0
-155 277 342 0
-10 -339 -417 0
-8 -29 -133 0
140 172 242 0
-179 -308 331 0
117 -153 197 0
-6 -58 386 0
15 -154 -231 0
-164 -326 -421 0
-94 -110 -380 0
-52 -73 211 0
335 383 -390 0
173 333 -439 0
-45 235 -449 0
-27 -35 75 0
120 168 -197 0
-372 -412 -421 0
54 -69 204 0
-104 -191 -396 0
-179 -239 -403 0
-47 -135 -166 0
224 -286 338 0
98 -207 263 0
-33 -316 390 0
-346 -387 -392 0
-82 -269 -339 0
-84 -136 149 0
-313 -423 437 0
25 -151 -246 0
140 -158 -194 0
-133 -257 -377 0
-25 124 -181 0
95 176 383 0
-6 89 376 0
-64 -387 -449 0
-76 -121 172 0
256 316 -404 0
281 285 -342 0
-41 250 292 0
-139 161 424 0
293 314 -405 0
-15 241 -448 0
-173 -388 426 0
77 291 -374 0
-310 -327 -443 0
-163 -249 -315 0
261 425 431 0
-208 274 -408 0
-88 134 214 0
109 127 -230 0
65 -72 312 0
1 -252 334 0
107 -244 -337 0
-238 246 277 0
-10 28 -383 0
-164 -326 -410 0
-300 -304 -350 0
84 181 441 0
175 225 -397 0
-21 -113 -344 0
-106 285 -416 0
-154 234 300 0
-44 -79 -388 0
-17 248 261 0
-250 392 -398 0
65 97 198 0
-333 -348 441 0
-18 141 -198 0
-171 311 405 0
102 -121 -301 0
88 -266 422 0
-59 137 334 0
197 -212 -254 0
96 296 393 0
213 259 428 0
69 94 245 0
13 -104 -247 0
312 -329 388 0
-40 217 324 0
-142 231 -237 0
47 -179 -446 0
178 -264 444 0
16 25 -378 0
-4 219 -253 0
-28 402 -438 0
8 -124 -167 0
68 149 -375 0
98 137 -321 0
123 -392 434 0
243 -315 367 0
-281 353 -438 0
-66 -117 327 0
196 -327 332 0
30 131 198 0
58 -392 -412 0
-12 49 243 0
-2 -61 63 0
-106 259 310 0
42 -159 -291 0
-46 -80 419 0
-188 288 427 0
-147 324 364 0
-194 256 417 0
-103 -307 336 0
6 -37 -168 0
-107 -304 -395 0
-51 -317 -410 0
-117 -345 357 0
132 -220 -409 0
127 -202 392 0
24 -198 -245 0
-155 -184 381 0
111 -287 352 0
10 -352 -429 0
-13 158 -412 0
33 -258 336 0
94 257 446 0
-33 167 184 0
-15 -253 310 0
99 103 -448 0
-188 189 236 0
169 176 -234 0
-114 -232 -436 0
-51 159 227 0
17 168 -253 0
6 46 403 0
-8 134 -197 0
67 -293 397 0
273 -287 -382 0
97 217 -310 0
237 -326 -424 0
-189 -343 -420 0
-60 -401 -438 0
-171 251 361 0
260 267 -305 0
14 164 366 0
-53 73 94 0
-31 -81 450 0
-173 200 -294 0
-27 200 -218 0
-56 -425 448 0
14 -16 -328 0
170 -222 268 0
-75 -226 365 0
64 -91 -390 0
181 -419 -424 0
-119 -161 411 0
168 324 -428 0
69 77 387 0
-2 -6 -71 0
81 191 -403 0
-71 82 243 0
-60 85 296 0
69 -240 -338 0
130 -135 -341 0
-38 -175 309 0
194 -248 277 0
-55 263 -392 0
-54 -243 433 0
-23 36 -175 0
-318 -346 -381 0
79 219 -286 0
-220 -231 307 0
-7 -259 333 0
-154 -380 416 0
-129 -305 409 0
-193 -223 -259 0
-137 169 403 0
21 190 327 0
-108 245 -361 0
-75 -388 -422 0
-200 -252 379 0
-13 -248 431 0
42 279 421 0
-207 287 -304 0
104 261 411 0
193 216 269 0
-127 -283 -375 0
235 -252 390 0
-97 -168 236 0
-185 230 361 0
-138 -334 -444 0
194 -374 -436 0
-160 -318 -347 0
5 -326 437 0
66 -260 -429 0
26 79 229 0
114 -296 401 0
91 -172 -233 0
62 100 363 0
-224 -270 -357 0
-39 -46 -112 0
170 336 -403 0
-113 217 338 0
22 -186 203 0
-168 298 324 0
17 173 396 0
-92 -153 -195 0
67 -91 -291 0
98 308 -409 0
-71 155 -370 0
25 99 -300 0
23 -408 434 0
28 -225 -440 0
230 276 437 0
-34 -84 -222 0
306 -307 340 0
-73 79 -153 0
137 -255 377 0
-135 206 -315 0
260 -299 380 0
23 -180 281 0
115 241 278 0
159 191 373 0
-6 33 176 0
-160 241 287 0
144 -263 344 0
81 -133 -229 0
90 -174 420 0
205 227 -247 0
67 188 -290 0
-218 -225 430 0
-103 -165 270 0
182 231 -442 0
88 -318 403 0
142 159 -173 0
88 -143 404 0
151 -281 -399 0
188 220 -316 0
-4 108 112 0
181 371 372 0
-166 -366 -410 0
29 -255 -267 0
1 18 -33 0
4 178 -390 0
-271 303 324 0
14 -183 -401 0
106 149 358 0
-171 285 362 0
-93 276 -389 0
-200 -368 -438 0
103 -232 379 0
79 143 150 0
149 362 389 0
54 261 350 0
233 314 320 0
273 322 426 0
207 243 -395 0
-13 -20 -137 0
-81 245 288 0
-78 171 -370 0
-300 -327 -336 0
-68 -231 448 0
11 -183 -232 0
236 -359 423 0
-267 -308 -340 0
104 248 -270 0
90 -121 -198 0
-2 33 -408 0
-109 147 399 0
321 -382 -418 0
112 -390 424 0
-263 279 281 0
-137 145 -279 0
-8 -13 -371 0
264 296 408 0
142 177 -306 0
-6 101 280 0
177 -200 -437 0
-52 -80 102 0
11 65 142 0
-40 -243 -307 0
55 146 -428 0
239 -271 -413 0
-16 -296 316 0
140 175 -322 0
-258 -279 -385 0
-177 251 -351 0
-29 370 448 0
45 -80 106 0
150 -249 -339 0
44 -142 -358 0
92 -212 423 0
86 -219 238 0
-79 204 214 0
161 265 383 0
144 153 408 0
-223 -239 -289 0
76 -240 253 0
-13 160 -171 0
-60 -358 447 0
214 -267 -436 0
19 45 -292 0
96 210 412 0
16 81 125 0
-14 -369 417 0
122 366 -383 0
211 213 424 0
-258 -337 -439 0
156 200 -355 0
85 -86 -405 0
-140 -203 -385 0
-108 -285 -373 0
-179 -211 340 0
188 235 -362 0
-176 374 -444 0
129 330 388 0
-120 -188 255 0
-97 246 270 0
-332 359 435 0
257 268 -410 0
117 -139 -161 0
30 246 -313 0
221 247 273 0
-187 393 395 0
-3 324 -439 0
-19 -128 -341 0
42 -46 325 0
74 -119 289 0
-361 380 -408 0
90 -131 146 0
160 275 -340 0
-136 -269 -388 0
177 -188 -247 0
24 143 261 0
41 390 406 0
-68 181 404 0
-200 -280 -368 0
-149 -279 443 0
-67 -115 -334 0
-230 346 -397 0
11 -288 -397 0
-240 -342 382 0
61 405 -418 0
9 -67 -163 0
-69 -238 -260 0
-3 -53 -381 0
-46 -92 -344 0
57 62 133 0
-99 -353 362 0
-399 428 450 0
-198 412 414 0
-261 -282 310 0
-153 -161 324 0
20 -84 -315 0
-51 -80 336 0
91 -107 -303 0
145 297 -429 0
241 -370 372 0
-1 215 418 0
56 -383 401 0
133 247 401 0
-9 84 -202 0
125 286 -436 0
138 282 428 0
175 -347 -368 0
75 -125 439 0
-175 -217 -350 0
-102 270 428 0
-201 237 374 0
-245 -319 -448 0
-59 343 -426 0
180 -304 356 0
-88 286 438 0
-73 -97 218 0
-94 -135 -291 0
-111 152 338 0
-88 -384 -432 0
3 -45 -106 0
54 -105 -311 0
-1 -241 368 0
205 -264 -412 0
-372 -423 441 0
-84 119 -433 0
254 290 382 0
29 -236 426 0
-181 234 389 0
105 -371 406 0
-360 396 -413 0
-9 -125 -198 0
314 321 432 0
-6 -54 -234 0
122 349 -373 0
133 190 -364 0
-60 -164 -251 0
-50 -57 -104 0
149 -172 214 0
255 330 410 0
123 152 360 0
-22 64 -243 0
-33 276 -388 0
-67 72 148 0
236 -271 -366 0
94 -185 -205 0
-85 187 -203 0
-172 192 -367 0
380 -409 410 0
194 -289 -298 0
29 -82 340 0
-22 136 -173 0
-121 239 -385 0
86 -174 378 0
113 -137 343 0
-104 -174 -414 0
-122 231 -280 0
-60 -135 359 0
301 -308 -394 0
-12 -130 -405 0
-61 -117 -321 0
-10 -300 317 0
-290 -397 407 0
-70 -131 367 0
-146 249 425 0
-47 -48 -187 0
280 309 352 0
-107 -329 -404 0
81 -218 -396 0
-101 -298 400 0
105 -336 -341 0
-203 -258 358 0
-257 -298 446 0
84 264 292 0
-43 -59 323 0
159 -362 -407 0
-257 -320 422 0
180 262 282 0
118 -173 -228 0
-88 91 117 0
-20 -265 376 0
12 -337 -338 0
160 279 362 0
83 301 351 0
143 -218 -356 0
319 371 377 0
30 -80 338 0
-90 -186 314 0
-174 318 -436 0
-287 400 -441 0
298 351 424 0
-16 -45 326 0
-29 331 -403 0
-35 244 385 0
-242 -345 404 0
-307 353 425 0
235 -365 -396 0
382 388 -407 0
-250 265 340 0
-136 246 251 0
-276 278 424 0
7 52 -441 0
-100 160 184 0
-198 396 -400 0
124 -132 283 0
-171 -269 302 0
227 -355 -373 0
144 -194 347 0
6 -118 200 0
238 266 -298 0
210 -220 -227 0
-139 308 -402 0
-173 229 -307 0
85 151 300 0
-11 -56 -156 0
130 251 -392 0
21 -362 -377 0
-280 400 418 0
-64 -421 450 0
-160 -219 -362 0
-70 -138 168 0
-57 175 430 0
-17 -418 437 0
44 -93 352 0
-206 282 368 0
-230 -265 -366 0
-39 -142 -431 0
-29 -229 346 0
15 -130 -328 0
52 -190 -441 0
308 355 -434 0
-81 253 -269 0
-33 219 255 0
113 -329 359 0
-19 -250 323 0
8 -85 397 0
85 -199 -336 0
37 420 427 0
-175 235 -356 0
-7 46 -256 0
-51 194 -348 0
12 195 436 0
37 80 -253 0
-258 -323 -377 0
56 -200 212 0
-336 -363 401 0
8 10 432 0
43 153 244 0
62 -158 446 0
-153 -241 306 0
77 137 -394 0
-192 -347 -351 0
-108 112 -375 0
-119 -424 -429 0
-71 247 370 0
117 -398 -433 0
46 75 -190 0
271 -323 -364 0
-165 -289 371 0
90 -102 178 0
33 -142 -387 0
-31 38 134 0
-283 -336 412 0
51 134 -284 0
301 303 335 0
51 74 153 0
91 178 406 0
128 -362 404 0
43 -116 249 0
161 288 -447 0
-59 -243 -349 0
-137 -182 -248 0
-384 401 415 0
-59 137 410 0
17 -361 -418 0
-71 -265 -383 0
-238 309 357 0
223 376 416 0
-146 249 304 0
263 -310 315 0
227 -346 443 0
67 224 339 0
-60 -106 -426 0
86 229 448 0
-37 -135 -245 0
-43 170 -259 0
-96 291 318 0
250 -292 -326 0
-113 -331 340 0
49 252 429 0
149 171 181 0
54 -390 -403 0
-150 160 371 0
-38 -395 -433 0
-88 287 -301 0
3 143 -243 0
-251 -286 310 0
46 -258 298 0
-1 -92 373 0
141 242 405 0
9 -81 286 0
-1 353 431 0
-72 -351 408 0
-17 254 -376 0
-236 263 447 0
194 -253 332 0
-12 -219 261 0
323 -337 -423 0
-49 274 286 0
74 131 219 0
79 233 417 0
29 71 224 0
-126 349 389 0
-20 233 434 0
49 55 -101 0
-47 -98 -170 0
-170 301 -405 0
-18 -184 -368 0
-230 -327 370 0
-49 322 442 0
-27 -38 -269 0
90 93 -121 0
-104 -127 -226 0
-47 411 -429 0
87 295 -445 0
-29 -121 390 0
177 -331 352 0
262 -265 -409 0
66 -189 -204 0
33 116 364 0
-124 128 174 0
-71 -151 274 0
-19 193 337 0
176 -195 -360 0
182 -348 418 0
-211 -302 366 0
-156 -159 -253 0
-155 -233 -416 0
-128 156 -443 0
-268 428 -438 0
115 -226 263 0
-30 86 -156 0
-155 -313 441 0
32 -297 412 0
-213 368 -401 0
53 167 -262 0
142 212 358 0
-72 306 447 0
-157 -238 328 0
89 211 289 0
-117 -341 431 0
-114 -203 -271 0
-46 -81 -97 0
50 -79 313 0
-120 -216 -243 0
220 -334 368 0
-115 186 -389 0
-54 243 354 0
73 154 423 0
-1 310 359 0
93 -170 -294 0
-245 -428 -446 0
-211 256 -427 0
46 58 -124 0
185 -368 -377 0
68 255 -431 0
-170 -219 417 0
56 241 275 0
-14 -168 -208 0
-132 -186 262 0
82 126 377 0
-240 326 -334 0
-68 -145 360 0
-59 -130 -377 0
341 372 404 0
-150 182 -426 0
-24 333 -447 0
155 -276 283 0
-238 -356 -369 0
13 -48 63 0
-87 -305 -351 0
-134 -298 377 0
-2 -133 -229 0
17 -31 158 0
137 366 448 0
242 312 -385 0
-85 245 -296 0
154 220 393 0
179 320 397 0
-150 287 -388 0
74 402 448 0
80 360 390 0
91 335 349 0
171 194 -339 0
-140 319 -343 0
4 110 -348 0
-219 237 433 0
-16 73 271 0
115 221 381 0
-233 -317 374 0
-11 207 368 0
-137 138 410 0
-109 -143 202 0
-141 201 285 0
22 -100 -193 0
-43 169 320 0
276 416 424 0
83 -186 339 0
-58 66 -193 0
74 147 347 0
43 -218 373 0
19 -29 277 0
-94 137 399 0
127 -128 346 0
-78 -129 373 0
-219 -339 -422 0
-223 -350 -360 0
-287 359 -420 0
407 427 448 0
-17 -228 -231 0
28 -151 227 0
-8 -110 -288 0
144 248 -373 0
130 200 -419 0
-208 314 -399 0
162 240 278 0
-384 435 444 0
23 -62 -435 0
143 268 -448 0
-110 -145 -182 0
-144 194 -397 0
-75 -345 -393 0
57 210 442 0
-24 108 237 0
-39 88 432 0
10 99 -136 0
-224 322 -375 0
-77 -226 395 0
100 168 406 0
-7 -47 -192 0
141 -255 -409 0
-138 -155 328 0
29 118 147 0
77 123 -420 0
-276 281 -314 0
124 -345 399 0
17 183 268 0
4 87 98 0
-85 107 302 0
63 135 398 0
200 -301 448 0
91 263 -369 0
-196 221 355 0
250 -413 -446 0
-155 281 327 0
-126 -218 -301 0
-29 -306 366 0
250 266 425 0
105 326 436 0
-124 279 288 0
-428 438 -440 0
198 -310 -327 0
85 402 421 0
-188 242 318 0
105 256 281 0
113 140 -411 0
-72 81 -149 0
-50 233 346 0
-145 184 444 0
225 -336 357 0
116 -367 430 0
89 119 -192 0
-32 132 174 0
229 -380 410 0
-150 234 351 0
22 -40 -94 0
83 158 164 0
-4 51 -166 0
250 -316 412 0
38 -168 247 0
68 -234 -428 0
41 -386 -429 0
95 241 -251 0
-113 245 310 0
15 115 341 0
-356 -372 409 0
32 -33 -404 0
109 -183 -334 0
69 -144 -151 0
223 285 -365 0
-56 228 316 0
-84 233 411 0
169 -184 -441 0
-124 220 256 0
-63 -157 -214 0
62 195 -204 0
20 -291 -342 0
37 217 413 0
64 108 394 0
264 -422 448 0
109 166 -263 0
49 170 -187 0
3 187 -418 0
-177 216 -396 0
165 -266 344 0
-265 288 313 0
263 -311 384 0
-7 -11 -214 0
192 -296 -310 0
-64 173 -424 0
13 -261 307 0
-94 -142 -179 0
194 199 -251 0
71 -98 -303 0
-191 -299 -431 0
-100 252 338 0
-50 -194 236 0
-70 -242 -342 0
86 266 -437 0
115 284 436 0
147 267 352 0
312 -404 446 0
56 -126 398 0
29 -134 -256 0
-134 -222 -316 0
11 -130 277 0
169 -307 -428 0
132 248 -281 0
193 194 -429 0
-72 -103 -233 0
-85 -248 373 0
113 201 -360 0
-384 -404 -436 0
-56 -159 -316 0
-84 -329 419 0
-279 354 431 0
-10 -149 352 0
