p cnf 450 1917
-80 -347 -383 0
-77 -114 -410 0
-123 399 437 0
-9 -387 399 0
-129 197 208 0
142 -143 425 0
181 -216 329 0
-17 -380 425 0
329 -345 394 0
140 163 296 0
88 -274 -386 0
-197 229 -341 0
-131 -149 194 0
113 281 317 0
144 342 359 0
-91 -261 -315 0
318 -427 -435 0
216 -324 -337 0
-2 -38 -437 0
-181 -246 298 0
-175 223 -372 0
197 -412 -430 0
44 -282 -343 0
-227 330 -356 0
-83 -197 439 0
-171 287 -314 0
-205 322 -414 0
179 292 -425 0
-44 217 292 0
-128 -186 228 0
-88 -407 418 0
145 -293 -314 0
129 309 405 0
-182 368 372 0
43 161 246 0
329 342 369 0
101 356 -414 0
240 360 -378 0
90 162 -203 0
-109 186 -374 0
111 -370 388 0
-120 -373 -418 0
182 224 328 0
97 210 424 0
-337 -385 443 0
130 -312 425 0
-118 203 -431 0
-57 -113 -419 0
335 398 -431 0
-7 -77 230 0
-35 -215 273 0
-91 -98 286 0
-33 -113 166 0
-65 -289 -398 0
-27 257 355 0
-13 81 -254 0
-8 84 219 0
11 220 345 0
72 341 -408 0
13 -184 -327 0
-85 330 449 0
-67 -186 367 0
-95 -316 403 0
222 312 431 0
-18 279 322 0
-198 -235 -251 0
-47 -111 -221 0
39 252 -428 0
-188 348 427 0
270 297 331 0
-58 -63 -427 0
-253 288 423 0
-191 -251 384 0
-335 424 -444 0
-234 -250 -322 0
-157 -283 320 0
-219 -290 430 0
-254 -331 -393 0
-93 144 -310 0
54 294 -408 0
57 132 353 0
107 187 -441 0
156 -201 423 0
-222 401 450 0
43 -75 120 0
-153 205 278 0
129 -156 -206 0
57 -62 -160 0
-19 -276 -288 0
-48 -104 -179 0
26 -96 346 0
44 -216 -263 0
-32 255 338 0
18 -299 413 0
342 386 -420 0
214 -310 311 0
-96 192 -393 0
-128 184 337 0
148 -213 -326 0
135 -219 -331 0
-302 322 343 0
93 -161 -229 0
-70 -134 -258 0
230 311 406 0
-46 -222 230 0
-127 -208 -299 0
-101 -193 316 0
-140 -251 276 0
-97 -362 -407 0
-271 281 320 0
-98 256 431 0
78 -99 213 0
-108 -203 280 0
98 -109 427 0
11 279 -432 0
-23 48 154 0
25 102 208 0
-181 299 -444 0
-79 160 -311 0
-123 231 316 0
-217 -240 -424 0
260 310 -421 0
-63 -261 294 0
23 -321 -384 0
-8 32 173 0
-41 -345 -391 0
144 159 237 0
-57 -230 288 0
225 -304 331 0
-87 118 -179 0
148 -177 -373 0
10 -149 -443 0
-353 -381 435 0
73 298 373 0
-53 133 -368 0
34 -64 129 0
-72 107 -190 0
126 241 -448 0
-30 -211 -446 0
-81 139 259 0
-197 -295 -349 0
38 252 338 0
-14 241 -353 0
-34 -362 -420 0
180 222 309 0
20 253 -272 0
257 271 342 0
-6 -73 360 0
-65 -77 421 0
38 -139 -185 0
143 -185 423 0
88 315 -436 0
122 257 293 0
-279 -300 345 0
5 -109 -113 0
159 173 225 0
14 -272 -434 0
-108 -321 -387 0
-246 -273 331 0
-173 182 -348 0
-265 291 -379 0
3 -6 -147 0
125 -137 -410 0
-33 267 -372 0
-102 -326 -368 0
-64 -95 -219 0
-135 -252 422 0
66 118 446 0
73 -126 370 0
8 81 -199 0
170 -354 416 0
105 -168 -318 0
11 172 -292 0
23 -261 -295 0
-257 331 -351 0
-7 -216 -254 0
-100 -240 -364 0
-93 -246 434 0
-26 319 -382 0
28 220 245 0
92 -191 -377 0
54 -366 -386 0
-238 380 444 0
-131 329 402 0
-188 -355 -432 0
-239 380 -391 0
-274 333 365 0
-200 313 315 0
33 246 323 0
-85 -255 408 0
35 47 199 0
-35 288 -334 0
69 220 -270 0
-129 193 -373 0
99 256 289 0
157 -226 301 0
-65 169 -170 0
246 -351 -404 0
-42 -161 -207 0
98 147 -316 0
5 410 -416 0
28 -62 -315 0
99 183 -287 0
289 -290 393 0
-300 -390 443 0
117 -159 366 0
-189 276 297 0
8 -9 101 0
50 122 277 0
46 82 152 0
-17 -203 365 0
238 -273 380 0
61 -230 -291 0
-142 -233 -326 0
168 183 -371 0
-84 143 305 0
-9 152 413 0
-196 259 -344 0
-42 69 413 0
-56 -221 244 0
-148 231 -335 0
-184 239 -365 0
77 230 391 0
-48 119 424 0
-33 -247 276 0
-254 359 416 0
-127 -130 -227 0
-37 107 169 0
309 -348 423 0
-26 -120 -192 0
147 405 -441 0
129 -213 245 0
-82 -264 -344 0
17 124 202 0
129 -272 306 0
-76 193 207 0
153 -215 430 0
59 -212 271 0
4 112 434 0
105 -222 448 0
41 230 319 0
6 154 -215 0
64 -301 -328 0
-9 173 263 0
162 -287 -416 0
-112 225 -341 0
104 -166 401 0
-96 -290 -436 0
-87 -108 252 0
-130 -136 -415 0
-105 257 418 0
58 -124 -423 0
-15 200 306 0
-75 -189 232 0
42 -403 439 0
-156 -378 420 0
89 283 -342 0
-211 314 344 0
-64 102 -348 0
-114 -155 438 0
-219 241 -256 0
-55 186 -448 0
-127 -136 148 0
-79 186 353 0
-132 176 388 0
-2 -17 267 0
80 179 441 0
67 186 346 0
-23 -104 343 0
-38 135 276 0
44 -45 -140 0
84 -210 331 0
55 -141 -164 0
-150 -295 -332 0
-177 -247 -355 0
155 168 361 0
273 -348 367 0
187 229 430 0
-376 400 -428 0
-113 385 -396 0
-133 -330 430 0
-49 174 -318 0
-21 79 -97 0
-105 -267 -371 0
96 -133 355 0
362 -371 419 0
73 -88 263 0
173 289 382 0
-256 -363 -393 0
167 -280 413 0
67 78 333 0
22 -159 -251 0
-19 248 -346 0
19 -32 331 0
123 -145 -213 0
16 -225 387 0
-129 -200 289 0
64 131 -160 0
-127 218 -348 0
-26 38 -95 0
-50 -202 -286 0
65 -131 283 0
57 -97 -162 0
110 -226 251 0
-195 -229 -395 0
59 -228 -306 0
-138 -186 -414 0
-189 411 -442 0
150 -258 344 0
-153 380 -436 0
164 -224 -373 0
105 -328 338 0
-62 282 -371 0
10 -36 334 0
20 136 199 0
47 232 255 0
-100 -352 -353 0
-289 -304 -433 0
48 -209 -251 0
304 -347 437 0
-209 214 386 0
4 -95 -225 0
-47 -236 -419 0
-52 -174 231 0
-38 411 416 0
-145 -189 359 0
-51 316 -407 0
155 371 391 0
4 189 258 0
-60 -147 -317 0
-75 90 220 0
3 -159 409 0
13 -187 -310 0
-181 -234 -296 0
59 132 292 0
22 -163 449 0
-215 -288 -296 0
48 -189 -194 0
174 -437 -439 0
52 -73 -200 0
-14 -140 300 0
-2 239 -318 0
20 -53 -413 0
129 169 291 0
99 -164 244 0
59 -121 258 0
184 294 417 0
-75 172 -257 0
-194 365 442 0
264 -346 -420 0
206 277 -400 0
39 128 -402 0
3 92 -444 0
27 -31 -201 0
21 31 313 0
53 -131 436 0
34 239 306 0
288 -418 430 0
-391 431 -441 0
-141 -398 405 0
-196 -290 -424 0
-28 227 -303 0
90 285 338 0
-89 334 445 0
253 280 -303 0
-48 -232 -409 0
172 -224 -251 0
-106 -326 400 0
75 -289 -323 0
-126 140 -199 0
75 305 -426 0
184 -302 -410 0
171 -362 -387 0
-202 -383 425 0
42 -315 345 0
147 199 374 0
44 -233 389 0
52 -91 -195 0
142 291 -404 0
-62 -361 -420 0
105 -296 349 0
53 -116 -429 0
31 -97 130 0
-155 171 180 0
-93 -330 333 0
209 277 -282 0
99 -337 418 0
298 -352 394 0
141 -159 -226 0
181 197 -404 0
14 -106 -224 0
-111 -211 -389 0
-158 -160 -322 0
-58 146 216 0
-49 -192 -320 0
66 96 123 0
-125 -201 395 0
-163 372 -447 0
-5 -35 450 0
-21 96 -241 0
-43 -64 -166 0
-36 149 -332 0
-166 186 322 0
-114 233 325 0
29 234 445 0
-216 250 -299 0
363 -414 -415 0
117 139 -207 0
213 298 -414 0
3 -238 395 0
-21 92 -328 0
-64 -341 364 0
30 150 -279 0
-115 143 -390 0
-1 -35 -170 0
49 69 82 0
-5 -12 378 0
43 64 258 0
42 59 -326 0
-130 -153 214 0
29 -120 401 0
-44 -103 165 0
56 253 255 0
-209 -294 -376 0
70 143 227 0
134 248 -258 0
9 124 169 0
155 238 426 0
70 -104 313 0
-36 275 -310 0
-38 -59 264 0
143 -227 417 0
-84 228 -359 0
-194 -196 416 0
210 235 445 0
-96 -191 -434 0
67 143 -429 0
-23 279 -355 0
16 -118 -137 0
-80 128 205 0
133 187 -438 0
-79 102 224 0
-117 -207 -448 0
-217 -354 413 0
-177 -268 -366 0
-77 -226 413 0
75 -228 -237 0
249 340 402 0
233 282 -439 0
125 295 -433 0
-34 -152 -361 0
228 -260 431 0
51 127 -357 0
-123 302 -339 0
-196 -359 414 0
-132 170 -286 0
-43 -99 -421 0
30 -87 406 0
-115 -369 392 0
85 157 -222 0
9 -87 -138 0
-16 -42 238 0
-347 398 443 0
70 -86 231 0
-121 -145 -405 0
90 -304 -433 0
44 291 409 0
-101 -154 341 0
126 -201 -439 0
254 -323 450 0
137 -187 252 0
121 -198 -397 0
-126 389 445 0
51 71 292 0
-84 350 -365 0
43 -92 126 0
-179 210 262 0
19 -279 -422 0
-187 -333 -433 0
-46 -192 -251 0
44 346 369 0
-67 -109 -312 0
229 -275 435 0
246 250 -380 0
-6 134 282 0
25 122 -411 0
-126 213 327 0
18 172 -259 0
-2 199 446 0
23 -47 354 0
-42 67 -159 0
43 126 220 0
81 208 224 0
23 -32 -142 0
31 -32 -38 0
-25 -56 406 0
48 64 -296 0
-73 -144 389 0
-78 -123 405 0
-62 117 -357 0
-76 -149 351 0
-238 332 -349 0
118 -346 422 0
35 -176 -358 0
213 240 357 0
75 -83 -389 0
248 -301 -385 0
-354 -372 -445 0
30 132 269 0
51 -290 410 0
-62 -200 217 0
-11 103 185 0
-234 -365 424 0
-171 -218 259 0
40 -210 419 0
29 83 -165 0
99 -109 127 0
243 -264 437 0
-53 289 -342 0
13 337 339 0
-214 286 -320 0
-123 165 -358 0
8 -335 382 0
-160 162 -246 0
168 300 313 0
-103 -117 120 0
75 200 -376 0
77 -263 446 0
119 -200 -343 0
-364 402 -437 0
-55 -234 359 0
-70 147 181 0
71 135 -194 0
-16 -185 198 0
-191 292 -312 0
-85 -103 -136 0
188 -198 -219 0
-54 -287 -363 0
-171 -316 411 0
-36 232 431 0
143 -212 393 0
206 230 -247 0
6 300 440 0
217 -313 338 0
158 259 -314 0
-136 191 -271 0
-50 352 -353 0
25 -194 370 0
-215 -422 449 0
46 -82 -352 0
-124 -233 430 0
55 -302 353 0
240 272 356 0
-127 139 -264 0
-89 -298 379 0
67 -92 -217 0
-206 -306 372 0
-77 430 -444 0
-174 -197 299 0
140 322 -393 0
-88 104 389 0
96 238 -310 0
88 334 -372 0
109 255 -305 0
115 -352 -416 0
-99 -125 240 0
235 389 403 0
3 -112 -295 0
-74 305 376 0
-10 -116 -310 0
64 -65 -297 0
-120 -155 208 0
196 314 424 0
-176 402 417 0
-92 245 -299 0
49 141 396 0
105 312 -398 0
-45 -231 -275 0
-17 -107 -227 0
-114 -145 -228 0
323 351 424 0
-67 -127 -228 0
-264 -283 -354 0
-176 -300 -358 0
-62 216 -406 0
-75 243 -394 0
260 -293 308 0
-4 -57 106 0
138 436 444 0
-81 125 290 0
152 276 283 0
133 226 -364 0
-90 144 273 0
59 -270 -395 0
-79 -176 -387 0
51 -200 -349 0
134 249 -323 0
192 255 -275 0
115 156 -235 0
-25 45 135 0
-27 51 -433 0
-6 66 353 0
116 170 -443 0
79 110 244 0
242 -284 -394 0
21 246 311 0
-161 -252 -398 0
158 -278 -337 0
-233 307 -445 0
113 139 -321 0
-253 284 -323 0
-106 -111 449 0
-72 121 -377 0
140 312 -328 0
4 -20 315 0
-139 -145 -394 0
32 91 256 0
69 -267 294 0
175 259 -274 0
-38 49 216 0
182 -297 -362 0
85 -214 301 0
-4 -264 -343 0
-72 225 -408 0
-111 194 432 0
12 164 -228 0
-18 -36 142 0
-32 118 -401 0
226 370 383 0
157 226 -340 0
11 329 404 0
-86 -106 236 0
-211 -289 -391 0
-220 -352 -370 0
80 -140 176 0
-2 -295 433 0
-10 -97 149 0
159 -190 439 0
4 335 359 0
-59 65 -285 0
-177 -214 -376 0
-172 -252 449 0
42 103 430 0
99 123 -391 0
99 193 267 0
-148 -194 203 0
68 114 -134 0
166 -268 -317 0
-107 242 305 0
137 -256 -362 0
142 -216 -271 0
-104 -365 -433 0
199 -342 434 0
-149 -277 -318 0
-75 -429 -448 0
183 310 -314 0
-268 288 416 0
-335 -363 -433 0
20 245 -381 0
-16 255 -393 0
-147 -162 -365 0
146 -352 390 0
-175 254 339 0
-102 138 -398 0
-62 -98 -177 0
22 139 291 0
-72 133 -398 0
-146 -399 -427 0
-12 72 312 0
5 52 -404 0
25 -434 -446 0
-39 -116 202 0
-67 236 -382 0
182 238 423 0
-201 -228 327 0
-129 230 -413 0
-24 159 -345 0
277 290 -449 0
-174 241 -281 0
-55 133 -297 0
76 -212 402 0
-61 -85 280 0
-60 290 390 0
39 312 380 0
-154 -258 -420 0
-135 158 363 0
203 -385 -386 0
-164 -216 -300 0
-119 -289 382 0
-49 -115 186 0
-153 239 378 0
34 -179 375 0
-42 176 229 0
-3 129 -308 0
-118 268 327 0
22 37 -393 0
215 -228 -444 0
-182 274 438 0
6 -34 295 0
4 328 -382 0
-117 -174 -432 0
207 384 413 0
28 -216 -449 0
157 162 328 0
194 233 -327 0
271 -381 -410 0
62 157 449 0
-55 264 -309 0
112 353 -421 0
189 -443 447 0
-120 -227 -246 0
136 -307 318 0
57 59 -275 0
-198 -316 -382 0
140 -248 311 0
-191 -244 253 0
-50 -122 -191 0
-119 -149 373 0
85 -132 269 0
102 -155 -388 0
261 383 391 0
-4 44 -203 0
-2 126 -377 0
-6 320 -409 0
-76 178 421 0
200 300 -390 0
-71 102 -219 0
-101 185 -342 0
211 -425 -440 0
35 -165 -266 0
-39 329 -356 0
-72 -167 240 0
-155 -239 432 0
175 -237 374 0
-269 430 434 0
197 -372 435 0
-46 -300 -326 0
-195 343 -431 0
72 209 224 0
72 286 -373 0
-156 -331 333 0
114 262 -360 0
-172 199 308 0
39 266 276 0
-127 189 -308 0
92 176 -212 0
68 98 134 0
171 178 424 0
43 -350 -385 0
93 -211 -399 0
63 105 -115 0
134 -175 176 0
-164 258 443 0
-137 249 -323 0
127 -299 -385 0
-51 -55 -299 0
241 313 441 0
31 -244 -425 0
130 -133 -147 0
-200 -362 442 0
284 -339 446 0
202 389 430 0
135 -150 340 0
41 -204 -381 0
-133 -260 -288 0
-62 -157 211 0
-331 -350 -406 0
91 96 -320 0
53 110 -392 0
359 -360 390 0
-10 -174 398 0
302 312 -339 0
-109 190 -305 0
-375 -391 440 0
-201 -383 386 0
121 419 432 0
-123 -260 -353 0
65 178 -336 0
-118 245 -430 0
25 -211 -335 0
133 -239 297 0
238 -435 -442 0
74 408 414 0
37 39 -321 0
-238 -404 -431 0
166 -169 406 0
185 -326 -442 0
158 173 -394 0
18 -251 341 0
-95 160 415 0
-80 -156 393 0
-119 132 330 0
-274 -352 -425 0
-203 -312 -418 0
-182 307 413 0
28 346 -400 0
158 -302 397 0
-81 237 335 0
-76 102 434 0
115 148 -383 0
77 230 -448 0
-284 438 443 0
-115 -254 -266 0
161 -178 -294 0
11 -37 77 0
-206 -239 -319 0
14 61 66 0
-112 -121 -287 0
49 175 401 0
-125 -194 -429 0
185 -230 366 0
121 -206 207 0
-163 -353 407 0
252 -327 336 0
-216 -297 -301 0
-148 -241 258 0
164 -221 353 0
87 181 -421 0
-77 -108 125 0
156 294 446 0
-37 -197 -250 0
169 -201 435 0
189 -387 -404 0
223 -284 -420 0
-26 -234 356 0
-122 -150 -251 0
-109 198 277 0
-33 250 328 0
-179 -328 414 0
-130 321 356 0
23 -69 351 0
155 383 397 0
-20 391 -425 0
78 237 -393 0
35 -290 339 0
111 317 -390 0
-97 -311 380 0
53 -324 -444 0
187 282 -429 0
253 344 361 0
98 -169 -191 0
-237 -281 403 0
112 235 -378 0
-48 -100 -259 0
124 -183 440 0
-117 275 -280 0
-111 258 295 0
120 -160 364 0
175 237 -253 0
-115 234 -363 0
-50 -56 -86 0
-196 -328 332 0
78 -267 -303 0
107 304 340 0
-312 -402 -430 0
-151 208 396 0
-53 176 -344 0
208 -351 401 0
53 184 274 0
-114 363 -399 0
73 -115 -142 0
132 -386 442 0
72 -132 389 0
96 -111 306 0
122 -238 -302 0
-230 294 -387 0
-333 352 410 0
181 320 -438 0
165 220 -384 0
-12 201 324 0
-196 241 -257 0
62 -153 443 0
233 -309 327 0
-5 -8 -445 0
-41 48 316 0
61 -88 445 0
13 275 -387 0
-34 -121 -337 0
10 220 -411 0
241 -251 349 0
-49 -312 445 0
138 -332 346 0
-317 -378 -411 0
-67 -142 439 0
357 419 442 0
-204 208 334 0
14 396 -397 0
187 -202 294 0
67 283 446 0
192 308 -365 0
-84 -241 346 0
-197 264 -396 0
210 -244 430 0
258 264 323 0
-160 268 -318 0
-227 324 402 0
191 -214 -232 0
-226 333 -443 0
246 -353 -408 0
-120 290 416 0
14 38 85 0
-26 263 -420 0
-72 78 316 0
-256 287 302 0
107 -247 344 0
109 309 373 0
73 -187 -281 0
103 168 433 0
55 104 -319 0
32 353 374 0
-7 -381 418 0
85 -300 -307 0
-316 -321 -422 0
186 240 -442 0
-88 261 -262 0
-6 13 -407 0
-221 -305 339 0
-125 -143 148 0
-77 102 -361 0
112 -170 320 0
23 -251 -346 0
191 -300 367 0
233 262 -363 0
-161 -209 437 0
-134 -184 -269 0
-63 -157 415 0
-52 -240 248 0
-316 -345 434 0
169 -318 379 0
-57 -79 136 0
12 15 -343 0
87 104 -158 0
76 172 -241 0
36 -98 354 0
-149 -276 -431 0
155 330 415 0
154 -269 -319 0
111 -118 -417 0
-42 -202 274 0
-25 75 -81 0
240 -243 -255 0
127 -301 -366 0
251 -315 -357 0
64 370 396 0
117 -246 447 0
141 223 -435 0
290 355 359 0
-30 321 -377 0
17 40 294 0
-69 -90 284 0
-13 -88 -320 0
336 -361 -364 0
39 68 -97 0
17 180 237 0
-144 -204 -358 0
53 -227 392 0
26 -57 370 0
-10 163 -174 0
138 209 215 0
120 -186 -359 0
172 212 -371 0
-36 89 -343 0
45 90 438 0
-213 -353 449 0
-56 -83 -284 0
31 -402 -448 0
-275 408 418 0
275 -307 -446 0
167 -313 370 0
-6 250 -385 0
-82 -104 -272 0
-44 85 103 0
46 -225 434 0
-172 -288 320 0
287 -298 361 0
110 -302 397 0
-170 245 -337 0
-50 -102 163 0
20 -215 -277 0
-109 -208 -442 0
254 -316 -397 0
-47 50 -165 0
-109 140 -265 0
9 -322 386 0
110 307 -332 0
187 -415 -423 0
183 264 -383 0
188 -246 -374 0
-218 343 384 0
83 121 437 0
95 358 435 0
46 364 -407 0
5 -6 -427 0
334 356 409 0
-18 74 313 0
-147 185 -213 0
6 -158 413 0
153 273 344 0
-191 217 -263 0
-152 270 -331 0
141 -249 255 0
133 -373 408 0
275 -418 437 0
6 38 -288 0
-8 207 -373 0
-91 102 -403 0
-261 -294 -378 0
-67 -343 -444 0
65 270 326 0
-210 238 -274 0
314 346 -393 0
154 352 -353 0
60 71 348 0
101 182 -244 0
-14 -87 -150 0
8 -177 430 0
12 293 -416 0
-177 -247 379 0
36 230 246 0
77 309 -311 0
-304 439 -448 0
131 271 430 0
-111 216 -307 0
217 255 -441 0
-9 145 272 0
125 266 272 0
-20 124 -314 0
-68 167 188 0
203 430 -445 0
138 345 -383 0
127 193 -425 0
184 186 332 0
70 -170 346 0
-25 300 303 0
36 334 438 0
173 -357 409 0
56 273 313 0
-214 238 -443 0
-137 267 391 0
38 95 96 0
80 -206 -267 0
-184 307 -332 0
-133 213 289 0
-35 -98 -147 0
94 273 -305 0
-78 -381 410 0
-55 245 -252 0
-117 -201 384 0
-184 -291 -375 0
71 -373 450 0
-219 226 338 0
19 -80 297 0
-399 413 449 0
137 -234 -265 0
142 260 419 0
47 -289 398 0
46 103 214 0
-34 -282 -406 0
-108 -174 -288 0
30 50 -405 0
179 269 -321 0
46 83 -275 0
-147 -211 -403 0
9 218 298 0
101 -329 -435 0
141 182 348 0
-73 106 316 0
-177 345 -387 0
-209 -259 325 0
31 208 -217 0
181 -271 328 0
-216 233 -302 0
-38 240 323 0
-137 380 381 0
376 386 418 0
-296 311 -412 0
-55 -297 438 0
-21 -58 126 0
-215 294 -382 0
199 -210 226 0
11 -193 -386 0
196 234 -304 0
-57 -121 -167 0
54 -114 -445 0
24 131 -381 0
-125 -178 -412 0
-5 30 -388 0
-50 132 -290 0
301 -318 -338 0
-88 148 357 0
44 -58 -339 0
-110 -247 276 0
138 264 336 0
22 -122 299 0
-11 137 283 0
139 -167 369 0
-57 234 -314 0
7 -56 -308 0
-163 -234 300 0
176 270 335 0
172 -227 -410 0
284 -346 409 0
-242 303 414 0
263 379 435 0
3 -354 -415 0
189 309 375 0
-114 -239 445 0
115 -154 356 0
-142 -312 369 0
-130 149 -207 0
89 -122 -242 0
-169 -383 -422 0
-40 79 327 0
-174 -182 213 0
227 265 417 0
366 -387 -413 0
227 369 -408 0
-82 -254 392 0
46 -221 350 0
-142 164 -405 0
-330 436 447 0
-28 432 435 0
-100 266 371 0
-287 -330 -426 0
94 -112 172 0
62 -149 224 0
-10 33 -438 0
-139 146 212 0
-196 -273 -312 0
161 204 -360 0
18 39 -354 0
-165 -207 -316 0
-53 214 303 0
87 185 -272 0
55 153 -252 0
-34 -45 447 0
-45 -157 -294 0
-70 -264 351 0
17 377 -428 0
-189 -285 326 0
385 430 445 0
126 136 -159 0
-60 -77 317 0
10 346 424 0
-132 -221 -422 0
91 142 428 0
-78 219 -263 0
-97 301 -407 0
193 320 -351 0
-126 244 363 0
-3 192 -203 0
4 -55 403 0
170 -223 -301 0
-263 305 -314 0
-18 -184 221 0
-135 321 376 0
-306 -401 404 0
-1 336 -379 0
-35 78 421 0
32 -55 -165 0
240 355 -395 0
259 -356 -389 0
207 274 356 0
-103 -279 -366 0
8 -109 -358 0
89 -355 442 0
-29 186 -432 0
-31 -239 -365 0
4 199 260 0
319 340 397 0
-161 -199 366 0
30 -61 203 0
-231 -298 429 0
108 -116 -322 0
50 -370 378 0
121 -200 306 0
45 174 -377 0
-56 147 219 0
-123 -343 357 0
59 -331 -385 0
317 391 395 0
49 148 -393 0
-252 265 350 0
48 -164 374 0
-27 -77 -190 0
-21 171 -219 0
41 -127 360 0
117 140 430 0
219 245 -269 0
-104 205 -207 0
-22 -176 216 0
-66 -279 289 0
-35 -38 228 0
127 340 410 0
187 -290 -436 0
-52 -322 384 0
190 -290 -378 0
22 -90 154 0
44 383 420 0
85 -353 439 0
-15 259 352 0
278 -422 432 0
-3 167 -448 0
-127 -152 309 0
187 -405 -433 0
277 -380 -383 0
13 369 436 0
-114 -213 -368 0
93 154 247 0
-16 272 -294 0
-232 -272 425 0
293 -371 -436 0
98 -119 -367 0
169 276 441 0
4 71 252 0
-128 260 -303 0
-242 369 -428 0
-194 275 449 0
182 311 -401 0
-39 -92 404 0
-135 -252 -316 0
-30 214 257 0
-26 208 275 0
-6 -174 -366 0
125 387 405 0
3 -54 382 0
119 220 227 0
53 289 351 0
235 -282 322 0
-33 -96 -364 0
83 155 -324 0
-122 262 -416 0
-277 355 -416 0
256 269 353 0
-21 -44 -424 0
-188 394 -422 0
-104 -115 247 0
-46 -65 -113 0
-52 -169 -172 0
-316 323 -369 0
-167 -206 346 0
-52 -84 213 0
-24 271 302 0
-170 -189 235 0
32 -56 -92 0
-108 -270 320 0
-163 193 -390 0
190 -325 -364 0
102 -256 408 0
-37 -314 -434 0
81 259 -389 0
195 230 233 0
-207 335 413 0
11 258 393 0
89 247 248 0
79 205 267 0
163 296 -342 0
108 257 417 0
307 -383 415 0
-16 103 184 0
144 315 364 0
35 60 -267 0
83 -180 -444 0
-4 -163 -348 0
161 414 -426 0
77 -138 152 0
61 103 150 0
239 347 -399 0
146 -180 412 0
-29 86 -268 0
-168 -184 201 0
262 340 348 0
-11 220 423 0
238 -252 -274 0
158 -205 -353 0
88 -165 -192 0
119 -244 272 0
16 298 -370 0
-17 337 372 0
266 392 -438 0
300 312 333 0
-103 320 376 0
230 -259 387 0
323 -329 -331 0
-172 251 -350 0
-243 -302 -418 0
-77 -293 398 0
-132 248 -267 0
-137 370 -398 0
-64 -106 327 0
-47 -325 -448 0
-1 163 410 0
93 -126 189 0
99 143 -211 0
-131 -179 -403 0
121 122 -297 0
-302 308 -417 0
224 299 343 0
127 -132 -140 0
-112 -138 223 0
65 160 265 0
127 -339 445 0
260 -421 -422 0
-156 183 388 0
20 -227 -355 0
38 -212 -287 0
114 -255 -398 0
104 -140 -359 0
-14 -158 176 0
42 -237 -318 0
-158 -259 -371 0
-108 162 -287 0
10 23 -121 0
-173 -213 -314 0
106 -390 -422 0
-50 -98 -377 0
-44 234 -350 0
117 258 441 0
-61 381 -429 0
-104 199 327 0
-26 286 409 0
82 146 -337 0
144 -176 -419 0
-22 -110 326 0
-56 326 361 0
77 -154 -302 0
51 -140 -410 0
-28 48 -73 0
41 -196 -261 0
96 229 -300 0
-16 48 -163 0
198 384 401 0
158 183 -272 0
137 162 -341 0
144 -147 333 0
-258 370 375 0
83 -305 346 0
-69 -84 232 0
86 -128 -413 0
-174 -236 -429 0
-133 -391 412 0
-7 -51 266 0
-30 -131 -196 0
41 -244 366 0
83 -350 429 0
-165 217 -418 0
-32 336 411 0
-100 307 -445 0
238 353 398 0
36 -109 227 0
152 -398 -431 0
258 273 382 0
148 204 -275 0
143 -288 294 0
-112 129 -240 0
117 234 -411 0
37 -359 -372 0
207 -360 -410 0
204 253 436 0
66 -143 -170 0
227 -290 307 0
32 100 -141 0
-218 366 395 0
217 276 -284 0
6 -145 200 0
-31 -124 192 0
-103 -237 368 0
89 -97 -357 0
124 199 -423 0
-104 135 150 0
-169 -219 231 0
-118 -199 204 0
12 279 -360 0
52 54 138 0
24 346 -356 0
-249 -300 -350 0
-206 -328 344 0
-17 -82 -138 0
-84 -279 396 0
77 -108 -236 0
-84 -213 446 0
130 299 442 0
144 -165 344 0
19 -260 325 0
-103 254 290 0
-25 -79 304 0
-71 -251 -389 0
-84 -110 253 0
1 20 -116 0
90 415 -443 0
71 -401 431 0
60 398 -448 0
90 -97 -348 0
-215 -404 413 0
71 97 211 0
158 160 255 0
225 -257 359 0
-76 -275 344 0
46 195 -295 0
-113 -282 449 0
-99 103 309 0
-243 287 415 0
25 196 334 0
-285 318 -352 0
-55 106 394 0
88 184 -277 0
16 -222 -271 0
66 119 -421 0
10 159 170 0
2 393 -442 0
-286 372 433 0
-2 -266 -377 0
147 -356 443 0
12 -205 358 0
-139 302 -362 0
62 199 -366 0
143 -202 246 0
87 279 313 0
-164 -235 -354 0
177 305 363 0
-124 -213 326 0
227 -281 336 0
253 347 -392 0
110 -334 383 0
-134 -249 319 0
-3 -165 371 0
-51 134 414 0
-176 -306 364 0
-50 -96 150 0
34 98 281 0
243 -301 -359 0
-17 -274 333 0
157 -296 -353 0
-249 323 -403 0
-63 106 108 0
-7 68 -322 0
-40 -169 198 0
-353 383 -397 0
155 203 -386 0
-66 -157 402 0
26 212 355 0
-219 -273 331 0
202 338 403 0
162 -337 409 0
-171 430 -447 0
75 -157 -430 0
-26 80 143 0
124 -162 -373 0
-148 -349 430 0
272 373 420 0
-99 -193 364 0
-220 -375 442 0
-17 75 -348 0
-40 -387 415 0
-78 -274 438 0
-101 -136 -364 0
117 347 403 0
-55 155 -317 0
359 370 421 0
17 53 241 0
199 -215 257 0
-99 164 -298 0
151 -229 -406 0
14 104 246 0
120 -156 350 0
220 -325 -344 0
-29 91 421 0
85 -191 274 0
-60 -84 99 0
69 -212 347 0
54 -71 425 0
96 364 420 0
-18 132 420 0
10 -76 263 0
-270 377 398 0
119 282 314 0
-27 -102 -386 0
-16 236 281 0
51 371 -443 0
-320 -329 -418 0
-219 252 409 0
65 158 164 0
174 -379 407 0
-20 -428 431 0
-164 -257 288 0
-51 -156 213 0
49 165 -410 0
41 348 410 0
-78 209 -320 0
11 -272 413 0
35 -101 -440 0
150 -338 445 0
-19 85 171 0
-25 -67 126 0
106 -258 386 0
-6 381 -423 0
34 153 -221 0
96 -308 440 0
33 246 249 0
-286 -359 -415 0
256 -333 358 0
-21 57 -88 0
212 -244 337 0
-140 166 305 0
142 318 -359 0
-258 305 313 0
-296 -358 440 0
-79 200 202 0
-55 310 328 0
171 -226 -448 0
100 -323 -330 0
-79 -177 -301 0
-184 -206 267 0
10 22 125 0
24 -223 -346 0
128 -163 -181 0
-114 -226 250 0
18 76 396 0
-178 339 -355 0
91 -295 -372 0
-66 360 367 0
-337 431 -443 0
-100 204 262 0
61 67 178 0
-95 187 -342 0
157 -197 251 0
74 -77 -117 0
-167 -213 224 0
-57 -232 -234 0
52 86 424 0
-84 209 -324 0
38 119 -251 0
-201 -227 -282 0
317 -322 382 0
20 213 398 0
-249 274 -280 0
-45 -106 -249 0
46 109 213 0
24 139 -207 0
78 129 439 0
175 -250 -305 0
-386 390 401 0
81 133 363 0
70 136 -248 0
18 -25 116 0
-124 156 -282 0
-12 -87 183 0
-237 350 418 0
182 -346 449 0
65 -212 379 0
71 220 421 0
318 -390 428 0
-44 218 309 0
159 233 -449 0
33 45 274 0
-315 344 384 0
131 150 234 0
22 133 -227 0
116 -137 444 0
71 -92 342 0
112 269 294 0
-99 217 -426 0
-193 -290 -388 0
-47 58 -256 0
-45 129 242 0
137 181 416 0
-200 -249 -266 0
-203 236 359 0
-35 -140 -249 0
72 -106 447 0
159 -385 -393 0
32 -56 -355 0
-69 -187 -381 0
-10 110 -327 0
296 342 434 0
-80 -257 -423 0
22 405 -429 0
-71 95 -342 0
16 154 -279 0
-263 -367 420 0
36 -234 347 0
-384 430 444 0
-190 -374 -446 0
99 -148 413 0
8 91 183 0
-2 -167 259 0
-175 -261 320 0
27 -100 -344 0
150 322 389 0
-165 332 -405 0
-43 -280 430 0
29 -77 -439 0
27 -282 -431 0
219 387 434 0
-197 -326 421 0
60 374 -420 0
-191 263 383 0
53 -260 391 0
313 321 -439 0
-10 -179 385 0
-155 258 335 0
67 92 -260 0
-162 272 -431 0
320 -428 445 0
179 -250 -420 0
54 -304 377 0
36 -316 -357 0
330 354 387 0
-81 194 393 0
7 120 381 0
-117 324 -360 0
-14 30 311 0
175 319 345 0
131 -246 407 0
-68 336 340 0
-253 -367 368 0
-158 -191 315 0
10 -152 211 0
-146 316 -350 0
-45 89 93 0
-119 201 -375 0
24 141 217 0
-69 120 447 0
-76 -116 -366 0
-6 -258 419 0
-1 378 -401 0
327 354 -362 0
-65 219 295 0
104 -154 254 0
187 345 -401 0
-324 -369 426 0
141 170 367 0
8 209 225 0
27 174 196 0
71 305 -446 0
246 373 -432 0
-39 47 -146 0
19 -43 -160 0
114 246 302 0
-61 -198 -443 0
-4 19 231 0
-29 -179 -210 0
72 109 -281 0
-103 -151 289 0
62 -353 369 0
115 262 288 0
194 256 377 0
-138 226 -227 0
113 -260 334 0
-126 -260 -318 0
35 -92 -291 0
179 336 -391 0
101 244 283 0
54 -185 -354 0
-25 162 247 0
-37 -50 116 0
-115 -226 -349 0
18 166 -272 0
114 255 -432 0
119 121 -396 0
-166 184 229 0
-14 -17 -422 0
-197 254 267 0
7 127 -164 0
208 238 445 0
-185 -245 -406 0
56 -243 383 0
228 258 -288 0
357 -398 400 0
-145 301 -313 0
-277 -360 427 0
205 265 273 0
-101 326 381 0
242 -367 419 0
-197 319 340 0
-81 -82 225 0
99 162 324 0
84 168 -243 0
-13 63 -395 0
-80 -253 310 0
-356 -364 371 0
-67 -318 -395 0
-65 234 383 0
-86 436 -441 0
-21 56 343 0
-219 -387 -410 0
-31 37 -74 0
-166 -260 316 0
351 -367 428 0
-18 81 130 0
-376 410 -446 0
-49 -186 311 0
-134 168 -395 0
-165 -187 -306 0
-108 293 443 0
210 -265 410 0
92 147 427 0
-5 290 338 0
-43 -268 419 0
-89 -218 316 0
111 185 316 0
278 -282 -377 0
69 -118 -380 0
28 -189 352 0
-22 -184 283 0
158 214 -406 0
40 -215 276 0
-161 297 -342 0
-74 -162 -365 0
40 -311 -340 0
-242 -291 -298 0
-32 -332 -355 0
100 -293 -424 0
-38 -285 302 0
-67 190 239 0
-131 -226 237 0
174 -340 -352 0
35 56 -80 0
-267 275 333 0
-332 380 -392 0
29 -96 -286 0
115 -159 -271 0
34 -300 -438 0
-330 -350 367 0
89 127 206 0
78 214 230 0
-12 -281 -420 0
-75 197 399 0
-287 -374 442 0
30 -433 447 0
-220 232 -400 0
-172 233 -281 0
-277 -366 382 0
-35 268 449 0
290 326 -347 0
-34 80 420 0
57 195 -352 0
25 34 -192 0
-52 -122 -420 0
-70 -256 366 0
-140 -229 -285 0
-282 -336 -428 0
-34 158 -325 0
6 75 327 0
-115 166 -312 0
16 222 349 0
42 186 386 0
-202 -349 370 0
19 -67 91 0
98 210 -388 0
59 -92 382 0
352 372 381 0
154 202 -250 0
-84 -182 -419 0
-1 17 -97 0
198 -272 273 0
-75 -221 359 0
6 -412 448 0
-192 -257 429 0
108 -209 -368 0
-218 319 397 0
-6 20 78 0
-4 76 -373 0
-272 -369 -428 0
-52 294 -412 0
52 -236 259 0
-130 -208 -393 0
2 -261 -300 0
153 -236 356 0
-4 171 399 0
-259 266 398 0
-94 295 411 0
-49 -222 -344 0
11 -205 -372 0
145 282 330 0
59 -144 -368 0
373 399 436 0
11 -153 -425 0
343 -420 424 0
18 50 328 0
-4 -285 438 0
2 -188 213 0
-27 363 393 0
3 190 -252 0
-119 292 -377 0
13 -155 276 0
-53 -218 267 0
-200 -242 -252 0
-82 -317 -409 0
31 117 -121 0
-89 -154 348 0
-12 -57 313 0
-49 -129 133 0
-94 105 -223 0
288 355 -440 0
78 -89 381 0
-317 -357 418 0
-138 140 -444 0
-12 314 -447 0
56 126 -149 0
-9 -186 -345 0
124 -240 411 0
-66 282 288 0
110 302 -331 0
-198 275 321 0
177 246 416 0
1 37 131 0
15 -397 -406 0
357 380 -431 0
88 -123 -155 0
-146 -180 242 0
-86 158 -337 0
-240 329 409 0
-142 256 260 0
12 -155 -404 0
59 285 398 0
-78 372 -411 0
77 -168 -356 0
-275 -277 -425 0
-56 -75 398 0
12 194 294 0
-235 283 341 0
-237 -240 -376 0
67 376 -432 0
121 383 418 0
341 -350 383 0
-145 -245 361 0
152 -208 302 0
-245 -276 -416 0
33 146 251 0
162 205 358 0
167 198 426 0
-119 272 -344 0
-125 237 296 0
-243 -321 429 0
-280 -301 -328 0
150 -395 436 0
-77 253 -262 0
71 198 279 0
175 -320 -355 0
-7 -98 327 0
175 -178 431 0
-69 -104 -285 0
-43 -286 -424 0
-74 -132 336 0
-128 -219 337 0
-242 -299 -368 0
-34 -89 263 0
113 198 238 0
128 230 259 0
68 422 -448 0
127 241 -280 0
96 227 387 0
-18 116 204 0
62 117 169 0
-30 -39 439 0
-153 -177 296 0
188 -405 449 0
173 -286 305 0
100 313 -392 0
193 -282 321 0
6 67 -243 0
269 274 -395 0
-35 71 232 0
-50 -150 -318 0
73 -181 444 0
-89 -240 303 0
36 104 372 0
-64 -348 -368 0
132 289 -362 0
-144 156 363 0
137 340 -379 0
118 -139 -337 0
-67 258 -363 0
170 199 361 0
133 -134 203 0
56 74 421 0
53 338 410 0
20 362 -434 0
61 -285 329 0
88 150 -431 0
29 34 340 0
-7 -16 -330 0
-43 85 -195 0
-102 -241 242 0
116 144 -237 0
46 170 358 0
-16 243 282 0
-88 -127 409 0
-92 -266 -285 0
164 200 354 0
90 -194 403 0
92 -224 417 0
199 -256 311 0
-138 234 -437 0
77 85 -157 0
-26 -329 430 0
-20 184 408 0
107 319 436 0
13 -238 388 0
-171 338 -386 0
-197 240 -446 0
-115 -351 371 0
35 -69 -112 0
84 182 -338 0
176 -309 339 0
369 378 -441 0
34 -194 -348 0
-64 115 -155 0
-18 -191 -413 0
-99 -304 410 0
173 -352 356 0
35 -172 285 0
62 -345 -422 0
-37 -59 168 0
-112 -206 216 0
-131 162 439 0
