p cnf 450 1917
-54 -112 181 0
-88 290 -391 0
-78 -156 -164 0
204 -379 387 0
99 112 355 0
119 -171 -310 0
-220 267 -368 0
58 -272 -301 0
198 -288 333 0
76 -83 -307 0
-155 -318 -354 0
82 -243 396 0
-123 360 375 0
-115 349 -395 0
-81 219 -407 0
-80 295 -390 0
82 308 -352 0
58 -228 -412 0
33 -132 361 0
106 212 -402 0
-225 396 -438 0
-10 34 -369 0
85 182 -324 0
-6 242 -389 0
45 277 357 0
302 -339 372 0
-176 288 299 0
209 272 300 0
11 50 285 0
-132 -198 269 0
-153 -168 434 0
20 81 -445 0
-80 103 271 0
32 -45 -309 0
87 -111 -440 0
-74 -99 153 0
267 -277 290 0
79 -261 294 0
11 57 -384 0
-48 -314 -368 0
-77 -140 196 0
90 -136 -237 0
-69 -149 -335 0
-361 400 -428 0
3 -146 289 0
-126 181 211 0
-102 -295 -428 0
-43 -93 168 0
-73 -259 416 0
-208 327 404 0
-140 362 -416 0
-206 -326 358 0
-127 -388 -401 0
289 -371 -388 0
78 -255 385 0
-17 89 349 0
119 -147 -364 0
-157 333 386 0
-125 -357 450 0
-63 -103 -267 0
100 -116 -313 0
-34 -157 380 0
-169 227 307 0
4 -244 285 0
37 -83 120 0
150 -284 -317 0
75 129 312 0
35 -321 376 0
3 -70 320 0
92 -227 -427 0
46 395 406 0
201 -247 -272 0
60 167 358 0
-32 -138 204 0
28 173 442 0
-237 349 415 0
9 -10 -374 0
-155 248 -417 0
-237 -245 -401 0
-14 24 379 0
70 258 438 0
157 -168 -253 0
35 -369 447 0
265 -297 -347 0
75 147 411 0
284 308 426 0
125 238 265 0
-192 -281 309 0
-50 -130 -389 0
4 97 -282 0
75 101 -323 0
26 259 324 0
-15 151 -173 0
-323 364 -418 0
-95 -230 278 0
-148 -307 425 0
-200 -261 431 0
-84 -235 436 0
12 -149 -306 0
123 -161 -197 0
5 -152 319 0
29 -69 137 0
211 397 -398 0
-61 -347 -397 0
-81 260 -360 0
-100 -105 -449 0
-47 -49 -168 0
31 -215 303 0
-49 -283 300 0
-33 47 -162 0
193 -303 -318 0
-264 282 -448 0
147 -376 -380 0
167 -338 438 0
-187 -206 378 0
-83 106 -327 0
-254 -310 -388 0
49 76 -135 0
13 108 -243 0
-50 -169 217 0
-53 55 166 0
-71 -170 -355 0
-134 170 -252 0
127 -173 285 0
-175 244 -449 0
-12 160 -185 0
53 -134 441 0
-238 -355 359 0
129 248 284 0
213 388 -449 0
-74 -199 -340 0
92 -408 -426 0
170 -362 -370 0
15 -148 173 0
67 -160 -360 0
319 -387 -427 0
165 278 -428 0
-129 -134 215 0
45 -441 445 0
-358 360 432 0
64 111 418 0
-56 177 308 0
-131 155 277 0
-19 112 -441 0
-146 -247 -376 0
-125 280 -352 0
176 308 -309 0
-97 -143 -181 0
-28 154 -218 0
-6 -158 407 0
5 -101 394 0
187 237 -395 0
-134 209 -251 0
8 276 403 0
124 132 -389 0
158 184 -242 0
-107 300 -448 0
-299 -411 -447 0
-175 -243 -270 0
-264 -402 -439 0
130 273 -396 0
-177 -344 403 0
-70 -174 -393 0
36 -308 -384 0
33 220 -308 0
109 -224 351 0
10 39 408 0
110 123 262 0
110 396 434 0
-61 -376 -389 0
-31 -78 224 0
102 193 -248 0
75 -330 -404 0
-55 -99 -162 0
166 179 322 0
-116 162 -213 0
-23 171 -380 0
-51 83 240 0
-62 118 -229 0
-126 -220 246 0
30 93 365 0
101 -157 -336 0
56 -59 317 0
-118 -265 319 0
92 122 -343 0
-95 -267 -373 0
-14 388 -440 0
-237 252 -432 0
21 -184 -243 0
-167 -244 -338 0
-16 -66 -107 0
20 123 -397 0
152 -154 -257 0
257 334 -419 0
189 262 -403 0
17 -299 320 0
267 -300 -307 0
-162 -171 366 0
30 -126 221 0
-260 374 -404 0
-41 140 424 0
116 195 333 0
-35 162 -183 0
-11 238 -335 0
160 195 224 0
-37 165 203 0
278 305 449 0
-173 -187 429 0
33 -200 224 0
55 -67 -247 0
-13 58 169 0
22 62 -174 0
-133 270 323 0
40 -141 178 0
25 291 -302 0
255 283 -353 0
-119 -150 334 0
-20 -98 -410 0
121 239 -293 0
225 293 320 0
172 -233 -305 0
56 225 -362 0
79 254 -295 0
-223 365 -446 0
-335 398 435 0
-84 -404 -428 0
11 78 218 0
211 -297 -306 0
90 -108 423 0
-161 327 421 0
156 -267 345 0
88 -325 -387 0
97 219 -343 0
-58 83 442 0
-12 93 263 0
81 288 -403 0
20 -35 324 0
293 -363 -374 0
-96 252 -319 0
-5 -89 -333 0
-49 -177 -436 0
-52 -133 233 0
-20 251 349 0
127 303 -405 0
37 -198 317 0
78 -272 -304 0
8 132 222 0
-227 -235 -393 0
295 362 -379 0
12 -305 424 0
51 169 -239 0
153 -334 450 0
-141 164 244 0
265 -288 300 0
-54 387 -393 0
15 63 184 0
47 -71 -356 0
-209 407 442 0
-276 -403 -417 0
-4 -77 -180 0
27 -61 291 0
-54 250 433 0
-46 -183 295 0
-385 -435 442 0
11 -20 243 0
63 -180 -363 0
-160 438 450 0
143 -278 -445 0
213 256 396 0
-107 -183 271 0
-112 -209 375 0
-145 218 -351 0
-258 -290 382 0
153 -340 -353 0
32 -265 -401 0
95 -175 -387 0
98 -324 -420 0
-32 172 -289 0
-119 144 188 0
-183 311 421 0
176 286 431 0
-76 -81 -201 0
55 330 427 0
146 274 316 0
-68 109 188 0
55 -268 -273 0
-7 -25 345 0
-81 -107 192 0
36 -100 427 0
372 414 -449 0
-109 187 234 0
-25 -277 -349 0
-8 35 -377 0
-15 72 -150 0
283 419 439 0
207 322 -362 0
42 198 -244 0
96 272 -392 0
209 332 399 0
72 -198 236 0
55 119 -263 0
137 -299 429 0
-174 -198 -297 0
17 -297 322 0
164 -209 -268 0
-121 183 -369 0
-162 211 366 0
-67 224 -252 0
143 -156 222 0
112 -258 -358 0
286 -428 433 0
-238 -369 430 0
-44 -281 310 0
10 228 -430 0
110 314 330 0
-45 175 367 0
-134 -158 280 0
244 -265 -309 0
-21 180 372 0
78 -98 -132 0
117 317 424 0
-91 377 392 0
232 -240 -389 0
5 -225 430 0
111 -141 436 0
-29 328 371 0
73 123 322 0
-53 -287 398 0
-70 315 -431 0
93 294 429 0
-55 -106 295 0
68 -128 178 0
34 264 -433 0
64 -160 -319 0
24 171 360 0
94 -290 -328 0
55 -118 -377 0
21 110 191 0
-188 193 221 0
83 246 -249 0
195 263 444 0
-6 -318 441 0
-166 -388 -394 0
-281 -305 383 0
37 -353 429 0
-155 -260 336 0
78 347 442 0
-300 -310 419 0
-227 -360 418 0
54 -228 -351 0
102 194 -322 0
317 348 374 0
-8 29 -112 0
10 -98 -378 0
-52 124 -292 0
-135 145 282 0
32 -152 -423 0
33 59 318 0
26 42 158 0
27 95 128 0
-240 -263 349 0
-70 80 -412 0
45 -193 -366 0
16 -55 -281 0
-162 203 -226 0
90 299 396 0
99 196 246 0
35 106 111 0
333 -355 -373 0
-32 231 -346 0
178 206 267 0
128 207 289 0
134 -297 427 0
10 -130 -185 0
19 93 -300 0
-291 425 -439 0
158 359 -447 0
33 -344 -398 0
298 -314 -434 0
30 -250 -353 0
-15 -80 150 0
198 233 248 0
-179 189 -218 0
-2 -326 -361 0
30 308 365 0
89 -293 -331 0
-39 -205 323 0
263 359 376 0
75 263 437 0
-120 125 243 0
118 205 -275 0
-145 308 337 0
-210 -287 293 0
265 312 -406 0
-207 215 -268 0
132 -190 -236 0
204 -336 436 0
-83 -406 450 0
151 201 296 0
184 -432 -444 0
46 207 390 0
-145 -320 403 0
-12 -66 317 0
47 213 374 0
272 -404 450 0
-143 -171 -174 0
-244 -251 -323 0
80 121 -133 0
102 317 -326 0
128 178 -245 0
61 198 -382 0
-70 -203 413 0
111 213 272 0
-110 -170 375 0
362 401 435 0
216 -353 439 0
310 -402 -438 0
89 273 -329 0
-114 267 364 0
31 -386 390 0
-5 -73 304 0
238 -255 402 0
-59 -69 -380 0
138 221 409 0
-72 -113 -171 0
213 -290 -332 0
111 205 -324 0
134 175 368 0
-92 280 317 0
-23 195 -415 0
28 50 -174 0
117 -312 -408 0
212 368 -383 0
71 89 -375 0
-64 274 446 0
-87 -258 -396 0
7 -118 -132 0
29 92 282 0
-11 269 450 0
-25 57 221 0
19 -88 -164 0
-247 -324 398 0
153 334 342 0
-30 173 409 0
-9 -418 440 0
-16 148 -360 0
-43 -73 -99 0
-16 296 -411 0
-92 -115 428 0
263 324 -418 0
-98 -210 -397 0
-84 -130 -399 0
-11 102 359 0
179 197 -382 0
-156 215 -266 0
58 -294 403 0
3 105 -208 0
137 355 356 0
278 324 -357 0
118 269 -373 0
-138 316 445 0
237 -286 -352 0
47 -217 -344 0
7 73 291 0
-179 249 334 0
-105 163 -315 0
245 247 -289 0
-162 304 376 0
209 -308 339 0
-92 -310 -449 0
-100 -242 347 0
-228 -265 334 0
24 194 -370 0
-252 286 311 0
-57 -71 -124 0
44 -130 148 0
-63 -110 343 0
105 279 -357 0
-10 29 226 0
-32 34 406 0
165 200 320 0
42 206 265 0
30 -216 326 0
-171 -272 411 0
-90 243 326 0
341 371 450 0
156 -167 -397 0
-172 -246 434 0
-177 -398 424 0
-95 -105 140 0
-15 -51 126 0
179 -204 -271 0
-201 206 425 0
24 -92 -423 0
-91 223 422 0
-2 -280 300 0
-265 307 417 0
17 203 366 0
-18 -274 -360 0
51 -439 449 0
-107 -178 -386 0
82 199 371 0
104 -175 -345 0
-43 -110 200 0
-24 82 -326 0
60 -95 330 0
130 203 235 0
172 269 -314 0
-8 -268 -424 0
23 -257 -341 0
-16 219 -450 0
73 174 416 0
30 111 178 0
-83 134 162 0
95 213 -331 0
-268 280 -329 0
251 277 -316 0
-40 267 -270 0
-235 336 -402 0
-13 -256 -389 0
196 -412 -435 0
141 -309 435 0
98 -108 -335 0
-10 -120 374 0
264 265 414 0
-9 -32 -374 0
65 -286 433 0
122 -229 -339 0
69 173 -306 0
-6 91 -224 0
-300 -328 329 0
-82 -281 353 0
69 -277 -330 0
-293 294 -356 0
-205 210 341 0
12 92 321 0
311 -327 -420 0
139 -142 -193 0
82 149 204 0
-82 119 339 0
37 -353 -439 0
62 391 -436 0
5 338 368 0
44 241 361 0
-178 -374 415 0
-60 -287 296 0
-9 206 285 0
142 -204 320 0
253 -335 -440 0
-231 334 407 0
-52 -89 101 0
-163 -176 349 0
95 -139 282 0
-33 252 -358 0
-22 -196 438 0
-32 -317 319 0
10 -309 -407 0
-118 273 383 0
277 -366 -390 0
178 -394 -428 0
-70 -157 253 0
203 279 -372 0
-250 293 -434 0
-148 -186 339 0
-22 295 -323 0
-12 -317 446 0
6 91 -95 0
-104 -210 -443 0
-62 -158 222 0
-315 374 416 0
66 105 -152 0
-114 -387 -442 0
58 -79 -360 0
110 193 -203 0
5 168 261 0
343 -353 377 0
142 248 -396 0
223 -349 -378 0
-15 -71 -450 0
-117 -205 -437 0
215 259 324 0
140 191 328 0
-11 200 -254 0
60 -77 267 0
-117 319 391 0
-52 188 208 0
111 412 -422 0
155 230 -369 0
-273 346 347 0
-80 266 312 0
237 -267 -311 0
-71 196 -383 0
47 130 412 0
-25 -167 286 0
-151 233 258 0
243 315 430 0
56 155 -438 0
130 216 287 0
178 227 280 0
-74 -194 -448 0
23 -116 319 0
244 250 -351 0
276 -279 450 0
40 104 267 0
46 328 385 0
19 -224 362 0
20 -353 -357 0
-16 -164 -403 0
7 156 337 0
112 316 411 0
78 233 -279 0
35 176 257 0
118 -182 -285 0
-8 19 434 0
-47 -360 -422 0
139 141 -436 0
-19 -351 -410 0
-9 37 -396 0
86 220 251 0
254 352 446 0
-6 -183 308 0
-16 -404 -418 0
109 176 -196 0
72 -189 310 0
9 -11 299 0
54 -101 242 0
78 147 293 0
-26 142 253 0
-198 369 -383 0
-61 123 338 0
-52 216 -396 0
112 206 381 0
-146 -266 -377 0
-16 -104 -288 0
-173 -225 448 0
-59 -138 159 0
-12 -184 214 0
-108 -403 424 0
6 -19 -240 0
-74 229 -440 0
214 346 -347 0
148 149 -435 0
-20 123 339 0
-152 -363 -374 0
277 -278 284 0
19 -48 -114 0
-6 -159 -308 0
42 -117 225 0
50 -336 -404 0
88 338 408 0
-26 -69 80 0
-15 334 406 0
-86 361 -362 0
-183 384 -438 0
63 -135 213 0
67 -346 -413 0
-5 -137 -168 0
-73 237 356 0
-117 -142 -340 0
10 -315 -334 0
-35 -225 232 0
-11 -28 -50 0
235 241 270 0
-235 308 439 0
-166 -347 382 0
59 -245 442 0
-76 -79 -156 0
22 379 391 0
216 284 -352 0
-103 -117 -383 0
-61 -225 -340 0
-205 -215 -282 0
139 -210 -436 0
16 91 -120 0
92 -157 190 0
261 302 -304 0
128 -168 293 0
29 401 435 0
-91 95 334 0
-17 -23 68 0
-57 -336 -378 0
-290 -320 -361 0
57 -151 427 0
-263 279 -351 0
129 156 377 0
167 360 404 0
179 -195 -241 0
17 -140 235 0
68 -259 -432 0
309 329 361 0
34 171 -325 0
-18 236 262 0
17 -313 324 0
138 422 -447 0
-122 -171 260 0
-144 148 323 0
110 202 -303 0
379 -389 392 0
-128 436 -440 0
-62 308 -410 0
-84 186 431 0
-27 106 -294 0
-55 151 -408 0
-92 163 384 0
-84 146 -231 0
-365 429 433 0
139 -341 -401 0
45 111 414 0
112 377 -416 0
-294 -298 309 0
-63 344 -370 0
-96 179 -227 0
-111 -243 372 0
-5 -272 317 0
-50 199 222 0
-185 -251 -267 0
-23 349 -375 0
125 291 -379 0
118 172 -234 0
-147 -168 448 0
-23 147 246 0
-23 60 436 0
-105 -252 425 0
-12 -231 283 0
1 -175 -264 0
-71 -183 355 0
-58 349 -391 0
-64 279 344 0
37 -199 422 0
22 32 108 0
-154 176 187 0
118 -177 385 0
111 139 -302 0
12 -91 -119 0
215 -238 -390 0
-89 -220 257 0
-88 -129 -282 0
162 184 -251 0
-102 151 -263 0
46 304 368 0
-84 354 -373 0
-100 242 -334 0
23 286 299 0
-35 178 266 0
6 92 428 0
1 98 -185 0
35 128 276 0
-12 -107 184 0
-265 -383 387 0
181 233 -266 0
-244 -282 404 0
-41 342 401 0
-287 315 -325 0
-205 -360 375 0
-103 116 442 0
-235 -358 369 0
-24 135 -149 0
152 -234 327 0
118 -243 -289 0
203 221 402 0
-9 25 129 0
-320 324 -330 0
-36 212 -223 0
142 232 -362 0
-158 217 -390 0
24 142 -431 0
116 207 268 0
-40 183 -387 0
110 272 292 0
233 -265 424 0
40 -99 252 0
-52 114 127 0
71 226 -232 0
-130 -150 412 0
-324 -378 -427 0
19 87 -104 0
-66 87 -301 0
36 138 -437 0
360 386 -418 0
28 -48 357 0
-137 181 -295 0
-126 -310 -396 0
-68 -207 -318 0
295 357 -395 0
214 -292 -430 0
-147 -316 360 0
148 -189 412 0
159 172 -198 0
220 288 -376 0
141 -377 -379 0
48 -262 -312 0
112 -262 348 0
92 -265 -291 0
-161 283 284 0
27 324 399 0
-28 -206 390 0
43 146 -401 0
29 74 443 0
-189 243 -342 0
195 -265 -369 0
20 319 -332 0
103 -221 -266 0
209 247 308 0
60 233 -413 0
-292 347 -371 0
3 -274 299 0
121 -159 -161 0
-49 -326 -390 0
40 319 426 0
-17 265 360 0
-115 -190 289 0
94 -405 444 0
193 -222 368 0
229 -308 447 0
-341 344 -412 0
-109 -138 175 0
-122 240 327 0
-18 26 -36 0
-188 270 -389 0
29 -293 393 0
-33 71 -354 0
-15 -204 301 0
-116 212 -363 0
-78 255 334 0
-111 -126 140 0
-291 -308 -370 0
105 -265 -287 0
38 -53 204 0
-303 -311 -422 0
-99 309 -325 0
-18 -50 -155 0
214 364 378 0
126 -256 283 0
-250 -295 448 0
-95 -208 -335 0
-54 -220 389 0
54 206 -420 0
2 41 -166 0
-284 -331 444 0
161 282 348 0
-193 202 -311 0
-64 -282 -430 0
195 322 367 0
147 216 389 0
305 -324 -332 0
79 -166 414 0
-62 -98 -100 0
115 216 373 0
139 -185 -306 0
-285 -354 427 0
-92 -302 347 0
-36 -333 365 0
162 -171 361 0
11 13 -47 0
20 -225 415 0
120 137 -259 0
56 199 -218 0
-133 -376 401 0
-228 -315 -359 0
159 -209 367 0
-14 -38 416 0
17 -151 -446 0
66 -71 -137 0
75 -135 -221 0
-219 315 349 0
179 -214 -439 0
-103 111 -379 0
33 216 -435 0
2 -19 -152 0
51 -151 -283 0
-23 -54 -70 0
13 -28 301 0
150 158 -413 0
115 -116 -397 0
144 -284 432 0
124 -176 189 0
215 326 -406 0
191 -283 -398 0
-31 331 -368 0
-42 70 416 0
194 -226 -423 0
75 -131 387 0
325 370 -400 0
-23 184 356 0
136 -223 338 0
243 260 283 0
3 -160 361 0
-11 -34 295 0
96 252 -423 0
-153 335 -402 0
93 -164 429 0
-8 -64 -80 0
39 143 253 0
205 242 284 0
271 -285 -301 0
-84 352 -439 0
-272 -285 312 0
-169 174 -289 0
-17 -74 -449 0
163 -351 363 0
-195 -239 -437 0
-26 -162 227 0
66 231 -269 0
60 245 -250 0
7 30 269 0
-22 -190 258 0
-166 -285 402 0
16 314 368 0
78 138 -427 0
37 148 386 0
149 -200 -414 0
-19 39 -435 0
74 -141 432 0
42 187 387 0
-38 -56 -128 0
66 -199 310 0
-16 178 231 0
-49 158 379 0
187 -263 363 0
363 -385 -431 0
-59 282 -332 0
-247 -331 339 0
-137 173 176 0
12 -63 -235 0
-41 -76 283 0
7 10 256 0
175 202 224 0
-115 192 -294 0
91 93 422 0
25 133 339 0
-68 -106 -242 0
90 136 447 0
29 120 127 0
38 -233 -425 0
72 216 307 0
7 266 411 0
108 353 447 0
-75 -148 282 0
136 -205 427 0
-1 -113 148 0
89 -141 -238 0
35 -198 -299 0
-3 -9 361 0
-61 113 -312 0
-51 -192 -215 0
-79 293 369 0
-303 -329 436 0
-8 -74 441 0
-360 -407 -440 0
-146 283 293 0
-60 87 -276 0
-33 167 -303 0
-84 -128 184 0
-65 -126 196 0
156 -239 -335 0
-71 196 -358 0
-121 -146 -241 0
-376 -403 -432 0
-53 175 -253 0
106 -250 439 0
99 147 -427 0
111 145 389 0
23 322 420 0
-30 -140 -230 0
235 -367 370 0
11 47 347 0
-391 -394 -413 0
-68 -186 241 0
120 136 413 0
-100 -159 -372 0
-192 243 -252 0
-235 -243 -289 0
107 -232 349 0
72 396 441 0
74 235 383 0
15 -64 -115 0
-84 142 -434 0
52 154 323 0
86 -139 -402 0
31 -165 449 0
-144 335 425 0
346 -355 -381 0
-69 79 264 0
10 76 -275 0
250 -275 278 0
-57 -62 356 0
-103 379 398 0
161 -346 404 0
-55 -267 327 0
139 262 374 0
220 244 -300 0
67 89 254 0
-44 408 -440 0
171 -332 346 0
94 110 -371 0
-222 261 -393 0
-122 297 -364 0
39 264 -319 0
-26 69 -192 0
-145 223 -392 0
-253 331 -436 0
-58 200 301 0
-33 -284 402 0
-138 273 282 0
-87 -161 248 0
-1 -293 390 0
208 381 -445 0
-23 -77 -228 0
-246 -266 -412 0
-227 305 -326 0
-37 398 421 0
73 -149 440 0
-303 -333 -354 0
60 220 -279 0
277 292 439 0
83 172 -287 0
-76 -102 414 0
-116 155 -177 0
24 -139 -194 0
95 -167 299 0
-24 -53 312 0
49 -170 311 0
182 372 -401 0
-350 356 384 0
-135 -153 -247 0
-147 163 -362 0
134 316 372 0
5 106 -188 0
-46 276 377 0
37 45 349 0
91 -292 -300 0
-110 275 426 0
70 -151 -407 0
-86 314 -428 0
-20 -44 -398 0
-93 204 -333 0
-58 284 390 0
-257 -273 385 0
126 143 279 0
-153 -200 211 0
186 -206 -356 0
116 -223 232 0
262 -267 -309 0
-150 -379 -406 0
-119 -381 387 0
-23 150 276 0
105 233 -282 0
121 181 -306 0
-18 -200 385 0
-40 148 398 0
-206 293 339 0
-72 111 -273 0
194 -244 342 0
-364 -430 -437 0
120 -351 -394 0
127 -198 -357 0
63 390 -392 0
185 303 313 0
32 -286 -331 0
101 269 384 0
33 339 345 0
124 -231 -260 0
120 -226 245 0
-174 234 329 0
-69 127 -290 0
167 270 -333 0
70 -202 -294 0
-308 384 -424 0
-2 -150 277 0
-245 263 -308 0
68 -87 421 0
44 -151 -223 0
35 -136 395 0
112 -395 -437 0
-243 -318 400 0
178 -202 -368 0
53 -291 364 0
170 219 -322 0
121 -360 -376 0
-135 190 280 0
85 246 -445 0
276 -348 415 0
-84 -386 -388 0
251 -276 296 0
20 153 -156 0
238 321 -444 0
-103 -261 350 0
96 -153 267 0
-10 -26 224 0
118 -194 -400 0
-7 39 375 0
134 318 328 0
-26 349 -353 0
-50 -128 444 0
33 299 -446 0
22 182 -313 0
135 -234 -342 0
88 258 -382 0
-28 -226 -282 0
150 378 -438 0
-189 -265 410 0
-192 224 -360 0
10 185 -302 0
-31 -96 -190 0
-3 -154 231 0
-240 287 423 0
344 -355 381 0
120 -247 -303 0
119 -162 362 0
-46 -122 173 0
166 351 446 0
-230 -324 447 0
133 -185 -227 0
48 51 -224 0
-11 42 -353 0
-39 -103 299 0
-24 -354 400 0
22 216 306 0
174 343 -423 0
152 158 -206 0
-63 81 -171 0
-2 44 69 0
210 248 386 0
-25 202 -208 0
93 -420 -442 0
-94 -225 417 0
32 -312 366 0
209 -411 -450 0
189 -233 299 0
80 360 -427 0
136 -137 -290 0
21 267 358 0
146 -377 -441 0
53 242 -387 0
162 -243 -304 0
-106 -344 385 0
40 160 203 0
-48 133 -281 0
312 -320 422 0
10 189 425 0
45 -121 373 0
69 -183 -346 0
122 250 -302 0
-44 -104 416 0
-38 -103 275 0
-210 249 -446 0
-60 -269 385 0
195 -312 -385 0
39 357 393 0
79 -354 -424 0
76 137 -389 0
-156 -311 358 0
43 174 -194 0
94 173 272 0
-4 -128 172 0
-130 -205 275 0
-10 -95 -419 0
-139 374 402 0
16 140 -291 0
307 310 -399 0
-130 -231 417 0
-30 -302 354 0
-140 254 -405 0
-17 107 234 0
-136 220 312 0
349 -429 -443 0
-93 164 348 0
181 242 357 0
-209 362 402 0
167 -239 320 0
-45 -191 -294 0
-67 70 -389 0
53 108 -223 0
-87 299 -355 0
124 150 -282 0
-38 -191 -414 0
-79 232 -312 0
74 -86 300 0
-159 232 404 0
-142 -160 -353 0
-230 302 373 0
-413 420 -433 0
-70 -113 368 0
268 -273 288 0
87 348 355 0
78 -144 -350 0
147 184 -235 0
-15 75 -290 0
-118 -217 -303 0
-372 410 -428 0
110 -132 158 0
-104 275 439 0
214 229 -277 0
16 -100 -325 0
-10 -262 384 0
118 380 435 0
-57 -263 -341 0
-188 -275 416 0
-44 213 252 0
88 -223 255 0
-114 -375 381 0
191 246 -422 0
43 190 -298 0
-101 238 264 0
57 -215 242 0
-144 147 388 0
-86 -362 373 0
102 -154 158 0
-29 311 -437 0
8 -105 -345 0
85 243 319 0
-75 79 -420 0
-24 -125 360 0
14 130 446 0
30 -242 -364 0
31 -235 -373 0
-27 -197 339 0
82 -173 -234 0
-78 237 310 0
-173 -364 -412 0
43 -244 -448 0
3 62 80 0
123 -180 -222 0
-252 -257 409 0
83 158 -391 0
63 228 250 0
252 329 -443 0
67 -393 -409 0
-349 -376 439 0
34 -55 -99 0
-51 -84 -169 0
135 170 -296 0
125 165 260 0
-183 356 -439 0
180 -415 -429 0
85 199 404 0
82 -97 -329 0
-104 -143 -326 0
120 161 -249 0
-84 85 -170 0
-116 -207 348 0
58 111 -213 0
-255 -315 376 0
-170 -205 -398 0
74 106 323 0
209 -228 -369 0
30 281 -284 0
103 -169 222 0
-100 396 -443 0
-219 -255 -283 0
-55 -70 268 0
-5 7 273 0
31 -61 -131 0
-258 -335 -406 0
191 271 401 0
236 348 401 0
131 -270 286 0
39 -78 -276 0
12 126 -214 0
-34 112 -331 0
-157 -186 322 0
-13 -152 167 0
217 -239 -351 0
-52 -253 -313 0
28 239 -391 0
-224 232 248 0
-219 277 312 0
11 269 440 0
121 198 266 0
-143 203 429 0
-13 -150 -210 0
-69 -129 -275 0
-273 315 368 0
-245 399 418 0
10 -176 -394 0
-72 -355 372 0
171 -173 -259 0
266 386 -423 0
-174 -177 227 0
-68 172 -284 0
210 -382 -434 0
-40 108 -204 0
60 153 -395 0
-150 -380 433 0
-262 264 367 0
5 -48 234 0
253 -439 -446 0
83 200 -446 0
-28 300 346 0
-315 371 -375 0
-208 -340 429 0
-71 -174 -385 0
-74 109 244 0
-10 -38 -75 0
-46 -138 448 0
-124 -164 -278 0
23 -209 -394 0
-99 156 273 0
-132 231 -239 0
22 -157 184 0
-155 168 -217 0
7 -211 272 0
-103 -146 443 0
-8 377 -409 0
-150 273 -350 0
302 342 -375 0
-161 294 411 0
224 305 361 0
7 53 -364 0
123 230 -268 0
56 -335 -371 0
-174 -274 -278 0
-55 -173 200 0
-15 -116 270 0
36 209 -341 0
232 -261 372 0
-150 -306 426 0
54 327 -427 0
9 -24 155 0
-13 123 238 0
286 -406 432 0
202 267 418 0
98 147 180 0
78 79 88 0
205 325 -442 0
60 206 383 0
113 -355 -364 0
-21 -169 375 0
98 351 -402 0
-44 -113 278 0
-44 -272 297 0
39 -68 -268 0
17 -121 -392 0
-58 -76 272 0
-290 366 -434 0
365 372 435 0
26 110 307 0
39 -43 -213 0
34 -170 -395 0
111 -153 331 0
-157 -173 385 0
215 304 -348 0
83 237 318 0
-134 -150 -323 0
152 370 442 0
90 -358 376 0
93 -159 432 0
-7 -65 288 0
-163 297 410 0
-70 79 -277 0
7 130 299 0
-110 -164 374 0
-120 238 -377 0
30 310 436 0
-257 -284 329 0
276 338 -345 0
-26 -212 -295 0
180 226 320 0
-84 122 440 0
-68 -341 400 0
-22 224 366 0
-100 -123 -375 0
-246 311 -342 0
192 -268 276 0
151 255 -396 0
-45 -60 -296 0
41 89 185 0
-130 -289 344 0
-202 -334 377 0
-58 71 -430 0
139 -157 424 0
-45 -275 -328 0
58 75 416 0
41 138 -342 0
15 -275 -387 0
-82 -216 -361 0
-72 -252 352 0
82 -103 373 0
-320 338 360 0
-248 -355 387 0
57 -182 -429 0
109 -315 -415 0
-155 245 247 0
-36 143 -427 0
-102 -134 358 0
-160 286 -306 0
187 379 425 0
102 -297 -397 0
45 -253 397 0
-170 -203 322 0
-21 -124 -295 0
-177 212 422 0
55 375 -429 0
170 266 354 0
87 230 443 0
2 111 -359 0
-45 -189 309 0
-114 222 328 0
180 -230 293 0
-129 144 -257 0
141 147 411 0
56 133 -215 0
153 -171 -220 0
112 388 435 0
-204 349 425 0
260 -354 392 0
66 131 -289 0
136 363 -438 0
62 108 -395 0
-208 -323 445 0
-46 -279 -339 0
1 61 -436 0
-133 335 -433 0
-77 108 -267 0
-66 390 -446 0
-110 134 343 0
75 111 -333 0
6 -102 -145 0
60 -289 416 0
109 -130 131 0
171 235 -401 0
-46 168 -317 0
38 376 433 0
-14 88 174 0
6 227 -326 0
-46 -167 201 0
198 213 -305 0
-17 212 433 0
76 150 361 0
-124 -318 320 0
140 306 -406 0
-9 44 336 0
8 -267 383 0
-67 -108 -192 0
-232 -372 -416 0
136 181 -440 0
-326 408 -439 0
11 134 364 0
-77 -305 -395 0
-90 190 -215 0
33 152 -435 0
-89 250 329 0
-259 -298 -316 0
-64 -143 -199 0
-153 417 -438 0
-6 134 -217 0
-264 -335 -406 0
137 311 337 0
-260 337 380 0
112 -148 -430 0
57 -171 -397 0
-27 98 159 0
5 -152 243 0
129 -267 382 0
-144 432 -434 0
-150 333 -424 0
-70 -137 -384 0
-380 -390 439 0
-324 -394 399 0
144 185 402 0
88 326 397 0
-170 -202 -322 0
-123 258 -396 0
-310 382 -413 0
-257 -277 340 0
145 -215 -312 0
-125 -285 -348 0
-35 56 317 0
-184 -406 428 0
168 394 396 0
220 -359 -392 0
-57 140 -305 0
3 199 407 0
103 -291 393 0
81 105 -236 0
27 137 -328 0
-4 -153 -389 0
278 301 395 0
43 106 429 0
-18 -161 -360 0
-255 -325 447 0
-84 -137 251 0
-252 -260 273 0
-48 -79 -318 0
74 -281 -349 0
-28 -163 -418 0
144 -256 -440 0
44 151 315 0
-262 -293 365 0
34 -131 -251 0
-27 220 -382 0
-65 -186 198 0
17 106 423 0
86 228 -305 0
-302 -332 -361 0
-143 -295 400 0
334 353 431 0
76 206 237 0
306 -361 408 0
255 282 -357 0
210 -232 -269 0
68 -236 314 0
53 -270 -327 0
153 -260 -448 0
196 235 373 0
23 -135 229 0
-120 301 -351 0
-31 -126 324 0
-61 -281 328 0
-137 253 -408 0
50 166 -208 0
298 -327 351 0
-65 -241 416 0
101 -374 448 0
54 -80 193 0
133 -438 -442 0
-101 137 -224 0
-40 59 -306 0
214 -382 -437 0
46 -197 -378 0
255 375 -393 0
150 -171 242 0
163 290 -353 0
-115 -244 272 0
-313 -352 440 0
46 279 302 0
2 258 267 0
-70 -379 -431 0
6 -349 378 0
-57 129 -424 0
164 -253 -384 0
42 -46 -339 0
274 -435 -442 0
262 -359 404 0
112 -285 322 0
66 -114 238 0
-73 103 359 0
13 -43 149 0
-7 -152 -279 0
124 -184 -335 0
143 -187 431 0
49 145 185 0
44 -162 -333 0
-173 -245 316 0
-184 -320 384 0
-34 122 373 0
52 320 442 0
-138 -273 391 0
54 118 -136 0
-69 -71 -331 0
-83 -160 -334 0
24 205 -221 0
96 -267 334 0
-6 -17 -27 0
107 131 192 0
65 106 411 0
122 306 396 0
-260 305 -389 0
19 -56 335 0
206 -233 -296 0
339 -428 -429 0
254 -316 -373 0
-125 390 -436 0
125 -137 -167 0
-295 -329 444 0
-86 -149 380 0
-6 49 417 0
-88 -200 246 0
-106 -234 -330 0
-149 212 -363 0
8 343 378 0
-46 -400 -420 0
-2 -114 -258 0
15 437 -439 0
-99 167 393 0
98 290 411 0
-19 -176 443 0
-25 62 -178 0
148 -247 333 0
19 120 -295 0
152 182 354 0
38 -420 429 0
-26 101 -141 0
-208 352 -377 0
33 -332 409 0
162 -235 287 0
34 365 421 0
-66 -128 169 0
138 -263 314 0
-300 304 -312 0
9 -45 -283 0
-76 237 -395 0
-87 -183 387 0
179 -324 382 0
-202 361 -393 0
90 397 428 0
-92 121 -395 0
57 -60 211 0
-64 -231 295 0
-106 177 -402 0
75 -267 -416 0
-24 331 422 0
-198 207 -436 0
91 159 364 0
125 199 238 0
185 272 386 0
144 -183 -185 0
168 196 -352 0
-71 -391 -430 0
-66 -87 -441 0
-3 304 359 0
2 136 -267 0
-19 -75 -269 0
-96 212 -246 0
-49 -58 80 0
101 314 371 0
-33 -56 -314 0
3 -220 -257 0
-63 257 -336 0
119 222 -405 0
7 89 -367 0
-48 -319 -394 0
-56 -250 -302 0
336 -374 -379 0
261 -277 357 0
-286 -298 -327 0
-277 314 436 0
-9 -175 237 0
-79 -116 -365 0
-108 -152 213 0
-15 -184 -209 0
-107 372 431 0
80 -229 356 0
38 83 -187 0
-186 -312 -313 0
92 -222 -377 0
177 -370 398 0
-238 -272 -318 0
26 -152 274 0
-121 163 346 0
71 146 178 0
-157 256 -442 0
28 238 359 0
-157 295 -380 0
-98 401 -444 0
-39 -201 320 0
-234 277 -355 0
-34 252 449 0
65 -187 215 0
-72 -344 -437 0
-136 -228 -361 0
-210 -433 434 0
-115 -177 206 0
-77 -136 365 0
-142 144 236 0
91 -305 417 0
104 -311 335 0
91 -184 364 0
175 230 -444 0
-150 -301 -313 0
-73 -98 -162 0
27 297 -382 0
1 -369 413 0
-242 -275 -332 0
117 205 -269 0
228 -247 -333 0
-34 -89 387 0
-297 -305 432 0
-323 325 -362 0
-194 -301 -312 0
98 244 245 0
146 -317 -361 0
-17 100 -385 0
22 133 -142 0
-248 270 344 0
-163 -192 354 0
-148 151 -214 0
-94 -298 346 0
-97 142 -313 0
-191 224 402 0
176 204 299 0
242 307 -362 0
26 301 -412 0
-267 355 443 0
-103 -227 -239 0
133 146 149 0
16 311 -317 0
-123 -172 444 0
118 -202 304 0
11 288 334 0
-7 -249 -406 0
91 270 -384 0
-66 326 -376 0
-34 315 -381 0
-7 -331 393 0
-50 164 345 0
272 -304 -406 0
82 -100 -196 0
-178 208 -299 0
146 349 366 0
75 82 121 0
123 -161 -376 0
-37 298 -376 0
-14 263 380 0
-56 60 379 0
-29 -231 -445 0
81 -325 -410 0
59 213 -394 0
237 411 437 0
207 -227 350 0
-50 196 -392 0
-47 -70 -149 0
32 173 411 0
291 392 -433 0
55 159 362 0
-266 422 431 0
-161 378 423 0
176 314 -376 0
-205 216 -245 0
134 -208 441 0
-72 101 -355 0
-260 283 399 0
-108 210 243 0
220 348 -351 0
39 -68 -248 0
52 332 344 0
-172 -275 384 0
-245 295 -330 0
-92 127 441 0
74 184 223 0
162 -216 242 0
-84 -109 315 0
-231 270 398 0
59 -233 -253 0
-36 -65 83 0
-161 -177 -316 0
-57 -127 198 0
348 361 428 0
-13 -207 217 0
-64 -322 347 0
152 -195 -429 0
-7 -12 211 0
159 -397 -404 0
-71 88 244 0
-61 -153 198 0
-63 -131 186 0
272 -281 -313 0
-167 178 -365 0
-1 -35 118 0
209 395 442 0
-157 164 343 0
41 47 -219 0
-250 359 -390 0
392 414 -426 0
140 -238 -289 0
1 215 371 0
-113 144 -257 0
171 315 -406 0
-137 -325 422 0
100 426 429 0
-8 -163 -422 0
14 -148 -166 0
-36 -395 -431 0
-127 -206 -209 0
-202 -229 -384 0
8 -36 135 0
-68 -265 -398 0
-259 -294 441 0
-211 -245 -283 0
-3 78 -363 0
107 -127 258 0
-129 303 381 0
37 152 182 0
-25 -156 358 0
188 -265 -289 0
226 334 357 0
-187 -200 -249 0
100 -195 -356 0
-88 -197 -277 0
135 -188 261 0
-140 -186 -391 0
-163 337 -339 0
172 -176 210 0
34 137 290 0
-23 57 -185 0
199 -377 -382 0
-61 282 448 0
203 210 -397 0
68 236 312 0
67 159 -420 0
61 172 277 0
-2 -364 395 0
25 -115 -381 0
-3 36 -73 0
-68 333 -437 0
6 -189 350 0
-115 128 -228 0
-26 -126 346 0
-6 24 -370 0
135 248 427 0
167 184 195 0
-80 232 -345 0
122 -244 326 0
252 -311 -312 0
10 67 -129 0
11 -156 253 0
160 -194 -391 0
189 349 438 0
273 -332 -397 0
142 201 405 0
-9 -61 284 0
49 230 381 0
-118 228 -404 0
31 195 -318 0
-63 -346 -365 0
43 -110 289 0
37 -291 365 0
-292 -362 393 0
322 384 -402 0
180 188 -308 0
-3 202 295 0
-240 353 386 0
280 315 -375 0
201 377 -406 0
-159 -194 280 0
36 -92 441 0
153 222 229 0
54 202 359 0
-151 -168 169 0
51 -69 -403 0
-279 355 -436 0
-18 -348 363 0
123 187 380 0
88 195 -319 0
-33 -50 -145 0
-6 25 198 0
93 -200 295 0
-115 -228 -357 0
-18 124 308 0
-188 235 304 0
124 -166 -218 0
-142 -198 -362 0
-12 -80 206 0
70 384 -425 0
92 117 285 0
-163 -194 255 0
57 140 165 0
247 -252 400 0
7 -161 -366 0
3 -31 346 0
-223 -282 -303 0
97 118 -319 0
118 415 -417 0
14 389 417 0
-12 -141 386 0
102 -362 -378 0
25 36 -122 0
228 -377 -378 0
23 -174 181 0
270 -337 368 0
-71 -378 -380 0
-177 337 -440 0
27 247 442 0
153 194 318 0
156 296 -304 0
11 20 163 0
-9 36 -191 0
109 -220 -312 0
40 -88 -306 0
17 -105 184 0
-35 -281 -380 0
210 -383 402 0
-58 95 -366 0
-62 -144 301 0
232 256 -262 0
6 8 -159 0
39 271 385 0
-137 175 -328 0
193 -324 -393 0
23 -209 381 0
-78 -167 -409 0
136 -312 -347 0
-63 -404 409 0
357 378 -426 0
-145 -156 348 0
-219 276 359 0
42 317 -384 0
2 -170 375 0
328 -350 402 0
139 175 -402 0
11 139 -353 0
-338 395 411 0
-68 334 -399 0
-38 151 330 0
83 226 427 0
-35 -66 165 0
132 137 372 0
-129 -298 -449 0
-4 -389 -444 0
182 -328 440 0
-225 -275 -288 0
-94 -150 227 0
-145 -185 -373 0
102 -147 -379 0
-7 -218 -376 0
46 -111 -209 0
90 279 433 0
106 290 424 0
-24 -97 -320 0
-57 117 218 0
-15 168 -207 0
92 -199 -418 0
356 407 -438 0
15 263 324 0
20 -56 190 0
-131 203 -425 0
-32 245 -401 0
