p cnf 450 1917
70 -267 -295 0
-17 -30 -393 0
-2 119 142 0
121 218 258 0
44 166 -205 0
-56 -232 437 0
18 101 -385 0
67 324 -446 0
293 370 414 0
41 -84 -288 0
11 146 -284 0
-151 -290 -309 0
187 -247 421 0
-170 -192 -435 0
21 95 -396 0
-11 -113 -433 0
38 -73 -423 0
-198 332 -395 0
-81 -161 -436 0
-85 152 -281 0
1 337 441 0
18 128 367 0
-75 88 -111 0
261 326 -376 0
10 -399 -419 0
-186 -306 368 0
-117 -257 415 0
110 -175 362 0
22 337 387 0
-42 -174 182 0
-2 103 -155 0
-41 73 -422 0
-148 -166 261 0
-143 296 449 0
35 -236 -436 0
-211 -264 -417 0
30 351 376 0
-120 318 364 0
-43 281 406 0
-192 272 -345 0
122 -171 -288 0
-42 -147 221 0
-270 -289 408 0
-113 407 -438 0
-27 37 -365 0
-12 -45 -124 0
102 -110 385 0
-280 -300 -319 0
29 -223 -240 0
88 -222 -265 0
-37 -168 365 0
-138 -265 379 0
-203 -298 368 0
65 175 -325 0
-62 153 -232 0
304 383 437 0
98 -184 -364 0
-99 199 230 0
51 245 407 0
49 266 408 0
-286 314 -329 0
42 81 204 0
213 -383 418 0
265 -347 -376 0
-6 425 -436 0
-144 -179 -273 0
299 -377 -416 0
43 46 120 0
121 232 -317 0
183 370 -420 0
-122 -209 305 0
-111 112 375 0
-60 76 176 0
-304 -371 -417 0
130 -170 -405 0
289 -309 392 0
91 228 -405 0
81 208 -403 0
102 -158 246 0
-67 89 141 0
-167 292 298 0
-159 245 292 0
-149 161 434 0
-20 142 -195 0
73 208 389 0
62 269 414 0
23 112 -204 0
-41 -145 -269 0
-74 337 -424 0
-28 -344 391 0
-67 -294 382 0
-247 255 -380 0
63 242 -407 0
-90 296 364 0
104 -281 284 0
-222 248 264 0
-11 -147 321 0
66 -135 250 0
-139 218 239 0
-122 -339 426 0
138 203 -217 0
110 -159 -232 0
3 -300 -351 0
32 -153 -241 0
51 278 -432 0
26 233 409 0
18 -100 201 0
19 107 375 0
92 -145 378 0
-60 348 -369 0
-50 266 448 0
-29 92 121 0
-263 -323 413 0
21 294 340 0
16 93 -316 0
96 -109 -213 0
-33 50 -267 0
-80 -288 388 0
73 -186 -392 0
-83 373 -391 0
-160 324 -444 0
100 251 273 0
-111 -121 124 0
-141 -240 448 0
30 -52 141 0
-64 -401 442 0
-248 -305 314 0
53 326 444 0
94 135 -263 0
-27 82 154 0
73 -150 419 0
-66 -122 -427 0
-83 180 -228 0
98 -242 -440 0
118 -347 -440 0
249 -254 -310 0
34 37 -68 0
-189 -297 336 0
-16 -51 -186 0
80 -247 -298 0
40 -265 -328 0
50 -143 -433 0
-47 194 447 0
12 63 448 0
-140 234 -286 0
-32 -125 -270 0
15 -42 -133 0
67 -160 375 0
116 326 -362 0
-250 342 -360 0
129 -183 229 0
-95 -210 244 0
-179 189 413 0
-121 -139 -291 0
93 318 377 0
-113 357 -414 0
76 364 -447 0
-164 -366 382 0
108 332 -429 0
243 444 -449 0
-146 -164 396 0
-149 174 -268 0
-74 -83 383 0
50 64 284 0
-267 337 348 0
-67 144 -397 0
231 -300 331 0
-27 -127 -446 0
-125 -158 -346 0
138 279 317 0
22 -178 416 0
10 -92 245 0
-3 -122 350 0
138 -219 -265 0
-3 -82 319 0
224 -326 -341 0
224 -304 -329 0
188 -195 204 0
151 -309 370 0
-204 306 435 0
52 120 -219 0
80 -182 -249 0
178 220 -369 0
123 229 364 0
230 -377 422 0
-40 -332 -386 0
1 69 -355 0
245 298 380 0
95 -121 -294 0
24 65 -113 0
-170 393 -394 0
154 -259 -310 0
84 -219 448 0
17 165 -309 0
-75 195 -333 0
-11 -100 -311 0
51 298 -303 0
199 -218 -303 0
91 169 429 0
-78 -357 396 0
-1 169 381 0
2 -233 -329 0
25 -108 -220 0
150 -279 -358 0
-90 -249 399 0
-79 271 -280 0
-111 159 -263 0
-275 -286 -394 0
-41 -310 -338 0
39 167 -447 0
11 -235 -239 0
19 192 -333 0
-17 -48 -254 0
-44 309 -397 0
226 -303 397 0
21 -62 91 0
-230 -325 -444 0
-61 -277 -286 0
-81 -118 -409 0
-190 -214 -389 0
168 174 314 0
7 35 -260 0
42 -394 421 0
79 250 277 0
-114 -363 388 0
118 -316 -408 0
85 -112 325 0
-49 -153 387 0
43 -137 392 0
18 -88 -241 0
34 159 364 0
61 147 192 0
-79 113 -134 0
157 -355 -429 0
141 -386 424 0
-360 -433 442 0
-137 239 359 0
10 -268 316 0
103 235 -339 0
76 -192 329 0
49 199 439 0
-102 323 430 0
140 286 -303 0
-284 350 -414 0
-145 -319 -433 0
-47 252 -386 0
170 221 -319 0
83 -284 356 0
37 -81 318 0
30 414 444 0
-165 -235 416 0
24 -115 198 0
293 424 433 0
308 353 394 0
-260 -379 444 0
160 249 -352 0
-232 -305 -341 0
68 146 -168 0
-93 100 -425 0
-78 -127 450 0
190 -358 424 0
-37 -44 267 0
-64 -70 415 0
354 -433 447 0
81 -250 -322 0
61 145 417 0
40 -140 -414 0
-70 -216 -395 0
-194 305 338 0
-34 -240 -263 0
-265 -282 415 0
-70 -378 -423 0
50 193 -382 0
198 252 -295 0
60 -139 323 0
-126 229 264 0
-168 -174 -442 0
170 -279 332 0
66 291 -419 0
-196 -337 -342 0
-5 48 -438 0
-71 211 -291 0
-122 -181 276 0
284 -312 449 0
-193 -288 -305 0
28 252 380 0
-232 -241 347 0
62 236 -366 0
-22 52 79 0
3 230 347 0
21 -143 -159 0
-33 138 269 0
57 -66 166 0
-247 -248 -266 0
-87 102 -186 0
-210 -246 372 0
241 249 400 0
276 383 -419 0
213 294 387 0
-16 72 -86 0
146 -295 -304 0
165 -169 -246 0
13 -31 -128 0
-19 216 -400 0
25 158 -239 0
-47 -263 327 0
-60 81 -403 0
172 277 353 0
108 264 309 0
16 175 -366 0
-11 -72 -93 0
50 -169 -265 0
36 -37 -414 0
-125 304 -385 0
-7 227 362 0
-87 -171 383 0
228 -350 -372 0
30 -117 216 0
-28 130 -327 0
-299 -331 370 0
-80 -164 -208 0
-55 145 -292 0
-42 -198 328 0
97 276 -444 0
278 395 -413 0
14 24 315 0
-6 99 423 0
-287 -290 -360 0
-24 -86 215 0
-91 372 389 0
37 291 -314 0
101 267 324 0
149 334 -360 0
123 163 -212 0
-80 94 -163 0
-93 212 389 0
-5 11 -342 0
45 -367 -441 0
14 -125 373 0
-72 112 -136 0
-136 287 317 0
300 438 440 0
-15 224 -260 0
78 243 -381 0
153 -229 429 0
-39 -240 446 0
55 -91 335 0
-276 -297 396 0
-271 -306 446 0
144 225 -239 0
8 152 193 0
203 -210 363 0
67 121 -258 0
42 190 277 0
-153 -338 380 0
189 -381 438 0
-9 277 383 0
-4 48 135 0
-41 -239 306 0
13 214 -284 0
33 162 202 0
346 376 443 0
-61 -353 432 0
-246 -364 398 0
-21 153 -231 0
-95 156 397 0
52 334 -351 0
132 240 341 0
83 -102 -416 0
92 -309 334 0
288 -349 -357 0
164 -272 279 0
-91 -336 -399 0
80 -138 341 0
-21 -47 425 0
-156 -210 324 0
-227 -278 284 0
-250 370 -385 0
140 208 -409 0
137 -192 197 0
-145 -242 328 0
122 -219 437 0
50 -205 256 0
130 -354 384 0
-232 335 -369 0
27 197 -260 0
-198 267 410 0
-81 214 400 0
-218 301 -321 0
99 214 416 0
-50 212 -242 0
-90 -141 180 0
19 221 -316 0
150 -252 -272 0
-100 248 443 0
-114 -255 329 0
-126 -307 -410 0
219 -341 -424 0
67 83 385 0
59 -320 358 0
319 364 391 0
-262 -314 396 0
-217 -316 -400 0
-23 -51 410 0
-27 47 -197 0
-61 408 -435 0
111 -161 172 0
-2 -389 447 0
34 161 -381 0
207 378 -402 0
82 291 448 0
113 -116 227 0
-102 -181 252 0
103 -123 445 0
-245 376 449 0
19 29 392 0
-8 56 -364 0
-243 -358 447 0
66 134 378 0
224 -239 -250 0
238 277 -442 0
41 -148 -225 0
-177 213 -310 0
-120 208 310 0
-192 -212 -343 0
198 -205 -434 0
222 -290 -322 0
-175 180 -305 0
121 -188 231 0
-1 -109 -346 0
-123 -185 244 0
-309 -310 440 0
-55 267 -425 0
11 -90 169 0
209 -327 -368 0
52 285 402 0
202 214 -279 0
-67 111 346 0
118 -351 368 0
-4 -75 448 0
-19 99 365 0
86 -340 387 0
-65 289 -372 0
148 292 -332 0
41 130 391 0
-67 -173 228 0
15 51 215 0
205 250 -420 0
-128 243 305 0
-4 -112 -182 0
-148 193 420 0
-80 210 -361 0
-66 69 395 0
241 -295 420 0
70 -182 323 0
-1 342 438 0
-100 -232 -426 0
-360 382 -395 0
4 -67 -356 0
-71 109 294 0
118 227 -337 0
128 -209 -288 0
-39 309 352 0
173 -256 -419 0
86 -101 419 0
31 237 407 0
302 -314 -376 0
66 204 338 0
44 244 398 0
-81 289 340 0
-215 -373 374 0
-33 174 -197 0
-30 -304 365 0
-11 -59 361 0
30 -47 117 0
283 -358 432 0
-121 -246 -415 0
-39 -88 256 0
244 316 368 0
-87 -209 371 0
9 -10 -71 0
-40 -86 138 0
194 -248 384 0
26 -243 424 0
66 -227 338 0
-47 -87 -234 0
239 265 -309 0
14 -28 -278 0
31 -222 346 0
-305 -384 408 0
28 -59 97 0
65 283 -352 0
247 -378 406 0
117 -192 343 0
163 341 -399 0
-14 91 119 0
-101 -109 390 0
-50 -137 -353 0
-248 -272 -337 0
-30 -38 234 0
65 -124 228 0
-173 309 370 0
-4 -317 -389 0
1 -89 110 0
89 -234 -421 0
-244 252 377 0
64 141 339 0
-14 110 -143 0
67 -76 -330 0
136 236 -333 0
-188 415 -417 0
4 303 313 0
42 213 -409 0
137 173 248 0
-178 205 325 0
188 -254 -415 0
-239 -357 -405 0
244 336 -428 0
141 -337 418 0
147 148 344 0
-183 -201 435 0
-238 321 439 0
-136 -194 329 0
-49 69 -222 0
56 83 -295 0
-116 -157 -231 0
-147 -157 -237 0
425 438 -450 0
48 279 326 0
-24 211 345 0
-92 105 207 0
-5 -16 -412 0
57 -174 -421 0
-217 -266 318 0
132 -249 -397 0
-184 222 280 0
-39 40 242 0
-69 326 -403 0
87 288 -443 0
79 103 -105 0
-286 -288 328 0
194 -271 -315 0
-62 111 -176 0
9 -55 -369 0
56 93 443 0
-80 100 111 0
-50 -117 -204 0
86 263 -380 0
32 178 -230 0
68 261 279 0
225 260 296 0
21 -94 -160 0
-61 192 -402 0
-150 -185 -232 0
-8 -408 -409 0
127 -203 223 0
-141 290 -390 0
351 403 406 0
49 -274 417 0
-206 231 283 0
-91 -186 -203 0
-205 279 398 0
-315 -358 410 0
-100 203 -240 0
-143 -154 -390 0
73 136 -407 0
-70 -171 -367 0
-53 -132 -367 0
-187 -208 -297 0
-65 -370 -416 0
-177 230 -251 0
-179 -253 -399 0
-37 -116 -164 0
-174 -257 371 0
242 250 282 0
15 46 -56 0
-4 57 328 0
176 -205 -425 0
-70 -311 -368 0
363 -383 424 0
-142 -288 353 0
37 297 425 0
2 -114 -447 0
189 308 343 0
44 197 -341 0
133 -178 -262 0
-305 -336 -349 0
-12 291 -359 0
145 -374 413 0
-127 178 219 0
-120 207 304 0
24 140 289 0
33 66 -265 0
85 -423 -441 0
-256 260 299 0
37 -242 -358 0
-97 111 434 0
-55 -341 -345 0
-9 -231 248 0
42 -198 -420 0
-165 381 -433 0
10 -145 -241 0
123 242 398 0
-210 240 -379 0
-58 -370 397 0
-167 198 260 0
-131 282 292 0
-264 275 368 0
52 -54 -243 0
-36 273 -450 0
370 -396 439 0
154 215 261 0
-94 -410 413 0
129 262 -372 0
80 -260 -325 0
58 -84 263 0
-146 -369 412 0
-121 -363 399 0
-99 304 -420 0
-76 -154 423 0
-27 126 437 0
117 -356 397 0
237 377 -436 0
-125 -133 181 0
185 336 423 0
79 220 229 0
237 -321 -421 0
-282 438 -443 0
125 -226 256 0
-23 78 335 0
-155 170 -448 0
-16 -199 -246 0
-35 -139 370 0
80 -124 277 0
80 317 396 0
-205 363 -370 0
15 121 421 0
-28 -369 -422 0
-250 -306 382 0
-122 301 441 0
338 347 -399 0
48 239 285 0
160 -261 -380 0
-48 -150 -186 0
-59 200 -252 0
49 165 -225 0
-164 -243 -428 0
197 -250 379 0
-178 193 -418 0
35 -188 -401 0
-146 212 355 0
11 -67 -372 0
99 -128 -229 0
160 263 -371 0
-54 -427 446 0
114 217 384 0
-43 -260 -352 0
192 315 427 0
-280 307 344 0
48 53 -215 0
-92 -224 -388 0
96 341 353 0
82 -118 -225 0
-84 -276 403 0
-186 190 -439 0
139 269 283 0
115 180 -273 0
-101 -210 -437 0
-122 -287 289 0
-29 113 444 0
-90 -145 -222 0
-35 135 258 0
-133 -209 400 0
-4 21 49 0
-6 68 176 0
-128 -158 254 0
-167 -315 -403 0
70 -350 417 0
58 92 -321 0
-8 -133 -303 0
261 269 405 0
166 -241 -288 0
189 301 -330 0
-13 -59 -263 0
321 434 -447 0
-121 297 -437 0
-191 -353 -373 0
-18 -36 385 0
-247 326 417 0
-141 -178 -307 0
-100 -335 -343 0
-20 269 305 0
259 263 -264 0
187 398 -444 0
-98 -115 -265 0
37 -64 381 0
68 -177 -309 0
-73 -236 275 0
46 204 230 0
-231 -336 -338 0
-84 290 -437 0
-39 365 368 0
120 122 -190 0
79 -128 138 0
-30 -234 421 0
226 -359 394 0
200 217 256 0
107 -313 415 0
69 -88 -422 0
-61 152 -154 0
-9 -40 -174 0
250 -263 449 0
10 -389 402 0
84 -264 -354 0
-26 -199 279 0
34 84 -374 0
8 -49 95 0
72 -224 -296 0
40 72 -152 0
302 -340 433 0
-232 335 409 0
-25 103 251 0
68 -180 436 0
357 430 446 0
287 299 407 0
40 -148 -246 0
144 -204 -342 0
173 325 430 0
53 -86 -172 0
58 239 327 0
18 25 273 0
162 -233 -298 0
51 -157 -411 0
21 234 313 0
218 382 431 0
352 -353 410 0
59 -198 251 0
152 223 -389 0
115 -161 -194 0
-139 -147 -287 0
15 -47 -261 0
345 -379 394 0
-24 -231 420 0
-239 298 -447 0
-259 319 441 0
79 272 -383 0
-134 229 -337 0
-255 325 -405 0
-267 -328 428 0
180 275 374 0
76 -170 -235 0
2 -263 -368 0
-63 92 -345 0
37 -67 -243 0
-50 252 418 0
120 -340 -370 0
185 -191 353 0
-126 -354 381 0
-36 323 415 0
195 325 365 0
4 -327 429 0
320 405 -412 0
-75 142 -384 0
-133 134 151 0
215 324 382 0
175 -316 340 0
-64 332 378 0
40 225 -292 0
219 -411 -415 0
95 189 -265 0
222 -256 407 0
-78 256 317 0
-196 297 -400 0
-131 -303 448 0
161 -191 346 0
-167 291 -382 0
100 -230 -449 0
-109 363 439 0
225 307 -325 0
-160 -244 360 0
118 -155 -357 0
291 325 -364 0
-135 -180 225 0
-161 341 368 0
114 333 -385 0
11 -94 373 0
-241 265 434 0
-87 -121 194 0
-53 238 393 0
108 117 320 0
56 71 293 0
-63 -166 -180 0
6 246 447 0
-113 345 -358 0
-83 -148 330 0
-81 163 -213 0
15 -221 373 0
-95 -232 -323 0
-102 134 314 0
133 191 370 0
42 -101 -339 0
146 196 431 0
-56 -78 284 0
149 -231 -242 0
14 111 222 0
236 248 359 0
-33 154 436 0
-64 -201 -206 0
271 -306 -450 0
-40 56 -191 0
113 293 304 0
301 332 425 0
126 -143 150 0
-59 145 393 0
-88 -164 -275 0
150 -197 429 0
3 -227 -369 0
-118 -278 -328 0
-2 90 302 0
26 337 356 0
-58 -89 -393 0
214 -273 -347 0
178 354 368 0
178 268 399 0
-126 280 -313 0
167 -215 235 0
-230 -356 370 0
92 147 356 0
-255 -335 385 0
20 -298 437 0
189 -215 -387 0
-88 -152 -406 0
-75 148 431 0
17 -387 -420 0
57 225 -351 0
40 65 198 0
30 -128 360 0
112 186 -261 0
293 -335 -441 0
-18 233 -371 0
-82 241 -292 0
-32 181 304 0
16 66 163 0
300 -304 331 0
-5 -41 -441 0
276 -409 -433 0
44 282 327 0
-127 217 366 0
69 -218 -323 0
258 -305 -406 0
-240 323 -408 0
-31 -184 -353 0
269 275 -363 0
44 204 365 0
-85 230 -427 0
-249 -253 -337 0
41 -78 389 0
-9 -117 -140 0
-29 -119 -249 0
141 -188 362 0
170 194 -325 0
-187 -349 -368 0
-123 -201 -269 0
149 -222 -431 0
259 265 -343 0
-103 321 -384 0
-20 -37 213 0
35 -191 -356 0
-46 -50 216 0
-56 -353 423 0
-30 -103 248 0
89 -350 -402 0
-3 155 -311 0
-13 69 -125 0
158 -384 -417 0
123 -143 217 0
165 227 -259 0
3 -62 180 0
-74 76 279 0
13 -182 -344 0
265 306 374 0
-117 -136 -337 0
-277 -294 -306 0
107 -220 -375 0
-7 -142 321 0
6 260 -289 0
83 139 400 0
-31 -177 -420 0
40 -197 382 0
195 -250 -297 0
3 -299 -421 0
7 -63 -263 0
-103 189 -364 0
37 330 450 0
190 318 -334 0
149 354 -369 0
-19 356 388 0
39 -94 375 0
22 172 210 0
24 52 -166 0
-56 196 222 0
-39 -327 330 0
220 308 -352 0
-230 314 357 0
18 126 177 0
-174 -175 -384 0
-50 -329 -447 0
170 -177 -268 0
253 384 -439 0
73 -213 403 0
146 -297 390 0
18 137 199 0
-192 -375 384 0
80 346 363 0
-66 84 -347 0
206 -335 358 0
-94 177 -178 0
180 217 421 0
137 -356 -450 0
123 133 181 0
-331 -349 371 0
-91 323 -362 0
68 168 -438 0
55 250 -425 0
-43 -87 160 0
-52 -237 -251 0
-119 -280 -438 0
70 115 291 0
-29 295 376 0
4 41 -142 0
-45 203 348 0
-65 -200 -283 0
-95 205 -363 0
88 -328 -373 0
-18 -206 -379 0
-18 -302 322 0
-31 -385 -386 0
32 -137 -226 0
266 -286 300 0
67 -253 -343 0
-42 216 -257 0
91 160 -250 0
-57 -230 -276 0
25 -266 362 0
275 366 -428 0
158 -363 -396 0
-234 -254 438 0
-186 -361 378 0
-86 187 369 0
-58 -83 440 0
-20 165 -288 0
3 411 -414 0
-261 400 416 0
3 18 -359 0
43 -242 379 0
-17 -88 202 0
-352 -369 -388 0
93 181 -334 0
-19 199 -388 0
157 -234 -238 0
-381 -413 -415 0
90 108 413 0
126 199 -400 0
-130 -147 240 0
-211 252 -329 0
-18 -271 304 0
94 -139 -385 0
101 -159 283 0
-78 122 -368 0
239 307 421 0
-281 286 -353 0
-86 316 389 0
141 148 -246 0
-109 140 -292 0
120 -271 -283 0
113 224 -317 0
-132 209 -360 0
-7 269 -382 0
82 113 -280 0
17 -234 330 0
-52 -69 98 0
-163 -336 431 0
327 -406 421 0
64 -257 -267 0
38 103 -394 0
-137 -233 -271 0
-16 75 -317 0
-194 344 -350 0
49 138 212 0
143 247 -347 0
-62 129 -354 0
-345 -349 429 0
-36 107 111 0
100 190 -362 0
228 343 -370 0
41 349 400 0
198 344 434 0
-22 -178 359 0
177 -313 -422 0
215 262 -347 0
-68 -82 -296 0
118 -237 -300 0
-254 -315 317 0
-22 219 -239 0
-15 206 396 0
33 171 -270 0
-16 194 -286 0
265 -282 -375 0
8 -249 253 0
-152 279 -437 0
-131 -244 340 0
140 228 -281 0
136 323 410 0
104 196 -414 0
-104 391 -398 0
-79 -192 -344 0
244 279 -407 0
2 218 -354 0
-162 272 313 0
32 214 -273 0
-82 93 293 0
140 -292 -321 0
9 -19 40 0
-130 236 -433 0
56 -215 -339 0
-146 -181 -383 0
101 259 -312 0
-63 354 425 0
19 -104 406 0
-34 58 424 0
-108 340 408 0
76 138 347 0
106 309 -445 0
-93 -268 -390 0
-109 -128 263 0
-11 -186 429 0
52 238 398 0
64 83 166 0
-159 -257 416 0
12 273 446 0
-154 227 385 0
315 375 390 0
-83 -103 -419 0
17 156 305 0
134 -333 415 0
60 129 -390 0
-1 182 252 0
-60 -224 432 0
156 -214 -317 0
124 144 291 0
-39 148 254 0
-340 342 358 0
-14 255 -375 0
44 -201 296 0
-7 -150 -348 0
75 85 433 0
212 -320 -366 0
139 -283 -313 0
130 324 343 0
-184 303 -313 0
-20 -182 -349 0
38 -138 343 0
102 -207 -416 0
-113 -297 446 0
-94 128 -240 0
228 -264 294 0
-332 -353 -412 0
245 285 345 0
155 -261 -376 0
154 -198 325 0
87 -296 -422 0
64 -175 -347 0
-29 290 -447 0
160 288 323 0
86 -174 -436 0
-37 55 -417 0
108 -204 -331 0
188 241 308 0
244 -317 -354 0
-105 -329 -393 0
93 -212 -307 0
132 -299 -387 0
123 -326 355 0
59 292 379 0
-275 -282 -399 0
-190 -290 -399 0
7 26 164 0
248 -281 -411 0
-58 -65 100 0
-63 -112 295 0
93 -240 398 0
-150 -283 -409 0
13 38 347 0
35 103 -336 0
-135 343 364 0
166 419 -423 0
-52 -390 -439 0
4 -244 -291 0
141 -384 390 0
-141 -277 358 0
-181 -336 -421 0
-118 304 314 0
114 -185 -285 0
-143 155 -394 0
-19 115 -408 0
137 -167 -176 0
-99 -179 -317 0
158 -380 433 0
-53 -107 126 0
116 -270 -397 0
-15 227 -274 0
-102 -192 -379 0
-43 245 -356 0
-154 -291 -350 0
-91 158 373 0
74 -274 -416 0
8 -105 -299 0
-92 163 394 0
21 97 -171 0
-111 402 -424 0
64 -113 -119 0
-224 -249 -357 0
112 185 -323 0
64 207 222 0
173 312 398 0
-8 253 -383 0
-78 -305 449 0
-13 177 330 0
-12 -218 321 0
-41 -358 437 0
-91 92 -403 0
-106 152 -306 0
-9 -85 -117 0
30 -214 -230 0
150 394 -423 0
40 -297 -336 0
-184 197 -373 0
-216 244 -295 0
62 212 -420 0
-122 -226 288 0
-309 -380 391 0
-126 -183 388 0
-293 364 434 0
-67 200 -235 0
61 108 -166 0
119 213 -367 0
-214 -321 356 0
64 214 426 0
-96 246 -307 0
114 324 410 0
240 -280 367 0
37 39 -372 0
65 -130 252 0
-112 227 -429 0
91 180 -288 0
-101 -346 355 0
219 -235 317 0
-125 -325 396 0
314 356 -388 0
148 -333 388 0
-22 -111 356 0
207 -337 379 0
-177 -238 441 0
-4 -20 -335 0
-210 -220 372 0
293 -306 -333 0
-18 399 401 0
10 140 -345 0
311 -393 402 0
91 180 181 0
9 219 -411 0
-75 257 391 0
-136 -332 394 0
-50 -213 -389 0
-341 373 433 0
7 -217 227 0
86 -110 192 0
20 108 347 0
-228 -336 -397 0
-18 265 279 0
-128 325 -431 0
-65 284 -347 0
2 164 -441 0
176 197 -232 0
-16 134 -381 0
114 169 -334 0
-247 260 317 0
-92 -117 131 0
11 21 330 0
-63 149 -374 0
-12 68 348 0
257 -307 -321 0
199 -234 -418 0
151 -321 380 0
69 -227 326 0
-292 -308 382 0
-308 -341 361 0
154 321 -420 0
-72 -198 408 0
-30 -47 131 0
-140 -307 -358 0
-6 92 -155 0
-131 -200 -304 0
-93 234 -293 0
103 -184 -374 0
364 412 431 0
163 316 -368 0
128 292 -353 0
125 206 -283 0
-160 216 -398 0
58 136 -299 0
173 -245 -294 0
26 255 -422 0
-60 88 -323 0
57 -100 -155 0
-89 222 -332 0
-20 -23 -331 0
-83 331 -335 0
190 -295 -331 0
111 -196 305 0
-96 -229 -303 0
141 368 401 0
250 336 -426 0
178 327 -388 0
-20 -194 224 0
-294 -370 -427 0
24 -224 271 0
-92 -293 -421 0
99 -196 354 0
66 -121 155 0
174 446 -449 0
-269 -342 368 0
-31 286 -375 0
85 -138 294 0
257 374 -386 0
-114 -165 347 0
223 -359 -414 0
-1 -197 238 0
-228 249 -365 0
283 327 -340 0
99 -229 -356 0
-67 -187 266 0
57 -291 -410 0
10 -32 -403 0
74 105 -200 0
16 132 345 0
322 343 405 0
259 -323 376 0
-99 226 -391 0
122 -146 -424 0
9 334 -367 0
201 288 291 0
146 234 -404 0
182 -206 -259 0
-92 318 398 0
-132 -323 343 0
122 -290 408 0
-384 395 430 0
108 -255 -437 0
18 211 257 0
-201 384 -387 0
-37 -180 302 0
37 -202 291 0
391 -392 427 0
-5 -268 289 0
-124 188 -191 0
-112 -370 402 0
-85 104 -282 0
-135 -311 -444 0
-173 -275 -276 0
-2 171 -337 0
-99 335 -354 0
-91 118 -411 0
-178 189 382 0
-179 -271 -363 0
-270 -272 -416 0
-82 139 -329 0
-31 -201 -215 0
61 -205 -310 0
-133 310 -367 0
82 -141 299 0
147 -323 -402 0
165 -336 -392 0
149 -409 410 0
28 -100 257 0
-257 288 -340 0
-8 -12 -267 0
-105 -161 -225 0
58 -357 396 0
262 -331 -410 0
-269 -362 -404 0
134 -266 419 0
17 166 -285 0
91 -227 391 0
81 276 446 0
-195 -389 419 0
77 154 -348 0
75 -385 446 0
17 115 -265 0
-169 270 415 0
43 88 282 0
-54 -216 341 0
5 106 373 0
180 214 327 0
267 -283 -402 0
25 35 53 0
-195 384 -386 0
-189 -367 392 0
296 349 -390 0
33 98 196 0
-110 144 -413 0
319 -380 448 0
154 -358 447 0
162 274 -340 0
-20 -291 -310 0
-195 -290 319 0
-226 -365 428 0
-103 -214 233 0
-139 206 353 0
41 51 -96 0
99 -184 -288 0
23 -216 391 0
145 329 346 0
-35 193 210 0
-19 44 -185 0
81 -125 -403 0
-17 -88 336 0
-25 213 -217 0
-47 87 357 0
130 -349 -396 0
70 157 -226 0
129 173 -213 0
-23 153 163 0
236 -267 329 0
53 -82 344 0
-123 162 -197 0
100 194 -239 0
23 104 -296 0
32 -278 381 0
208 311 -398 0
66 310 -448 0
-148 258 -405 0
41 166 326 0
-122 -155 -429 0
4 53 373 0
52 -239 -249 0
173 -238 294 0
144 -399 427 0
127 -288 -323 0
-88 195 -298 0
172 220 243 0
-235 281 380 0
75 -200 -243 0
80 -199 351 0
78 -134 -191 0
-62 242 -401 0
200 -382 407 0
29 -86 392 0
-110 168 201 0
-357 361 362 0
-210 218 317 0
-101 -224 -448 0
-202 -329 -344 0
52 -260 -276 0
111 -222 241 0
-6 101 -398 0
179 313 -383 0
121 -210 -401 0
-163 202 205 0
-121 -291 419 0
-10 134 -273 0
-160 259 -359 0
-66 187 269 0
-93 123 335 0
40 -62 402 0
-67 -78 311 0
-80 -162 241 0
39 288 -361 0
-93 256 -380 0
-2 43 345 0
34 194 223 0
214 -271 -330 0
94 -343 395 0
-112 307 356 0
304 -390 -447 0
167 195 438 0
-155 -189 -271 0
301 -302 316 0
-18 249 417 0
100 -191 -418 0
-219 -313 -344 0
206 207 -398 0
86 -295 398 0
-192 -230 -438 0
-85 185 198 0
23 -334 -410 0
-163 223 363 0
101 146 251 0
38 52 -347 0
411 -423 446 0
39 -259 -422 0
163 -166 248 0
97 120 170 0
156 -316 -380 0
-116 250 420 0
41 170 274 0
174 292 -298 0
181 265 -426 0
-142 155 447 0
16 -169 -231 0
-20 -147 411 0
-131 -355 357 0
-209 -222 -275 0
-176 337 419 0
71 -383 -395 0
-24 62 408 0
-350 426 441 0
33 64 122 0
34 -91 262 0
223 -304 433 0
101 -409 -418 0
57 -303 307 0
-246 261 416 0
20 -24 -162 0
-78 403 431 0
-113 213 320 0
406 -426 446 0
206 217 257 0
25 -158 257 0
145 -234 411 0
-137 -192 -314 0
-123 -277 303 0
-49 182 349 0
-225 -252 449 0
-57 196 -215 0
-105 -187 234 0
-110 -405 415 0
-28 -410 -443 0
-215 232 240 0
-209 371 -448 0
27 -169 426 0
-85 129 396 0
-147 -255 321 0
119 194 316 0
-157 199 438 0
-95 -353 -404 0
62 175 -267 0
5 -79 94 0
-100 -274 307 0
-143 242 -429 0
18 -249 367 0
74 87 -360 0
33 -97 156 0
94 97 175 0
282 401 -444 0
-71 -378 428 0
-110 -130 242 0
-221 -281 388 0
-44 -189 288 0
53 -67 -309 0
317 -372 411 0
-106 -339 430 0
-239 316 333 0
-227 -285 -350 0
178 286 299 0
-145 -177 -268 0
-13 -365 -366 0
-126 -305 390 0
-153 -235 274 0
-15 183 -407 0
-98 -368 -412 0
-33 113 -242 0
-3 -36 232 0
-191 256 420 0
-325 -341 -432 0
-115 -119 401 0
165 -284 358 0
29 134 352 0
19 44 -297 0
81 -101 -448 0
-8 -353 376 0
25 281 -444 0
6 65 355 0
41 -438 448 0
-26 124 -188 0
-129 -164 356 0
157 -199 433 0
74 -307 309 0
75 -207 408 0
218 -251 -423 0
35 98 -434 0
-69 109 395 0
75 126 409 0
-14 24 394 0
-125 183 -392 0
-13 -110 -436 0
-283 304 347 0
124 -290 -330 0
-41 141 -418 0
325 327 361 0
-51 -207 265 0
12 132 443 0
242 -344 -370 0
237 -278 446 0
68 297 377 0
-112 261 -285 0
142 -418 447 0
248 293 -388 0
-71 154 -363 0
41 -66 361 0
39 -282 437 0
-177 273 296 0
-26 96 167 0
88 259 444 0
-5 -26 219 0
174 -205 407 0
-80 -222 383 0
-227 -304 -432 0
309 -411 443 0
289 -313 -319 0
160 189 267 0
15 199 -331 0
52 -397 412 0
95 308 -310 0
-6 -187 -285 0
-26 248 -407 0
148 328 -405 0
-7 303 -392 0
211 -214 -275 0
-151 -236 323 0
-183 -218 357 0
104 -329 -334 0
-43 341 372 0
-9 266 391 0
-196 -367 -434 0
-78 -271 388 0
-75 123 223 0
226 400 -431 0
108 -332 -448 0
-226 -320 444 0
106 287 369 0
-56 -173 -450 0
-164 185 251 0
-193 332 370 0
25 43 -391 0
-125 -155 -377 0
-177 -415 421 0
87 291 -316 0
-147 -185 230 0
47 57 -221 0
80 -127 214 0
55 146 -413 0
273 -308 386 0
10 -15 27 0
194 211 -393 0
91 -164 -406 0
-10 333 -346 0
-46 -219 -230 0
-104 178 357 0
51 -268 347 0
-8 177 324 0
224 265 331 0
89 237 -370 0
100 331 444 0
33 -426 -449 0
223 -297 305 0
247 256 322 0
93 263 399 0
-285 -405 -417 0
144 -218 224 0
48 -232 237 0
-15 175 413 0
-190 -249 -392 0
41 -99 415 0
49 -149 -278 0
78 -151 329 0
62 194 432 0
-259 316 -387 0
167 193 407 0
-30 391 -396 0
-33 143 240 0
126 -161 -339 0
-133 -326 349 0
-181 211 386 0
-216 331 432 0
22 -307 368 0
243 349 385 0
-35 56 -314 0
195 -298 -325 0
-215 -253 -450 0
250 342 372 0
-124 -265 -417 0
-87 266 -310 0
-117 240 260 0
-29 -51 -169 0
86 173 -272 0
-74 -226 -324 0
-54 180 -184 0
-33 -280 315 0
-80 328 -387 0
53 -83 -315 0
-29 -77 304 0
210 242 -446 0
-141 -187 429 0
-153 -199 -218 0
-143 -193 -287 0
-2 -193 428 0
1 -168 -316 0
7 -87 348 0
159 335 -369 0
15 -33 128 0
-121 165 -409 0
-254 257 -446 0
76 -148 -379 0
8 279 424 0
98 -195 -447 0
60 283 -408 0
-10 95 -300 0
-151 -290 -384 0
-135 383 -434 0
-88 126 279 0
159 -208 293 0
-173 -300 -423 0
-33 -317 -438 0
-268 -284 -329 0
-240 371 -383 0
-4 -232 439 0
152 -333 397 0
-32 236 -422 0
-16 -34 -237 0
144 -230 -427 0
-82 105 129 0
-77 103 189 0
105 180 364 0
34 244 428 0
-113 161 -178 0
97 288 -393 0
-50 -198 -256 0
93 255 349 0
2 214 406 0
-68 156 -227 0
108 355 393 0
38 175 -194 0
-77 200 -369 0
86 -187 -346 0
-4 222 294 0
80 138 -177 0
96 202 -432 0
211 224 -366 0
212 216 -414 0
-222 252 -314 0
-34 297 -306 0
50 -137 294 0
74 -157 311 0
-264 309 324 0
-217 241 -341 0
97 144 -229 0
-71 -299 -404 0
-60 312 450 0
-69 -242 -331 0
-165 -376 417 0
-257 -294 353 0
-38 211 -435 0
-38 -63 -203 0
173 243 -349 0
-12 334 -445 0
152 -205 -240 0
-8 212 286 0
47 -107 -370 0
-116 235 -309 0
-106 -220 334 0
-24 199 307 0
143 198 -297 0
10 64 170 0
317 -379 398 0
-105 183 -199 0
19 272 -450 0
-144 -290 299 0
257 333 -444 0
3 130 408 0
213 -216 249 0
213 -237 -339 0
199 211 319 0
50 -105 290 0
93 123 -365 0
-54 57 377 0
-233 -283 -368 0
217 -307 320 0
141 -147 270 0
59 -185 200 0
-42 -107 -118 0
189 -194 418 0
56 223 329 0
131 311 -359 0
11 161 -180 0
-214 -274 334 0
114 -230 -355 0
-44 -284 -341 0
-3 -69 -325 0
-5 132 193 0
23 -349 -427 0
86 113 -201 0
-67 -164 -297 0
-10 -118 412 0
228 -405 -434 0
83 -233 373 0
-98 -99 273 0
179 208 -410 0
173 180 409 0
-82 233 -305 0
-199 265 273 0
69 78 -158 0
36 175 -225 0
-96 152 208 0
55 -281 -385 0
212 -380 390 0
-212 214 -300 0
21 93 -441 0
-127 179 -265 0
-68 -302 -386 0
-110 178 296 0
-44 -238 -296 0
159 -276 366 0
212 350 364 0
-160 -293 -367 0
-116 -216 -273 0
26 -215 -279 0
133 -227 -357 0
-22 198 387 0
-28 -312 -431 0
-284 -319 320 0
221 -297 -418 0
-112 271 424 0
-216 310 325 0
-29 276 -401 0
-161 414 419 0
-148 164 197 0
164 232 -433 0
39 -134 -420 0
-40 172 398 0
-218 249 -397 0
-54 90 -118 0
-289 400 -426 0
-209 318 323 0
-110 -297 318 0
31 87 235 0
-78 170 -300 0
237 -277 360 0
-41 -63 93 0
162 309 400 0
100 115 -232 0
-114 -200 439 0
-164 -357 -446 0
343 -344 356 0
55 -115 -207 0
-15 -89 425 0
35 -87 130 0
81 -368 -419 0
28 67 256 0
-134 -247 -420 0
119 227 239 0
-12 -295 314 0
77 -80 -306 0
-158 -250 -414 0
66 -162 -343 0
-301 -302 -366 0
-193 235 339 0
23 -109 131 0
-156 -181 436 0
-52 -286 444 0
-219 -423 437 0
-69 76 256 0
-137 200 -266 0
24 -108 -150 0
27 -171 265 0
62 -269 -430 0
-224 -268 434 0
-156 -407 410 0
99 241 382 0
44 52 -442 0
-132 233 251 0
143 147 432 0
39 86 147 0
-142 -171 198 0
14 157 -238 0
207 231 368 0
383 -410 -434 0
161 300 403 0
27 214 288 0
-213 298 300 0
51 -159 -294 0
-99 136 -228 0
13 -23 -302 0
142 -252 -380 0
-86 -104 389 0
176 -273 339 0
78 -247 -282 0
-33 76 215 0
150 339 -419 0
-58 325 420 0
-167 -193 274 0
10 26 51 0
15 108 317 0
49 291 -396 0
-8 411 444 0
2 119 -251 0
-87 -364 -411 0
-158 -195 -360 0
-160 -325 -436 0
-214 245 260 0
24 160 -333 0
-177 262 -447 0
-46 -327 419 0
102 119 -145 0
-220 -255 -330 0
-72 260 -332 0
69 -171 394 0
27 -100 303 0
-149 -258 327 0
27 292 431 0
-185 -263 -317 0
146 164 -418 0
258 288 -317 0
49 -218 392 0
81 86 291 0
4 -262 -283 0
25 -56 210 0
238 -262 -347 0
171 263 294 0
-167 198 -293 0
281 320 388 0
43 -169 404 0
47 243 424 0
-29 71 -404 0
-137 212 -334 0
-79 258 365 0
-250 270 359 0
-140 -331 391 0
128 150 -254 0
202 -216 309 0
121 -356 409 0
177 192 250 0
68 -259 -450 0
9 -237 -363 0
-47 215 -274 0
87 -301 383 0
-83 294 -352 0
142 -260 330 0
-7 -78 208 0
175 -181 268 0
-81 237 434 0
2 -105 279 0
-99 -204 363 0
-100 232 365 0
-207 -277 377 0
2 -191 216 0
-143 -221 314 0
66 -93 -403 0
-33 192 -293 0
-68 349 391 0
33 138 424 0
-242 -319 405 0
-173 -315 372 0
-135 318 -342 0
-103 -295 418 0
62 330 -443 0
-9 -235 323 0
-69 -113 -402 0
-124 -129 443 0
-13 -228 -319 0
-50 83 125 0
118 294 380 0
223 -271 309 0
-250 -251 -356 0
49 -151 -334 0
-226 -256 397 0
-216 -308 -443 0
-3 247 -259 0
-58 81 227 0
-57 395 428 0
-33 110 309 0
-43 -74 279 0
-271 -363 -379 0
-74 -328 367 0
-30 -203 -297 0
-104 -155 170 0
-180 -371 446 0
189 -229 278 0
-275 420 428 0
-28 -107 303 0
-102 -255 363 0
-163 -175 330 0
-65 85 86 0
119 156 442 0
24 -364 -381 0
53 -90 354 0
-59 229 -437 0
-216 333 -405 0
174 -180 217 0
-198 -326 -410 0
-136 177 -400 0
19 111 -252 0
206 377 -430 0
-18 -287 426 0
86 -376 -386 0
103 -223 -369 0
-175 -195 -277 0
208 281 367 0
-24 -99 327 0
-140 196 -438 0
-97 -137 218 0
-46 199 388 0
-292 293 -309 0
-59 -184 -273 0
-86 -113 -364 0
244 -254 430 0
-116 246 378 0
