p cnf 450 1917
352 -371 403 0
168 294 -447 0
39 -53 -209 0
211 231 -298 0
-172 -321 349 0
-266 -322 413 0
106 125 294 0
-43 -98 -130 0
61 -84 320 0
113 431 440 0
-317 -331 410 0
-172 332 -356 0
222 285 -427 0
62 -362 -442 0
60 115 -312 0
42 -89 430 0
-334 -409 -415 0
272 388 391 0
171 234 286 0
48 -132 171 0
14 100 404 0
13 -342 382 0
-56 141 215 0
102 123 -440 0
65 200 -285 0
2 -92 -250 0
-49 425 -434 0
74 153 -319 0
-32 -199 -450 0
237 415 -429 0
6 -109 359 0
92 143 151 0
-106 109 -384 0
145 227 -405 0
-204 -288 440 0
235 -399 -410 0
-103 -118 -397 0
106 -195 320 0
-47 384 420 0
123 -245 278 0
-72 187 349 0
-118 222 -270 0
-199 -275 354 0
-138 253 -335 0
338 -377 437 0
168 182 -437 0
20 -271 -331 0
-110 -260 280 0
66 70 141 0
-126 141 174 0
50 -133 136 0
21 -254 -259 0
201 365 -446 0
215 -258 -282 0
-266 351 399 0
98 104 -149 0
-35 206 240 0
370 -424 448 0
-148 224 -260 0
126 -266 -384 0
-6 78 -172 0
263 447 450 0
259 305 -422 0
214 289 -449 0
209 228 367 0
-49 -414 423 0
120 125 -141 0
172 222 402 0
46 -232 260 0
-131 -184 -394 0
325 -348 443 0
32 296 380 0
-37 -328 376 0
1 -309 -387 0
-48 -147 -391 0
54 97 229 0
96 181 440 0
1 64 -150 0
-260 -312 -326 0
307 -330 400 0
-6 48 439 0
-108 281 421 0
150 391 -407 0
105 239 418 0
-14 -80 -317 0
-12 384 -429 0
-1 -164 -403 0
27 160 401 0
-11 -261 -435 0
144 -236 320 0
13 -202 390 0
270 350 -399 0
-53 254 -369 0
14 265 376 0
-118 320 -450 0
36 191 288 0
-129 -423 -431 0
-21 23 415 0
81 268 298 0
21 -123 -147 0
-161 225 -376 0
61 -185 311 0
299 306 365 0
92 131 266 0
-55 -97 244 0
-31 -128 -223 0
-126 179 252 0
-105 -112 -370 0
-77 234 339 0
74 243 -387 0
2 -132 367 0
61 116 340 0
115 -199 269 0
-132 -329 371 0
-117 362 -449 0
277 316 -335 0
-168 174 216 0
203 -243 320 0
39 78 353 0
13 61 -304 0
23 123 -250 0
56 130 -236 0
-37 -202 -220 0
64 282 -324 0
49 277 436 0
258 -432 444 0
-403 -423 445 0
-78 -119 -134 0
38 -53 168 0
8 -147 343 0
-47 -107 -420 0
-258 319 421 0
-45 -70 266 0
128 -234 -289 0
-36 43 314 0
21 67 127 0
-133 221 -244 0
71 96 398 0
-182 -240 265 0
-164 169 425 0
226 354 -386 0
-65 -101 288 0
347 -382 383 0
288 -296 -350 0
-310 368 433 0
28 200 -256 0
-306 328 -403 0
-41 -366 406 0
225 -259 345 0
55 -310 -356 0
75 -154 -377 0
188 -439 -446 0
-175 352 420 0
-3 -60 171 0
-112 -174 242 0
-152 172 293 0
-52 134 -448 0
-42 -353 425 0
23 -44 -195 0
17 -80 265 0
129 -324 -426 0
23 253 347 0
72 283 -369 0
57 142 322 0
-30 52 143 0
-159 305 313 0
34 -53 -81 0
-15 -27 -359 0
90 303 -378 0
-4 -157 -167 0
-285 318 386 0
60 -370 430 0
-120 -142 -362 0
41 -125 140 0
-81 -156 -289 0
-33 -42 440 0
-39 -68 245 0
134 -205 -355 0
-364 -383 -387 0
-5 184 -303 0
-13 -233 -258 0
-163 -228 256 0
-53 335 413 0
-245 259 -323 0
73 92 426 0
-129 -251 -324 0
-69 -79 111 0
-43 -319 -432 0
345 -411 412 0
-23 -283 -361 0
28 -393 415 0
-51 -130 228 0
333 393 407 0
-374 422 436 0
77 169 -251 0
214 241 -439 0
202 -236 269 0
173 -362 437 0
-157 -350 -353 0
-136 -214 273 0
-35 -45 -171 0
-92 -263 -323 0
-140 -224 346 0
-17 29 -446 0
32 269 299 0
9 75 225 0
178 270 430 0
-134 -268 427 0
56 -208 -239 0
95 -259 -442 0
-155 -266 -359 0
250 -414 -442 0
148 215 405 0
-44 -87 -273 0
-28 62 -108 0
58 -133 -325 0
-60 124 350 0
-204 -264 -326 0
-27 91 218 0
100 -121 438 0
86 300 -354 0
42 -410 433 0
-58 -116 349 0
-95 174 377 0
-16 -303 -380 0
92 -249 -339 0
1 -60 415 0
-97 109 148 0
-81 -113 115 0
-169 219 258 0
57 -159 345 0
48 -354 -441 0
-14 -39 -160 0
80 81 268 0
-239 -345 -418 0
-18 51 241 0
269 283 363 0
119 -167 200 0
-120 244 -310 0
5 178 -365 0
-24 -118 -337 0
-224 266 -427 0
-140 -307 326 0
145 -406 420 0
36 75 -218 0
-178 -321 436 0
290 -310 -359 0
41 -70 -383 0
-283 -375 -388 0
54 318 -347 0
-187 315 358 0
216 323 -435 0
-14 125 263 0
-23 195 -204 0
-59 220 -420 0
235 -251 388 0
134 -390 -400 0
1 -281 441 0
20 -55 -71 0
-15 310 -388 0
-86 -343 350 0
15 116 -185 0
-14 30 -121 0
43 -57 65 0
219 -245 277 0
32 113 291 0
398 -424 427 0
134 -249 -283 0
-54 184 223 0
-268 -345 -399 0
144 -340 -427 0
117 -215 360 0
30 -50 164 0
-11 -234 -311 0
-186 -235 -293 0
-138 259 -419 0
60 -62 -413 0
130 240 -259 0
2 331 -333 0
-175 192 216 0
249 296 402 0
-368 -379 -401 0
40 152 153 0
84 -392 406 0
153 255 -269 0
1 410 412 0
-110 -294 -305 0
-124 251 256 0
344 -378 -430 0
-127 -269 -346 0
60 321 434 0
-108 252 -367 0
117 -253 339 0
-294 -300 426 0
14 83 -331 0
74 -359 423 0
9 -96 305 0
9 -56 143 0
85 -221 -400 0
40 76 -118 0
-72 -109 389 0
-27 42 -367 0
147 -154 298 0
-77 108 -366 0
-272 353 356 0
-203 -279 -307 0
335 412 442 0
-29 -72 258 0
-93 -241 -374 0
-41 -99 324 0
27 -68 354 0
-260 381 -441 0
54 -215 -373 0
-37 236 -399 0
168 -306 334 0
102 -224 -373 0
-24 -204 265 0
-183 -405 436 0
-279 -401 419 0
-215 429 436 0
-198 353 359 0
-9 282 -422 0
-73 114 -390 0
-56 -294 -314 0
138 -252 -405 0
-5 -127 -140 0
312 -327 354 0
-374 404 439 0
-2 60 170 0
-82 262 -315 0
16 100 287 0
2 -93 225 0
166 -347 390 0
-123 177 210 0
176 240 259 0
-4 -70 -426 0
-56 -170 -447 0
-269 -340 342 0
113 -144 369 0
-3 239 -416 0
-129 262 -363 0
83 -99 159 0
81 -178 400 0
97 -345 350 0
-28 -30 -235 0
74 418 -426 0
-63 409 -432 0
109 139 -321 0
-30 -318 433 0
-79 161 358 0
13 112 182 0
-155 -211 -422 0
26 -114 297 0
10 -139 404 0
97 -138 334 0
89 -247 -301 0
-115 -166 -293 0
156 258 366 0
117 158 159 0
57 -124 218 0
-68 87 393 0
151 -196 -199 0
358 -429 -430 0
129 -141 249 0
80 127 195 0
52 -113 215 0
5 61 145 0
-256 329 408 0
-15 228 323 0
-98 -280 361 0
-216 281 -320 0
-127 -243 -361 0
-146 -234 245 0
262 -337 415 0
8 142 345 0
-200 -311 -392 0
-85 -175 -378 0
-133 -215 259 0
6 -76 228 0
-30 76 -193 0
32 374 425 0
94 -165 -298 0
165 172 -391 0
-361 -386 -434 0
3 159 -292 0
46 235 427 0
-15 -26 332 0
34 -249 336 0
-27 -271 401 0
103 243 -264 0
22 237 -426 0
85 102 -395 0
176 198 305 0
-12 -309 356 0
-361 -390 410 0
-38 -210 -338 0
-38 137 179 0
4 -74 347 0
-129 -329 379 0
123 242 -429 0
-20 61 410 0
-111 139 -246 0
230 -355 -445 0
28 -47 -189 0
33 236 289 0
26 -238 288 0
61 -267 -418 0
-158 -230 -296 0
275 307 347 0
-90 198 297 0
68 111 -223 0
-86 278 -375 0
358 377 -416 0
-6 57 408 0
-2 80 -349 0
-119 -164 234 0
-137 390 412 0
-330 388 407 0
245 -323 361 0
23 -31 -139 0
-312 322 359 0
-102 -171 271 0
-171 243 -370 0
134 201 -266 0
-208 -222 -309 0
-34 -257 -382 0
-121 -193 -316 0
-13 -63 265 0
150 -224 403 0
155 -178 376 0
132 -307 418 0
40 -249 -318 0
61 100 -208 0
6 -172 432 0
78 -116 119 0
8 201 244 0
-69 -171 262 0
-55 204 -438 0
-147 264 286 0
75 -280 305 0
151 166 -195 0
-224 232 300 0
-27 -175 -346 0
264 268 282 0
-230 -290 411 0
104 312 354 0
29 175 -181 0
-8 -392 405 0
-20 -193 231 0
-119 -139 -285 0
10 -13 -45 0
-46 -208 -372 0
-149 -196 -416 0
72 336 389 0
-299 315 387 0
-100 151 -269 0
-36 -53 -103 0
50 265 338 0
-214 338 387 0
72 221 230 0
26 -233 422 0
89 -203 405 0
-161 312 -410 0
-217 283 446 0
247 -249 385 0
11 26 440 0
63 -200 -434 0
34 226 290 0
109 135 449 0
12 -43 326 0
-37 79 432 0
152 -290 397 0
7 -281 376 0
-131 336 -445 0
90 279 357 0
132 134 -395 0
-37 -250 265 0
-238 362 447 0
198 -210 -446 0
71 -232 -309 0
-64 136 -272 0
70 73 -157 0
-100 140 167 0
97 -299 -354 0
-351 354 -416 0
-123 255 332 0
-20 22 -334 0
-167 345 -368 0
196 -241 390 0
-31 -56 -247 0
-20 230 432 0
-68 -321 -335 0
-97 -184 -440 0
124 361 -371 0
223 -255 -275 0
-49 -68 -166 0
-179 -400 -424 0
-26 -143 258 0
48 92 241 0
-14 163 269 0
-91 245 -404 0
-165 -191 -291 0
-128 -351 -423 0
-68 -70 337 0
-146 208 -227 0
-179 231 251 0
-12 -132 -341 0
190 -318 412 0
-44 179 203 0
129 358 -371 0
37 -57 402 0
-273 -427 -435 0
-97 210 -304 0
-294 -339 -352 0
173 219 235 0
-78 -362 -413 0
55 323 -415 0
-1 -249 -372 0
-38 -99 227 0
316 -336 393 0
10 -233 -388 0
273 274 403 0
39 -209 218 0
-55 -282 321 0
164 -233 417 0
235 416 447 0
-118 345 348 0
261 302 -440 0
10 -160 -374 0
-289 -337 391 0
8 -94 411 0
-209 227 325 0
112 -183 413 0
-334 361 -377 0
-184 293 304 0
110 -146 -315 0
123 200 206 0
57 132 291 0
35 188 -216 0
-39 -110 170 0
-231 246 305 0
-110 123 -437 0
8 -178 -202 0
-262 301 424 0
-390 391 431 0
-121 240 288 0
-49 172 334 0
13 155 233 0
-125 -304 -341 0
-55 239 -380 0
-3 -4 -254 0
250 -392 -426 0
-329 374 395 0
209 229 284 0
-8 187 -351 0
33 165 207 0
-348 -357 -365 0
-42 187 201 0
66 198 308 0
-169 236 -239 0
-7 -142 -204 0
143 -352 -388 0
135 336 -385 0
81 130 307 0
-19 90 -145 0
-36 39 315 0
-137 -289 -294 0
14 290 332 0
3 -15 275 0
223 -225 -251 0
57 -174 -285 0
74 -145 254 0
257 -410 447 0
35 346 -363 0
59 -92 -213 0
-98 128 379 0
6 222 409 0
-26 160 -260 0
-89 -325 -362 0
-222 257 294 0
142 284 409 0
89 -153 326 0
27 28 -42 0
57 -357 -365 0
-171 274 -443 0
350 367 369 0
15 -325 -380 0
62 160 389 0
-37 246 307 0
68 -168 -358 0
189 -222 234 0
-107 -147 -431 0
-92 -241 -280 0
-53 -225 335 0
127 -398 405 0
177 -263 383 0
69 229 -265 0
-46 -190 378 0
-38 151 -271 0
108 177 178 0
129 282 -386 0
-71 -155 318 0
-240 -252 302 0
83 -210 -279 0
-358 -400 -431 0
68 -99 -134 0
-11 -399 444 0
135 -197 -380 0
-27 -132 159 0
-61 -117 -236 0
102 160 -375 0
38 -110 -255 0
87 117 246 0
177 -235 351 0
3 274 -373 0
-243 -290 301 0
174 201 250 0
-15 291 -406 0
-164 -258 429 0
133 -178 -301 0
-127 -309 -314 0
-131 150 353 0
214 311 -428 0
65 -195 232 0
-127 289 299 0
140 -320 379 0
126 327 -383 0
104 286 398 0
-120 -142 184 0
56 -118 -293 0
-27 63 -322 0
-42 51 -231 0
140 169 309 0
113 -161 331 0
-148 226 446 0
13 264 296 0
281 289 -441 0
230 356 402 0
-103 186 -327 0
-147 169 300 0
45 291 448 0
-181 -320 -410 0
65 241 -387 0
49 -208 232 0
155 296 -374 0
169 -172 -429 0
-141 -312 -432 0
-94 271 -411 0
217 -441 449 0
-15 44 331 0
104 109 -364 0
-280 297 -389 0
162 369 383 0
86 -350 413 0
-27 -41 -193 0
56 294 -323 0
106 142 -212 0
-145 360 -394 0
-174 -241 -324 0
123 -183 -352 0
120 320 -427 0
-45 -236 273 0
-55 -306 450 0
-57 201 -376 0
325 384 -410 0
230 -391 436 0
182 272 379 0
-34 168 403 0
6 -78 423 0
-6 -323 349 0
-137 -259 -315 0
34 143 -170 0
120 376 -406 0
186 291 368 0
142 -151 226 0
-32 -146 270 0
166 -223 -248 0
-14 86 374 0
-15 131 -291 0
113 235 341 0
-53 -301 414 0
35 270 -391 0
-104 133 -343 0
47 206 -233 0
302 -335 -412 0
104 161 -290 0
136 -149 369 0
31 -178 214 0
-16 131 316 0
-129 231 -325 0
-23 -195 342 0
-67 -158 277 0
-43 -97 449 0
61 84 328 0
-136 -250 346 0
111 -119 -363 0
-83 -120 -251 0
34 180 -222 0
-12 97 -450 0
-131 253 343 0
108 191 -201 0
-276 281 350 0
-6 -115 -248 0
44 65 -265 0
252 -301 -340 0
-47 -247 -447 0
199 322 -418 0
-214 -398 408 0
84 -252 420 0
-139 -340 -413 0
-47 -74 -399 0
-68 -82 -308 0
161 178 -295 0
-127 333 418 0
8 -16 -345 0
132 -187 -258 0
199 370 -437 0
120 -182 417 0
-258 305 -344 0
117 215 321 0
134 -271 420 0
125 -339 430 0
146 -228 -260 0
104 336 -417 0
-158 270 -340 0
310 -323 -392 0
109 224 -242 0
-137 -152 -216 0
154 173 427 0
22 -249 -409 0
-175 -307 409 0
-216 217 -317 0
-81 -131 -325 0
8 -298 -431 0
-335 392 -426 0
42 -283 -284 0
152 174 272 0
201 -286 -419 0
-27 -37 158 0
-146 -149 -224 0
-84 -115 390 0
89 184 224 0
-53 59 118 0
-269 -404 -443 0
27 -204 310 0
-206 208 -338 0
-60 300 -314 0
12 60 121 0
-78 234 319 0
73 378 439 0
252 354 -367 0
22 207 234 0
93 -221 -360 0
94 -119 173 0
207 -347 -413 0
175 225 -289 0
-136 -287 -357 0
-9 -159 -238 0
21 -71 370 0
5 179 414 0
-102 -313 -400 0
8 46 398 0
171 211 -430 0
36 -413 416 0
296 -313 -408 0
239 -387 414 0
-79 174 283 0
-85 -311 -399 0
168 -418 -445 0
414 426 430 0
-61 96 421 0
31 196 317 0
-199 -276 -302 0
80 209 -278 0
-109 160 223 0
-211 -219 409 0
15 -60 -356 0
-32 198 220 0
31 43 417 0
62 -225 257 0
282 304 373 0
203 -320 -345 0
119 -253 423 0
-112 159 -218 0
231 -371 -377 0
-18 -265 -440 0
-35 238 402 0
52 -72 222 0
-88 295 305 0
-145 152 262 0
2 -42 -70 0
138 322 -392 0
-127 -171 -286 0
115 272 -354 0
98 -130 -264 0
-195 290 356 0
85 -160 233 0
-128 314 391 0
-180 -272 286 0
-80 133 209 0
-16 -32 -236 0
112 -269 337 0
-14 147 -291 0
-201 -262 442 0
208 -365 -410 0
67 105 -324 0
-73 115 -175 0
-65 151 267 0
-81 139 -244 0
-155 -341 366 0
76 -86 241 0
26 172 359 0
-149 430 440 0
-61 -256 356 0
47 -237 -337 0
-237 293 328 0
-106 429 -445 0
132 -167 -294 0
38 -71 -236 0
311 -414 -438 0
213 339 -352 0
-148 321 346 0
-127 183 -432 0
-234 -278 -348 0
326 328 -411 0
166 216 294 0
-156 189 -228 0
-224 278 -441 0
-15 -215 388 0
165 -321 449 0
34 -127 293 0
-73 275 -369 0
25 82 266 0
-73 -399 412 0
-22 58 -347 0
31 117 -431 0
60 -412 -428 0
-50 -171 -186 0
41 -243 -298 0
72 279 -394 0
60 -113 -179 0
1 -119 283 0
79 -102 197 0
230 325 -337 0
70 155 -185 0
-43 -61 271 0
233 372 -419 0
60 -300 -370 0
-106 212 288 0
91 247 -357 0
74 -105 138 0
-271 330 450 0
103 -304 373 0
-8 132 -439 0
-31 -141 373 0
22 -346 438 0
119 -302 -341 0
-73 127 236 0
-7 -265 320 0
173 437 446 0
147 -344 -426 0
-78 -209 421 0
225 -244 426 0
109 -267 -420 0
61 -207 -436 0
68 212 323 0
53 157 -325 0
59 351 -358 0
7 224 -300 0
-1 -153 266 0
229 318 -386 0
20 -27 -104 0
100 117 -191 0
-12 -71 111 0
154 -242 352 0
121 251 -319 0
-292 339 -435 0
-221 268 406 0
-2 186 -322 0
87 284 383 0
-363 384 -396 0
-30 -119 409 0
-166 -169 -422 0
36 -251 275 0
89 -315 379 0
48 -115 293 0
-121 235 425 0
-37 166 -318 0
64 -316 377 0
-57 -228 345 0
-106 379 -385 0
109 -265 405 0
-258 310 -434 0
92 165 -327 0
128 -407 414 0
155 416 424 0
-217 318 410 0
-126 -259 309 0
77 -153 424 0
-118 -183 -370 0
-36 87 -368 0
-97 -113 185 0
73 -339 357 0
-25 27 371 0
70 425 -428 0
210 217 260 0
279 369 374 0
100 -255 298 0
57 153 392 0
-138 416 421 0
-19 96 121 0
-280 333 384 0
-69 271 385 0
86 143 -318 0
-172 -333 -372 0
8 88 -112 0
90 128 -233 0
-42 -287 341 0
-144 -148 -183 0
45 -236 -433 0
210 -396 -421 0
263 272 381 0
135 150 -178 0
-127 -308 -379 0
-22 237 349 0
62 176 -195 0
277 315 390 0
-4 303 448 0
-79 -82 -437 0
16 -93 -161 0
-17 -255 281 0
237 337 428 0
29 -94 -381 0
345 352 384 0
-139 149 -221 0
64 -79 96 0
-17 212 291 0
-103 -224 420 0
-91 280 -440 0
-84 -201 -294 0
165 -305 -380 0
146 203 -236 0
153 -260 -423 0
73 343 -438 0
180 -195 -220 0
-5 98 -324 0
28 147 203 0
38 233 445 0
-227 -295 -316 0
-84 194 304 0
102 -149 -223 0
-34 -196 -393 0
96 -328 -362 0
14 -20 -168 0
-185 215 -329 0
29 -76 -190 0
181 312 393 0
-35 256 -340 0
181 222 -353 0
148 -202 -387 0
72 258 412 0
-92 -142 346 0
49 -74 -423 0
51 -133 -184 0
170 315 370 0
8 -291 -295 0
-3 -208 271 0
-78 -306 353 0
8 78 -204 0
-54 -150 -327 0
-53 -131 -264 0
-64 -348 -437 0
76 -276 -285 0
-69 -274 309 0
-56 -77 398 0
201 -265 406 0
28 -100 -305 0
248 281 365 0
-22 -44 -242 0
169 201 -239 0
-18 -144 304 0
-106 -316 395 0
125 341 425 0
51 -100 417 0
-49 -55 -123 0
78 142 -352 0
115 215 439 0
47 264 -442 0
176 -223 340 0
-32 162 199 0
233 -246 439 0
296 341 410 0
197 -301 448 0
29 -288 -364 0
288 348 384 0
18 -156 -327 0
144 -361 408 0
-117 294 -438 0
60 134 -279 0
-342 398 443 0
-119 296 -415 0
-215 270 -372 0
91 177 329 0
-107 -151 361 0
-44 439 -443 0
-191 -276 363 0
134 227 -420 0
172 182 -438 0
-128 174 -189 0
-81 212 -374 0
-137 -241 355 0
-296 -333 403 0
28 -223 264 0
112 303 -363 0
113 267 365 0
-61 -197 231 0
-157 -200 -213 0
137 -262 -378 0
157 -414 430 0
129 -288 -307 0
-176 -210 -212 0
57 205 413 0
-146 332 -382 0
-240 270 311 0
35 -248 362 0
-200 -255 -417 0
-16 -47 140 0
39 -105 -381 0
229 261 -320 0
-114 -227 -297 0
-291 446 -448 0
309 -424 -434 0
101 341 -357 0
234 261 445 0
75 -223 -349 0
13 293 -406 0
-1 -50 -231 0
158 278 354 0
174 238 315 0
-16 120 350 0
213 -341 392 0
85 -289 412 0
60 -339 -351 0
-3 -287 -441 0
100 -349 395 0
-82 260 401 0
-4 303 353 0
184 234 343 0
379 -401 430 0
-186 -367 432 0
-155 -284 368 0
289 -336 403 0
210 -215 339 0
-240 327 380 0
-82 -278 -436 0
47 -212 416 0
-21 -292 386 0
-3 161 -308 0
-137 -284 325 0
-186 -235 334 0
24 50 258 0
-91 150 201 0
63 -91 -412 0
12 62 321 0
45 -84 303 0
-266 335 -434 0
-130 -329 -420 0
42 -185 211 0
-257 286 -342 0
-36 115 443 0
31 127 -363 0
-19 -104 -393 0
-116 -250 441 0
132 353 -440 0
80 253 298 0
17 -53 -66 0
-81 197 -199 0
-4 -37 -169 0
30 -421 -440 0
114 217 321 0
-94 414 -450 0
-12 39 60 0
-41 -322 -395 0
80 251 -431 0
-118 168 -403 0
-78 215 406 0
-43 111 -363 0
9 265 -438 0
-17 209 334 0
195 200 -439 0
-169 181 252 0
-66 214 435 0
65 244 250 0
44 -211 421 0
97 373 430 0
-3 92 -196 0
-30 -194 278 0
201 -328 403 0
-90 -101 -169 0
-1 75 -346 0
179 -297 -317 0
-55 282 395 0
-32 -80 -261 0
56 138 280 0
-182 -236 311 0
37 221 264 0
299 -373 388 0
52 110 -303 0
267 -323 -347 0
-78 162 207 0
-214 369 -398 0
137 -156 331 0
181 -299 383 0
98 104 243 0
-111 -250 -390 0
-9 256 272 0
-53 -212 327 0
48 268 427 0
237 -258 -378 0
-134 356 415 0
-50 259 326 0
-232 -250 -314 0
-137 -167 286 0
7 123 -339 0
-11 21 309 0
-66 -197 284 0
-217 236 -442 0
-42 262 353 0
-21 369 -371 0
-65 -243 428 0
12 17 123 0
272 -312 -400 0
-133 263 271 0
1 -220 394 0
-61 235 -266 0
-120 -268 -388 0
47 192 -287 0
62 285 -449 0
65 126 -154 0
113 -212 369 0
10 171 438 0
-129 209 393 0
1 335 401 0
48 207 356 0
-73 313 450 0
-85 -283 381 0
38 378 -444 0
16 422 -434 0
285 291 -305 0
191 315 -346 0
-309 315 337 0
6 44 -446 0
200 -203 -265 0
-183 -284 -357 0
-39 118 140 0
8 146 -304 0
-152 302 331 0
18 48 -404 0
193 309 -425 0
-64 104 122 0
111 122 -262 0
-5 85 361 0
-59 -264 -310 0
-32 330 -408 0
171 402 -421 0
206 244 295 0
-343 410 447 0
-228 -408 443 0
-136 -145 201 0
-44 -310 -346 0
128 -361 381 0
-116 130 -190 0
106 -343 -389 0
-13 -40 131 0
353 -382 -416 0
7 210 -276 0
239 397 -414 0
-107 -286 -369 0
-7 -121 327 0
-8 -43 105 0
-91 -115 445 0
72 406 450 0
177 -344 409 0
-37 165 233 0
42 87 -413 0
-294 -387 -398 0
-66 302 -340 0
-66 -198 355 0
-223 301 -342 0
231 -319 -398 0
-50 -161 -281 0
123 -267 -376 0
192 -222 353 0
-62 -374 -418 0
70 261 432 0
249 380 -396 0
41 294 -443 0
15 -168 389 0
-18 -163 -397 0
264 351 428 0
114 -161 260 0
112 -281 372 0
-13 -234 -303 0
-41 -121 261 0
329 -332 -448 0
16 -20 -356 0
-218 -327 388 0
245 256 297 0
57 225 -264 0
-38 91 120 0
54 93 -365 0
-37 -115 -364 0
-200 214 -354 0
280 299 310 0
-10 -210 -410 0
331 366 384 0
-45 84 -388 0
176 278 -413 0
-18 -303 -446 0
52 242 -389 0
109 -243 415 0
15 179 -425 0
30 -141 241 0
36 -60 -306 0
80 -338 430 0
-60 255 324 0
64 -224 -405 0
174 -244 436 0
-70 137 -443 0
218 224 437 0
27 -78 -127 0
-66 -206 -273 0
103 -161 341 0
27 -45 99 0
1 -310 -345 0
-157 -256 409 0
160 339 -431 0
-243 -329 404 0
108 -289 411 0
213 387 -443 0
-29 241 282 0
-135 216 -276 0
-56 -250 364 0
14 -127 -412 0
-12 72 -237 0
-27 216 280 0
124 334 388 0
180 249 387 0
19 -141 -271 0
-24 -152 268 0
252 253 -356 0
-55 120 201 0
-34 -87 -438 0
-100 203 356 0
-125 201 -331 0
-214 -232 398 0
45 -273 -442 0
106 131 -220 0
304 -322 366 0
-6 -360 -371 0
86 -124 -161 0
16 -216 426 0
38 -81 117 0
-81 214 -380 0
70 111 117 0
3 41 -76 0
364 -406 -417 0
214 317 -435 0
67 -166 -322 0
-179 255 350 0
302 -312 -324 0
120 127 -290 0
-69 -379 398 0
-56 -85 -338 0
66 317 -379 0
95 -156 378 0
-10 -270 333 0
236 -425 438 0
-98 -290 -383 0
-70 -154 319 0
16 -208 -290 0
135 274 295 0
14 148 -272 0
-172 -242 394 0
7 238 -260 0
230 -318 -359 0
-51 -66 -110 0
-22 -31 311 0
1 210 306 0
312 344 -430 0
-89 -385 -398 0
-47 215 -357 0
241 -325 -400 0
-213 -324 433 0
-12 57 -301 0
134 282 -300 0
12 -205 412 0
-84 332 347 0
-56 342 -372 0
61 -385 435 0
-46 -369 -413 0
184 241 -398 0
-146 -294 339 0
-115 150 -213 0
100 207 -243 0
-43 306 410 0
87 -247 -324 0
81 194 -327 0
296 -373 -407 0
-255 -327 -384 0
9 152 -180 0
-12 -196 -361 0
-21 -167 -446 0
-141 236 -392 0
-341 -343 -359 0
57 332 412 0
-86 -105 -355 0
28 52 263 0
-75 113 -278 0
-56 -101 -272 0
194 283 295 0
291 350 -382 0
-10 -175 -214 0
49 58 -185 0
265 313 329 0
63 168 187 0
-99 -109 412 0
-32 35 -441 0
-78 204 -280 0
264 -376 396 0
7 58 -251 0
117 219 345 0
9 -12 -388 0
-3 49 -356 0
-18 328 -374 0
172 -359 -363 0
186 -341 -408 0
-68 -337 -356 0
-227 -228 323 0
-3 217 276 0
-24 -143 -280 0
-39 -257 -266 0
-52 117 424 0
207 256 376 0
133 391 414 0
283 -319 -322 0
29 442 449 0
-71 300 -406 0
133 -305 395 0
214 -422 -438 0
-202 -306 315 0
181 182 -422 0
79 160 351 0
4 -26 136 0
-75 219 443 0
262 365 403 0
142 -207 -376 0
-151 196 -449 0
126 194 351 0
-106 430 -432 0
111 262 367 0
-161 223 242 0
72 140 352 0
-32 67 -212 0
24 307 435 0
248 390 397 0
193 -237 -323 0
-143 -250 -413 0
-106 143 -169 0
-72 -118 354 0
-45 -94 -167 0
-19 20 240 0
94 -298 -311 0
10 -84 -434 0
114 208 -295 0
-15 379 406 0
22 -198 -313 0
28 196 -389 0
136 277 -413 0
25 219 242 0
-126 -165 418 0
-45 257 -434 0
-143 -172 -296 0
-114 153 236 0
-117 -154 -297 0
-8 15 178 0
292 -342 -394 0
71 -222 444 0
-26 -357 438 0
-22 118 144 0
-40 215 317 0
-212 336 383 0
106 110 -115 0
-52 324 -344 0
-10 -89 313 0
-311 343 -448 0
-181 -251 -379 0
252 341 -342 0
13 40 110 0
-173 -181 -329 0
82 235 -305 0
419 -427 446 0
-21 74 -402 0
255 342 433 0
-94 -308 -362 0
88 -345 -365 0
-61 -153 -181 0
138 141 -390 0
132 147 207 0
152 -200 -406 0
-274 339 -377 0
96 210 -393 0
172 256 420 0
160 350 375 0
180 231 -415 0
-35 69 173 0
63 -160 318 0
14 -39 269 0
-11 -54 159 0
-88 124 259 0
46 55 153 0
303 328 345 0
60 404 429 0
313 -405 -421 0
-47 -191 -438 0
26 -30 -330 0
-36 214 -257 0
-146 420 -445 0
29 -162 274 0
18 -159 244 0
56 -149 368 0
-45 -91 -126 0
-44 276 -285 0
47 92 122 0
-20 50 -271 0
-134 -280 -447 0
1 -63 -394 0
50 -304 -368 0
95 108 -373 0
54 -55 -112 0
124 -156 167 0
8 -384 385 0
232 238 -386 0
-71 -94 447 0
49 130 -364 0
-6 -125 256 0
45 90 424 0
287 -379 411 0
60 135 422 0
-24 -271 334 0
-270 375 -430 0
-154 -200 -205 0
-96 -117 -325 0
-296 -299 409 0
212 348 411 0
-182 -215 310 0
88 352 354 0
-27 -147 219 0
-31 -93 137 0
-107 -290 305 0
258 267 353 0
-256 -300 361 0
-12 95 -445 0
-224 -349 357 0
40 -145 -332 0
-41 192 -272 0
-124 -168 205 0
221 267 433 0
86 114 -198 0
-28 -53 68 0
57 -208 415 0
159 330 -374 0
-18 -73 212 0
-19 152 -404 0
233 361 379 0
194 -351 423 0
95 -414 450 0
57 -168 248 0
-16 325 -415 0
21 -64 361 0
84 204 315 0
223 256 -287 0
7 -186 374 0
-125 162 -232 0
-245 266 -337 0
-108 -109 -367 0
-75 -337 387 0
-258 376 379 0
-217 -312 419 0
126 -188 320 0
38 -108 -277 0
118 -238 -340 0
-280 -294 -381 0
-98 164 -300 0
134 -247 -372 0
51 -367 382 0
-44 -168 383 0
-276 295 -376 0
-223 -344 398 0
89 -169 -426 0
-2 -27 -112 0
204 -345 -427 0
-173 237 326 0
29 367 433 0
262 -339 385 0
137 -203 204 0
334 349 -362 0
-74 -247 -404 0
-83 -265 335 0
71 -322 355 0
166 216 -389 0
-95 -232 -270 0
201 -212 385 0
-191 303 434 0
5 167 227 0
-17 -141 203 0
-14 158 -376 0
46 -311 -362 0
102 279 431 0
243 -304 -385 0
-75 -343 -447 0
-87 202 263 0
85 -312 -359 0
-318 329 -336 0
11 -227 -327 0
-165 -213 -253 0
11 -283 350 0
68 169 -376 0
51 -145 417 0
-29 119 347 0
81 232 -391 0
188 -206 397 0
182 345 -413 0
-179 284 321 0
-179 308 387 0
117 284 -311 0
152 239 254 0
-92 159 -430 0
133 -168 -447 0
-209 -336 392 0
-80 304 -326 0
61 -318 442 0
24 -227 -261 0
237 -250 264 0
-118 370 399 0
126 -144 310 0
127 -317 -389 0
-70 81 262 0
-91 -218 -277 0
-98 -420 450 0
-182 -185 219 0
16 130 243 0
35 -81 -376 0
72 -163 229 0
-13 82 306 0
4 350 -359 0
9 -52 -121 0
-17 -34 -101 0
-61 -155 -259 0
-80 -96 327 0
40 -108 -199 0
-189 378 -430 0
-192 226 343 0
-19 91 253 0
-192 392 -422 0
-15 156 -289 0
-21 322 449 0
-87 230 -359 0
27 212 -322 0
21 -247 -308 0
125 246 -380 0
-58 121 223 0
-72 -283 -332 0
131 -161 -169 0
43 -202 -352 0
-13 -93 310 0
-260 -366 -420 0
43 79 284 0
-174 180 244 0
-127 -254 382 0
-418 425 448 0
-216 353 410 0
196 219 286 0
-4 292 362 0
-61 -292 376 0
-276 356 393 0
-95 389 416 0
11 276 -284 0
57 150 -411 0
170 248 -286 0
45 -163 235 0
-225 -261 -360 0
66 -184 -419 0
203 355 -443 0
2 -169 -355 0
61 215 233 0
-189 209 243 0
-52 273 -450 0
9 121 -350 0
9 -301 -446 0
153 225 -334 0
-144 326 -360 0
12 -104 365 0
-259 377 387 0
-136 209 273 0
69 76 251 0
24 28 201 0
1 195 247 0
-104 -174 -242 0
227 400 -426 0
33 -87 112 0
-119 256 347 0
-94 -200 305 0
-209 -254 387 0
-17 -80 -367 0
222 -368 428 0
202 -287 309 0
-112 -271 379 0
79 -323 422 0
199 -355 -437 0
-362 -411 -421 0
-33 -276 394 0
160 334 414 0
89 -179 -356 0
118 -307 -365 0
-1 -150 435 0
-124 306 -344 0
-69 391 -395 0
112 -121 -248 0
-157 238 -333 0
15 27 48 0
46 113 -250 0
126 -140 381 0
-271 424 -427 0
-8 132 399 0
-12 -121 -202 0
120 216 -354 0
-1 -156 339 0
-293 -314 432 0
-54 -128 -404 0
41 129 -139 0
-103 263 334 0
-85 -117 -300 0
-335 367 404 0
-19 219 -369 0
100 141 -432 0
196 369 -405 0
-230 -245 -301 0
-59 -140 -325 0
4 334 -397 0
-167 246 298 0
-28 -57 282 0
31 -97 125 0
-94 111 -223 0
73 295 -307 0
194 -198 442 0
16 -134 -331 0
227 228 -261 0
-179 374 442 0
-29 348 -442 0
-113 289 413 0
82 109 -271 0
39 191 -228 0
-2 -98 -261 0
64 245 347 0
83 -240 -311 0
80 127 381 0
-34 277 371 0
-159 197 198 0
80 -345 422 0
6 225 -386 0
105 236 342 0
-25 30 -305 0
-82 86 -428 0
84 -310 353 0
92 -277 309 0
-73 233 307 0
-91 181 241 0
128 300 -336 0
226 -386 -445 0
-32 -163 183 0
4 136 226 0
53 -372 427 0
148 176 -375 0
-41 -319 449 0
-121 -368 -388 0
-97 -161 398 0
35 78 -241 0
-117 -219 -387 0
-166 244 -436 0
34 206 -428 0
-124 278 285 0
-159 -167 -176 0
8 -149 241 0
208 -386 427 0
15 -71 -315 0
-130 -375 -411 0
120 155 331 0
-18 -36 -391 0
111 -193 -197 0
258 -417 -443 0
-69 -114 358 0
-60 -191 346 0
-111 356 448 0
-216 259 344 0
72 -78 -153 0
-115 171 -375 0
332 -357 416 0
-40 -67 215 0
97 214 -306 0
224 -259 -365 0
-125 237 -387 0
80 180 -348 0
65 -181 -384 0
-128 -172 200 0
-49 -118 290 0
-36 -45 -162 0
39 -101 -247 0
-7 81 -387 0
171 395 -408 0
184 -317 -386 0
97 246 -294 0
-125 218 247 0
-209 -226 -231 0
59 96 131 0
25 44 -229 0
-57 -64 -132 0
-7 -11 405 0
-114 240 -359 0
108 -350 354 0
-44 194 -372 0
262 -371 447 0
-86 -309 -377 0
-93 -148 178 0
-205 -344 406 0
178 237 269 0
68 -249 416 0
-123 -179 312 0
-139 226 228 0
-10 -45 265 0
108 336 377 0
25 -237 444 0
124 -298 -409 0
75 -374 404 0
307 -329 -380 0
282 285 387 0
-152 -410 -420 0
-8 -21 -393 0
-34 -288 390 0
69 303 -396 0
31 81 236 0
151 348 428 0
158 363 433 0
84 117 -393 0
18 324 414 0
-14 73 418 0
49 295 433 0
-59 -151 -446 0
-305 417 450 0
-60 177 -379 0
-92 152 -409 0
-202 -329 341 0
4 26 -209 0
-193 -325 -343 0
-275 -349 392 0
264 348 402 0
161 -233 317 0
118 122 194 0
20 -271 -353 0
81 244 436 0
38 101 -191 0
83 -351 379 0
44 -165 -371 0
-132 364 371 0
44 -113 -419 0
245 -257 445 0
158 -208 405 0
-261 -264 423 0
-102 -216 -238 0
-228 404 -435 0
-183 311 -434 0
256 292 -370 0
304 408 416 0
15 253 -286 0
-152 -323 381 0
44 53 282 0
-78 -148 183 0
-322 372 431 0
-388 -395 409 0
-9 165 187 0
-160 297 311 0
-359 -368 411 0
37 -147 -166 0
-101 -181 192 0
142 -372 441 0
-201 -218 282 0
211 -336 -352 0
206 -240 -341 0
192 370 -416 0
31 217 287 0
-66 -131 195 0
70 -72 267 0
-44 -214 434 0
151 186 401 0
137 -246 -339 0
50 103 336 0
-150 -170 264 0
-128 255 -402 0
38 -84 -124 0
-166 204 391 0
8 110 233 0
-84 137 -354 0
25 -119 181 0
198 337 -413 0
9 117 -130 0
-88 -213 430 0
345 -388 398 0
-79 -334 423 0
27 -40 63 0
13 155 422 0
153 264 -273 0
86 222 -225 0
-79 -107 431 0
-66 -128 -299 0
-99 162 227 0
18 -70 328 0
5 77 -154 0
-276 -321 443 0
83 126 146 0
11 330 -397 0
124 -156 268 0
-121 209 -301 0
-180 378 -430 0
-214 269 346 0
154 -198 393 0
15 264 -428 0
314 -332 400 0
-49 54 -389 0
242 285 413 0
116 189 429 0
-28 -97 260 0
-193 254 416 0
15 68 324 0
-245 262 -327 0
58 67 301 0
99 -258 383 0
-122 152 182 0
-87 264 -359 0
144 -235 397 0
142 168 280 0
-209 278 371 0
-55 79 133 0
-294 -303 -385 0
100 110 -400 0
-335 -377 394 0
-81 -194 -326 0
-48 -49 206 0
-7 288 -408 0
-173 348 435 0
95 -353 -439 0
154 -198 199 0
303 -309 -377 0
299 390 428 0
-24 34 -65 0
-10 48 -64 0
-11 -272 286 0
-37 150 -438 0
126 162 -237 0
-64 -368 412 0
17 254 -299 0
36 290 317 0
262 369 -444 0
29 298 -405 0
41 63 -276 0
204 -309 403 0
-62 -214 -320 0
96 190 -410 0
89 -304 -441 0
28 -98 357 0
228 340 439 0
127 306 -398 0
-159 181 -425 0
211 -242 -301 0
48 315 333 0
60 -108 243 0
-177 356 398 0
-131 154 -181 0
-264 -386 398 0
-56 297 -376 0
133 -323 -382 0
-2 204 -417 0
-75 163 -352 0
-301 -385 429 0
-185 -243 -283 0
49 132 -289 0
387 396 -450 0
-206 240 -276 0
-39 -437 438 0
26 -53 144 0
205 -291 392 0
128 136 -412 0
179 339 -446 0
228 270 340 0
-73 322 407 0
116 -132 174 0
-294 392 402 0
11 227 351 0
147 -154 -267 0
27 -322 413 0
-71 128 326 0
-109 232 309 0
-193 -271 415 0
-30 77 -332 0
-115 229 340 0
100 147 421 0
-109 260 -337 0
328 -344 420 0
