p cnf 450 1917
23 134 448 0
-234 -303 -358 0
-38 53 -368 0
281 307 382 0
-139 -316 396 0
113 -257 373 0
-40 160 -217 0
169 394 407 0
-12 170 323 0
265 322 -332 0
-206 308 -428 0
-9 -104 -362 0
-9 149 173 0
-22 -35 -203 0
92 -249 432 0
88 262 393 0
-178 -217 343 0
20 200 441 0
27 114 -373 0
-176 326 -328 0
-265 355 436 0
-109 253 -259 0
16 -197 342 0
234 -286 449 0
52 172 300 0
-66 326 444 0
92 -224 245 0
-103 -121 -342 0
-137 -374 -449 0
-10 -317 321 0
-124 -405 406 0
24 119 -194 0
10 143 -323 0
11 -40 -105 0
4 -137 316 0
18 -40 -261 0
120 -161 -270 0
71 292 -302 0
-34 311 -421 0
-94 199 -449 0
-152 187 373 0
-90 240 -294 0
-76 -90 236 0
67 289 401 0
-15 -193 -313 0
131 246 295 0
104 122 391 0
-181 230 276 0
-20 115 371 0
77 -323 -353 0
34 313 411 0
20 -176 -268 0
-80 91 -166 0
98 281 443 0
-74 148 -450 0
-58 -114 243 0
-89 -314 -349 0
-248 294 350 0
-170 236 -266 0
-23 138 -308 0
82 -226 316 0
73 328 441 0
297 328 365 0
194 339 -425 0
-256 -300 -358 0
-55 -414 -415 0
75 304 330 0
45 -86 89 0
-132 -282 -390 0
-29 180 -280 0
-193 340 384 0
-116 -182 414 0
-147 -151 -238 0
-22 221 247 0
-8 320 375 0
-302 427 -443 0
-155 -188 -323 0
160 350 -392 0
-155 324 354 0
-134 -416 -432 0
-12 -141 -430 0
19 -27 421 0
-61 -189 217 0
-79 103 -144 0
108 -202 357 0
-173 253 -275 0
-160 203 406 0
66 153 -422 0
116 269 -327 0
120 206 -313 0
-122 260 401 0
-85 -93 157 0
3 103 -211 0
16 -213 -379 0
160 189 -427 0
-197 245 437 0
14 -180 450 0
74 175 -434 0
50 -240 -250 0
-82 208 -387 0
-59 115 -393 0
123 -194 -324 0
152 -160 315 0
11 217 -241 0
210 398 -437 0
167 206 -327 0
-115 -183 -347 0
-15 314 422 0
109 -153 333 0
4 91 353 0
140 235 -313 0
3 -266 373 0
-185 374 -420 0
-29 -293 313 0
41 -113 -117 0
21 -300 339 0
256 275 326 0
-82 283 -300 0
32 -41 355 0
-71 131 -314 0
-171 315 -421 0
80 89 -438 0
-377 383 423 0
70 340 -411 0
-178 -306 -353 0
-102 -338 -361 0
87 178 -369 0
6 329 -378 0
-165 378 -392 0
101 -235 384 0
89 271 357 0
-212 282 -399 0
-274 -327 427 0
111 319 428 0
160 245 -389 0
-196 255 288 0
126 -157 382 0
-75 236 404 0
-106 164 -340 0
-218 -225 -363 0
54 -162 -179 0
-140 242 -278 0
-121 -298 -378 0
-274 403 -449 0
-71 -286 370 0
41 64 -173 0
-116 -150 -186 0
-63 -230 404 0
-102 159 -339 0
182 237 416 0
-44 -364 -367 0
-184 -447 -450 0
-89 242 406 0
271 300 308 0
33 -44 -350 0
164 370 438 0
20 151 439 0
-64 315 -416 0
59 -194 426 0
102 219 -336 0
130 302 314 0
-102 -259 -448 0
-200 -223 237 0
-254 256 -422 0
124 301 352 0
109 -142 280 0
-179 -401 411 0
115 -232 287 0
55 170 -402 0
135 -178 283 0
212 -296 313 0
26 61 381 0
65 321 -429 0
196 384 -449 0
-102 168 -232 0
180 -374 -449 0
-134 157 -185 0
-126 213 307 0
-320 327 -397 0
-159 -236 -322 0
157 202 244 0
240 375 -397 0
-143 -239 -450 0
-157 -279 314 0
127 -193 -236 0
-45 167 437 0
-170 -202 -448 0
-17 153 -409 0
-102 145 -298 0
-223 -268 298 0
-106 -309 431 0
146 271 282 0
36 -62 225 0
45 198 -269 0
-297 366 -445 0
-93 -99 -260 0
169 350 -361 0
-20 -229 348 0
-26 -262 344 0
-288 327 448 0
-17 -61 138 0
241 257 354 0
283 -342 -416 0
-35 -98 258 0
-182 214 -272 0
205 -300 -424 0
118 218 409 0
240 288 -360 0
120 211 376 0
-89 154 -257 0
43 267 -327 0
-69 104 186 0
-148 303 -430 0
-50 -109 291 0
353 421 428 0
-272 404 446 0
-112 -359 -437 0
18 132 -207 0
-18 -38 384 0
-288 331 411 0
91 247 -371 0
151 -196 252 0
-62 -88 192 0
16 -226 -298 0
109 -268 -416 0
201 358 -450 0
135 -144 -369 0
280 341 -445 0
176 -301 -305 0
-15 337 -392 0
110 236 -424 0
-123 154 276 0
-271 -363 -365 0
-141 207 -446 0
-32 282 318 0
-127 164 429 0
35 -133 -224 0
8 -336 343 0
-18 -123 -224 0
-57 -274 372 0
30 -154 225 0
-105 -300 308 0
215 351 -412 0
289 403 441 0
-269 -274 -445 0
244 -263 401 0
-128 -267 -394 0
100 340 416 0
-199 -227 237 0
133 166 408 0
-296 298 403 0
173 383 406 0
-137 -339 413 0
-150 293 -401 0
100 -116 342 0
70 -232 315 0
142 -244 -304 0
-57 60 87 0
85 119 274 0
-56 230 300 0
-163 200 -212 0
-308 -378 403 0
229 267 -292 0
224 375 -394 0
156 -421 438 0
27 154 -422 0
-8 76 80 0
133 -243 257 0
-122 -163 180 0
193 -334 -392 0
-221 -260 -433 0
-85 245 -272 0
-48 271 -443 0
18 223 263 0
-15 -241 314 0
47 134 384 0
-126 -207 231 0
-79 259 413 0
-264 -281 434 0
98 240 -418 0
-365 392 -417 0
-117 295 450 0
-59 151 -350 0
-140 151 262 0
242 -254 -327 0
-53 -56 -74 0
112 174 202 0
-53 167 -239 0
160 -230 292 0
154 341 443 0
156 215 340 0
-214 -228 358 0
-132 171 -267 0
-2 184 301 0
-206 331 388 0
60 -102 -229 0
243 342 -409 0
8 254 337 0
45 -188 361 0
16 22 -221 0
-78 -247 425 0
-124 -139 252 0
44 -127 370 0
-307 325 -383 0
90 122 -142 0
114 -307 322 0
9 -125 -290 0
195 -268 374 0
105 -410 428 0
-120 348 427 0
31 -165 -352 0
-68 -187 -202 0
116 -361 433 0
-36 -56 296 0
-64 -398 -402 0
-116 -133 449 0
127 -219 394 0
68 69 158 0
-162 -237 261 0
135 -336 -438 0
-16 284 303 0
-40 252 439 0
158 261 284 0
-15 163 407 0
380 386 -419 0
-32 82 -411 0
67 -231 -437 0
292 -339 -400 0
201 202 -260 0
156 216 -357 0
37 194 285 0
-16 -34 -199 0
-1 -339 -360 0
41 128 266 0
-323 332 -428 0
-287 -408 423 0
117 -213 -325 0
-133 -287 413 0
53 368 -425 0
-244 -341 442 0
-202 -350 -374 0
-62 -78 434 0
103 189 -245 0
-72 -209 344 0
-160 -413 -444 0
30 35 171 0
31 -80 268 0
77 371 -387 0
135 156 -427 0
119 406 -411 0
343 -429 445 0
-54 264 -329 0
179 -204 234 0
134 236 -293 0
66 174 -200 0
110 -119 428 0
-261 343 -349 0
-92 206 -391 0
248 -342 395 0
-182 243 -261 0
11 211 320 0
129 -339 -388 0
29 -266 406 0
17 19 312 0
17 348 -391 0
25 -263 304 0
-80 -99 -414 0
-260 283 -302 0
-72 106 392 0
104 -310 375 0
-3 -156 -381 0
-109 136 421 0
-92 -201 -391 0
-160 -265 -337 0
-158 -385 401 0
-84 -323 -418 0
8 268 427 0
48 -53 192 0
61 -285 -303 0
-131 -271 361 0
155 -357 -435 0
-90 -115 -170 0
176 342 384 0
-11 197 226 0
248 -405 422 0
22 -55 -252 0
-98 -362 -439 0
84 -288 313 0
-4 -223 -263 0
324 404 -417 0
-15 -91 -120 0
-20 26 -319 0
17 -375 387 0
-181 -383 447 0
-262 -430 435 0
202 355 -411 0
71 -215 367 0
-78 -88 -433 0
-36 -81 85 0
5 23 -260 0
163 329 390 0
-156 157 189 0
22 -252 260 0
-10 -32 -125 0
-57 -318 336 0
-314 -339 -361 0
174 -375 -380 0
-44 -65 173 0
-129 305 -448 0
-21 -108 -258 0
-91 -140 -297 0
230 429 435 0
-97 -252 -352 0
-36 266 -364 0
66 -182 -365 0
-31 82 -361 0
6 38 59 0
187 342 350 0
-101 345 -441 0
-173 -425 431 0
19 354 -355 0
-282 301 -326 0
60 -180 -258 0
84 -113 322 0
-209 261 303 0
269 -392 -442 0
-35 -142 -369 0
9 38 271 0
197 -314 -323 0
13 203 -422 0
-34 -167 299 0
-43 -45 -136 0
346 374 428 0
-13 90 -117 0
-12 -224 -397 0
-314 -324 370 0
309 335 -362 0
-80 -97 394 0
-238 294 -418 0
-24 -285 414 0
-17 -18 86 0
-178 -252 419 0
-154 177 239 0
-20 -63 -119 0
-161 -221 -382 0
-14 250 289 0
-18 253 325 0
-125 233 339 0
-70 -203 -390 0
-65 -86 108 0
-86 172 445 0
-211 -311 -419 0
16 -156 -211 0
310 396 -404 0
177 -316 393 0
49 172 310 0
251 -293 -323 0
-218 385 397 0
12 -137 -212 0
176 235 -385 0
261 -295 370 0
-377 -378 396 0
70 95 -122 0
-79 300 320 0
-88 -196 -347 0
-29 -149 294 0
-181 205 384 0
23 155 -225 0
-225 -274 380 0
2 257 -434 0
-16 20 -212 0
26 -117 -384 0
-300 -385 -390 0
-64 242 373 0
55 87 -425 0
18 54 200 0
-83 247 -284 0
183 335 349 0
-103 -188 -441 0
8 -86 -446 0
302 -341 -359 0
-172 394 -423 0
-94 384 424 0
-116 -119 257 0
-38 240 428 0
220 -306 -364 0
107 353 374 0
-316 439 -446 0
-29 -225 226 0
-93 -189 437 0
31 205 344 0
-62 -119 371 0
-33 102 -369 0
232 -237 -300 0
60 383 400 0
-172 268 -287 0
-68 -257 292 0
-43 -305 -397 0
31 -152 -342 0
229 240 379 0
137 297 298 0
70 78 -98 0
-167 196 336 0
74 -226 -354 0
185 349 -374 0
-294 428 -440 0
-72 252 -422 0
90 178 274 0
-193 -218 -444 0
-101 275 346 0
189 -405 -412 0
-31 -386 -416 0
-17 133 -431 0
195 -214 299 0
-264 266 279 0
-286 -379 439 0
-20 -275 -366 0
-123 -315 414 0
-66 -340 -362 0
-183 -235 289 0
193 -211 313 0
-93 -141 395 0
-2 303 337 0
33 42 105 0
-221 -361 421 0
54 -124 250 0
-57 71 190 0
-136 404 -416 0
3 -122 390 0
-198 353 402 0
8 240 272 0
-127 140 372 0
-5 69 98 0
276 -315 389 0
60 172 314 0
62 -106 -338 0
146 -226 311 0
171 -173 -311 0
-178 -234 -382 0
228 266 -347 0
51 -214 259 0
129 355 -394 0
290 297 -428 0
-12 -15 -56 0
-173 253 339 0
249 337 361 0
84 -160 166 0
-26 -114 -364 0
115 213 319 0
19 55 -206 0
-185 -187 366 0
-27 246 -273 0
232 -397 -445 0
217 278 318 0
-36 -66 -67 0
12 -204 -241 0
-27 210 -419 0
66 144 -413 0
327 383 -386 0
55 244 340 0
122 -137 218 0
-91 -364 440 0
161 293 -308 0
-49 -105 -320 0
9 -58 219 0
146 170 326 0
267 377 417 0
-27 104 177 0
2 10 -116 0
-84 -321 -349 0
-52 58 -179 0
-209 307 -391 0
63 -225 -283 0
41 -258 -349 0
106 -246 -271 0
15 204 207 0
326 -366 401 0
-5 -133 249 0
64 203 -215 0
-105 114 370 0
30 83 366 0
213 234 -434 0
-242 -377 385 0
-299 306 -434 0
33 200 -296 0
-262 -320 357 0
-168 211 -300 0
-146 209 -431 0
-33 -349 -413 0
-169 233 351 0
56 290 -320 0
12 -232 331 0
7 -29 -267 0
196 -253 -342 0
-48 166 185 0
101 109 -200 0
-109 -119 131 0
135 214 415 0
43 386 -423 0
155 161 -367 0
71 -251 273 0
213 -356 -365 0
-112 -231 -321 0
-4 60 247 0
-20 -88 -358 0
36 215 -450 0
26 -82 -323 0
-212 -311 -378 0
57 -73 138 0
187 279 -413 0
-320 402 -422 0
-47 -363 -442 0
-160 -201 -258 0
420 -425 446 0
-334 364 431 0
-109 -131 380 0
11 -180 -272 0
12 43 -389 0
-204 -275 434 0
-26 -59 -284 0
-4 -304 399 0
-36 211 254 0
-29 239 -322 0
-133 160 -401 0
-84 -103 -389 0
-67 -189 219 0
124 -285 -339 0
18 -153 -235 0
-169 305 -368 0
-79 -136 238 0
-37 -322 352 0
4 87 -119 0
28 -292 -440 0
-89 133 320 0
-49 -89 127 0
128 -250 408 0
-272 -323 -345 0
-181 235 -412 0
135 -320 379 0
-68 -357 441 0
7 192 -269 0
-335 415 431 0
80 -286 439 0
-69 -117 313 0
125 -303 -385 0
152 -172 -355 0
-85 -312 -366 0
-84 -158 350 0
168 -174 -198 0
-172 -238 -296 0
-139 244 -319 0
-15 251 380 0
166 -199 -442 0
26 -308 -415 0
41 58 201 0
18 -36 -299 0
-144 230 376 0
-35 -52 -375 0
171 190 418 0
-325 -368 -399 0
-40 -249 -422 0
-45 -61 -363 0
33 435 449 0
-235 -273 -328 0
-113 -271 -301 0
45 56 80 0
27 -248 401 0
38 185 198 0
97 -342 -448 0
1 103 155 0
64 364 406 0
35 148 -234 0
80 -189 386 0
-105 -341 -393 0
29 143 231 0
56 277 -422 0
-134 144 -437 0
219 337 -393 0
27 -183 -357 0
84 300 308 0
-114 215 275 0
-220 -374 -409 0
-196 -302 413 0
208 228 387 0
23 -234 353 0
-124 -249 -448 0
-80 -149 395 0
-287 375 432 0
129 -191 -288 0
118 -385 393 0
-56 -99 -225 0
-255 -297 -353 0
-78 -305 -352 0
-44 -297 329 0
92 210 336 0
-135 217 -408 0
19 -156 -389 0
-148 161 361 0
-3 51 -132 0
279 290 312 0
56 260 355 0
66 -166 -168 0
92 117 -160 0
58 -160 394 0
52 184 349 0
-97 249 368 0
-134 -258 -432 0
-107 116 -318 0
-235 -255 -422 0
-216 301 -421 0
4 22 -382 0
-190 262 -273 0
-89 183 304 0
-144 218 355 0
-204 225 410 0
-170 245 -337 0
-272 409 448 0
-177 -185 446 0
79 206 227 0
-9 283 359 0
-282 325 370 0
-18 -48 -159 0
24 -189 191 0
97 116 -225 0
-40 -194 -353 0
-70 201 -390 0
-92 -174 377 0
-39 -223 284 0
-16 284 379 0
17 44 275 0
19 418 -432 0
-160 205 227 0
88 -118 -437 0
-60 197 198 0
23 238 370 0
276 -395 -398 0
-6 -73 340 0
75 -83 -361 0
100 201 -317 0
178 -281 -410 0
108 -181 -335 0
62 -166 392 0
71 124 -222 0
39 -63 156 0
-68 110 350 0
-247 -342 -395 0
-175 189 334 0
114 292 373 0
-204 216 -412 0
-22 111 348 0
-45 -74 281 0
-60 123 141 0
-176 182 -409 0
-173 184 -219 0
-39 -124 -440 0
-52 -233 316 0
51 158 399 0
177 204 -255 0
122 223 421 0
109 279 -305 0
282 -303 336 0
-215 -236 358 0
63 348 -383 0
91 194 196 0
-144 241 274 0
20 -243 -367 0
-101 -289 400 0
169 -353 -422 0
75 -389 445 0
-140 242 -436 0
-5 -17 358 0
170 264 -442 0
-92 -197 -356 0
234 239 291 0
40 -264 -416 0
173 -222 -281 0
306 389 416 0
-22 -62 -80 0
-198 -251 427 0
-170 -396 410 0
118 140 256 0
26 -356 375 0
-298 365 -369 0
57 -332 351 0
-190 262 -405 0
50 201 -367 0
-95 -259 -305 0
-49 -254 -315 0
-52 253 -258 0
187 -319 -341 0
98 278 417 0
160 213 -330 0
99 -198 -446 0
362 -374 -380 0
-186 -225 -315 0
-16 115 290 0
185 -227 -403 0
-20 -291 359 0
-63 126 -182 0
22 159 -303 0
161 -273 287 0
-194 -204 340 0
-8 -54 -59 0
-218 240 -343 0
-140 235 -258 0
22 -132 356 0
-40 -215 333 0
115 -212 334 0
117 178 -403 0
-185 -295 376 0
-56 -184 -192 0
-19 27 -364 0
15 179 -423 0
-100 -201 -258 0
-346 -348 364 0
-30 -142 199 0
-94 207 367 0
180 287 -420 0
16 184 209 0
331 342 -388 0
41 -123 437 0
-18 -211 -253 0
22 -37 -100 0
-7 204 358 0
-108 155 -282 0
4 60 -223 0
46 -182 -191 0
45 -338 382 0
18 -164 -322 0
114 355 -406 0
134 -173 414 0
161 -209 -410 0
-9 338 375 0
-20 96 -167 0
-139 -190 -437 0
174 -379 -423 0
70 80 -396 0
20 314 442 0
-77 -240 -315 0
-125 -293 -408 0
-83 -239 -280 0
53 243 -287 0
240 -403 -419 0
135 158 -448 0
8 268 -270 0
306 -329 450 0
1 25 -343 0
257 -277 -331 0
-117 375 384 0
-335 -351 -368 0
66 -320 348 0
-43 -108 -282 0
175 197 427 0
-86 -109 261 0
23 -352 -392 0
-1 -155 188 0
-140 356 -364 0
270 344 -359 0
-57 -126 -153 0
-69 179 -421 0
-61 -192 -353 0
-148 167 376 0
-160 396 -408 0
-113 -248 395 0
-146 -250 335 0
-9 -66 -189 0
-172 -174 -405 0
-105 -207 245 0
-46 -82 -222 0
-13 -68 -283 0
106 291 331 0
45 -275 -450 0
-71 -230 -448 0
80 -157 -357 0
-256 272 -388 0
27 -187 -397 0
38 294 -422 0
-39 -131 418 0
-186 -276 -424 0
116 -223 323 0
-228 233 328 0
-244 351 -368 0
26 -82 -382 0
-50 -426 -445 0
10 -396 -398 0
-46 -114 -208 0
133 -311 -315 0
-85 142 -248 0
371 388 -421 0
-59 310 430 0
-74 116 -332 0
112 -121 -378 0
63 -139 289 0
-89 323 368 0
24 270 371 0
-160 200 377 0
-188 325 -326 0
3 -131 -386 0
-7 336 450 0
-346 -409 -431 0
103 243 373 0
60 288 328 0
162 -176 407 0
120 415 423 0
2 213 371 0
48 355 446 0
18 -318 -428 0
31 187 -414 0
112 189 -276 0
-70 146 -293 0
48 -63 429 0
-65 -107 -220 0
104 -137 -362 0
-34 -59 -429 0
-153 -155 367 0
-358 371 -412 0
-16 293 -327 0
-131 288 306 0
-171 359 -426 0
84 88 -199 0
-137 151 -205 0
57 193 -435 0
107 241 -302 0
-44 276 -324 0
-8 -50 -314 0
-98 -113 224 0
-293 -419 426 0
16 127 -382 0
-29 171 -344 0
-136 -173 380 0
312 388 -449 0
-156 -362 380 0
-128 -148 -168 0
51 -251 -402 0
120 154 355 0
191 338 382 0
-105 -233 -285 0
-190 269 427 0
-159 -325 -340 0
55 217 376 0
-158 -249 -261 0
-18 98 177 0
129 -199 357 0
-121 -296 422 0
-222 360 450 0
-11 219 400 0
92 376 -379 0
1 64 -426 0
102 168 447 0
-322 -336 -400 0
-7 257 -287 0
-182 299 409 0
-150 292 438 0
-128 -138 -328 0
11 -261 -416 0
18 -124 -241 0
-22 -125 296 0
-230 -248 285 0
-9 -42 -295 0
113 114 190 0
-18 41 256 0
51 285 358 0
27 -39 363 0
-13 206 379 0
130 190 413 0
-39 60 -66 0
-59 -130 -199 0
-223 -400 402 0
-259 377 428 0
-9 104 -362 0
7 -145 372 0
92 -212 346 0
214 -258 -378 0
5 125 -317 0
132 209 413 0
62 159 -389 0
-184 277 373 0
-181 268 -379 0
74 207 348 0
65 318 432 0
-136 171 -207 0
79 117 -132 0
-10 -267 -431 0
-207 313 391 0
-224 -241 359 0
-147 403 416 0
114 116 403 0
-172 302 -317 0
84 -123 -380 0
-206 325 392 0
175 -267 362 0
223 248 -398 0
-130 -228 -325 0
73 -102 421 0
-311 343 415 0
-100 -299 411 0
145 379 -444 0
-78 148 -425 0
131 195 -209 0
-272 352 381 0
360 -378 418 0
197 -233 265 0
148 -218 450 0
84 -246 313 0
247 314 431 0
344 -437 447 0
-143 223 273 0
74 137 228 0
-104 -152 -203 0
11 389 -436 0
79 175 -404 0
-165 -281 432 0
277 -285 378 0
-104 250 -342 0
-126 -413 -439 0
-7 254 379 0
-165 182 322 0
33 -58 89 0
113 -264 443 0
252 288 -397 0
-138 329 -347 0
-77 141 -354 0
-100 -304 314 0
-25 -274 -427 0
135 -184 -317 0
-430 440 -450 0
38 -254 338 0
103 -291 361 0
130 198 327 0
-203 396 -402 0
214 379 402 0
41 157 -322 0
107 144 236 0
-19 -308 320 0
-94 -203 429 0
-17 185 -442 0
-3 -272 -336 0
-354 381 -383 0
72 73 -406 0
218 -358 390 0
84 358 -446 0
187 346 -357 0
-172 182 376 0
27 145 399 0
-28 238 -360 0
325 358 -435 0
192 -246 369 0
-214 307 342 0
81 -143 238 0
104 -252 346 0
-214 364 -418 0
-133 -145 -183 0
-353 -354 402 0
-270 277 -298 0
-3 31 301 0
46 114 232 0
154 -271 415 0
-92 -317 -341 0
7 -40 -183 0
-48 -103 372 0
-143 332 -386 0
123 -173 291 0
102 315 -375 0
54 -269 335 0
1 -24 -26 0
-319 -364 -371 0
-174 -258 432 0
-131 259 -296 0
-181 -217 444 0
-65 83 -121 0
181 -300 302 0
128 141 441 0
-1 42 -377 0
-59 370 -441 0
86 -258 297 0
119 -126 209 0
10 -170 349 0
21 163 205 0
-276 -343 -389 0
84 416 -444 0
115 205 -431 0
-56 -125 432 0
-61 148 -193 0
-120 -232 -442 0
96 -374 -392 0
30 -282 390 0
34 129 -269 0
58 -210 -388 0
-94 124 -413 0
338 -376 419 0
75 185 383 0
-230 278 446 0
-7 169 -410 0
223 272 354 0
11 149 -449 0
74 265 370 0
-152 154 -441 0
-70 308 430 0
-109 312 386 0
6 101 -253 0
300 -418 -445 0
156 -291 335 0
-19 53 198 0
-195 396 400 0
190 -318 402 0
106 -128 230 0
97 -228 257 0
74 166 -280 0
-145 238 -412 0
98 -154 196 0
-31 -76 391 0
-97 -362 399 0
-15 262 -337 0
41 139 -407 0
45 -297 -298 0
89 126 -340 0
-79 -87 369 0
6 14 -286 0
-58 -102 191 0
128 141 222 0
55 160 164 0
-87 298 -403 0
-5 -373 379 0
-75 277 -434 0
-2 375 -419 0
-10 74 -234 0
-3 52 255 0
-209 254 418 0
-6 -16 -307 0
-53 -73 200 0
25 -362 -423 0
-222 -308 374 0
-80 352 401 0
16 -114 196 0
151 240 400 0
81 -294 297 0
195 196 346 0
177 -193 -234 0
178 -347 -433 0
130 -213 410 0
-302 328 416 0
118 254 -303 0
109 -206 349 0
-160 297 332 0
240 -285 -305 0
-109 -138 -421 0
-293 -304 341 0
270 -365 -444 0
-187 -245 -332 0
116 268 442 0
91 -187 -425 0
-20 -185 -269 0
81 408 -447 0
75 158 -285 0
187 294 389 0
29 -55 -362 0
-34 104 -204 0
-284 -294 342 0
33 -82 -254 0
65 -93 -417 0
9 -121 -129 0
-91 103 -347 0
157 222 -273 0
19 -30 272 0
93 134 -208 0
-132 237 311 0
23 205 338 0
-127 194 335 0
-198 -335 339 0
-163 258 401 0
229 314 429 0
-140 -238 366 0
25 -261 425 0
-121 -187 -372 0
-268 295 390 0
205 348 -379 0
109 -411 450 0
-58 147 239 0
47 -69 388 0
-127 -241 -438 0
-9 82 -198 0
-87 224 -262 0
-141 -314 316 0
-4 213 355 0
18 62 -372 0
20 335 450 0
-84 -224 272 0
-95 -272 287 0
-54 -55 -427 0
-390 -425 -429 0
81 -335 355 0
-89 334 -357 0
56 162 400 0
-256 360 -406 0
60 -272 -345 0
165 356 -373 0
22 -174 -211 0
8 -401 -408 0
56 334 399 0
139 192 -442 0
-43 314 -381 0
-135 -264 -285 0
106 -183 191 0
106 131 -136 0
-191 -304 -448 0
91 203 236 0
212 -408 -433 0
-342 351 -418 0
-67 143 -230 0
-3 9 -317 0
159 -201 -372 0
-38 -405 -420 0
251 357 449 0
-117 299 -444 0
118 -267 -335 0
60 109 -195 0
-20 -356 -385 0
16 95 262 0
17 -332 398 0
41 216 -292 0
8 -186 224 0
28 183 -254 0
-63 115 -283 0
18 74 -363 0
316 -323 -394 0
158 -254 410 0
218 360 403 0
28 -373 425 0
255 -309 -371 0
-35 -285 425 0
216 259 318 0
169 261 -346 0
-58 -348 418 0
-187 215 -340 0
21 -36 -300 0
35 119 244 0
-10 253 -308 0
-131 -289 318 0
-5 210 -444 0
302 -323 -433 0
91 -354 409 0
268 276 395 0
42 -299 396 0
3 70 419 0
15 172 433 0
-126 192 441 0
23 138 408 0
-16 56 234 0
-205 284 -392 0
-35 -329 393 0
-69 286 -414 0
23 -100 -432 0
-40 -53 384 0
-26 52 -144 0
-222 -344 -424 0
-184 -187 428 0
-109 273 -328 0
99 233 359 0
-31 -122 -124 0
-75 -368 415 0
-147 236 -342 0
30 -189 274 0
101 -163 -269 0
-156 -167 315 0
-270 318 411 0
-24 190 335 0
-243 381 443 0
19 119 394 0
161 211 -411 0
231 363 -410 0
21 347 -380 0
14 156 -289 0
-189 -196 251 0
-249 270 374 0
55 168 236 0
110 -132 -242 0
-206 268 285 0
-107 -109 302 0
-23 -270 435 0
139 -220 226 0
258 -404 -417 0
-128 198 -314 0
132 306 -387 0
239 407 -424 0
202 -394 -432 0
54 414 -446 0
141 402 -417 0
-130 -403 425 0
55 -372 442 0
-320 341 417 0
-5 110 -448 0
-73 -306 415 0
54 273 -277 0
-118 -163 -412 0
213 340 441 0
20 333 417 0
81 -105 -243 0
-32 421 441 0
-64 -212 -322 0
-119 -132 431 0
9 -178 335 0
33 215 328 0
76 176 -346 0
110 295 -353 0
-156 -169 -425 0
-40 50 -214 0
151 309 356 0
267 -315 -364 0
28 262 315 0
-24 133 -298 0
48 169 -253 0
58 -137 -417 0
104 -268 298 0
-54 -227 -330 0
-284 -301 333 0
-187 221 -340 0
-112 -224 -323 0
-29 -84 -190 0
43 52 -398 0
-216 -249 -376 0
203 -295 -419 0
229 -296 -406 0
3 101 348 0
155 -214 246 0
54 -186 350 0
232 -269 -279 0
-128 -253 -444 0
134 -153 159 0
-33 412 -432 0
-274 -369 -447 0
-168 240 368 0
16 179 -399 0
276 324 446 0
153 371 412 0
1 -62 -310 0
12 121 -158 0
158 325 -345 0
-272 -381 398 0
132 -149 301 0
230 -389 413 0
-36 407 416 0
-166 176 -404 0
63 308 386 0
-89 -90 207 0
338 362 370 0
-39 68 -195 0
323 362 -403 0
-16 -177 204 0
-17 56 414 0
-137 211 301 0
-65 323 -359 0
-25 -120 234 0
-130 -244 246 0
223 -308 416 0
59 134 290 0
57 116 277 0
19 289 360 0
-127 -138 402 0
116 284 394 0
75 -108 109 0
49 55 -351 0
-39 -90 389 0
-16 -49 -56 0
-141 -256 -416 0
-163 256 -351 0
-12 -427 -428 0
-228 232 303 0
39 386 -392 0
200 -243 302 0
95 -125 223 0
26 -102 326 0
-99 173 329 0
134 -147 182 0
5 74 -98 0
249 -317 -394 0
-9 -117 175 0
66 -133 378 0
-112 -147 -309 0
60 265 -297 0
52 -158 260 0
-37 73 166 0
67 122 -184 0
-5 -367 417 0
94 138 234 0
-31 -122 129 0
-3 -163 -249 0
-109 -252 423 0
-60 164 -207 0
-78 162 313 0
160 169 -418 0
-197 231 415 0
-118 246 325 0
-91 -122 232 0
-45 -53 -55 0
-51 85 220 0
-36 -301 420 0
-11 340 439 0
-62 -338 -359 0
162 -202 293 0
31 84 315 0
83 146 -236 0
98 355 -385 0
-230 343 -388 0
16 260 -326 0
-111 156 294 0
-145 267 337 0
190 -286 -311 0
-137 -204 372 0
-416 426 427 0
212 -409 -431 0
91 234 440 0
-72 187 297 0
-105 -133 -309 0
39 244 -311 0
-87 94 427 0
-159 301 427 0
148 -171 -245 0
11 263 367 0
-64 -226 364 0
54 171 -416 0
68 99 416 0
-26 111 -225 0
-73 -284 -317 0
-60 -376 387 0
131 180 -412 0
-128 327 -440 0
155 -236 -374 0
420 445 -447 0
-14 -219 286 0
-335 -367 -380 0
148 -294 420 0
-72 -222 -444 0
277 359 -402 0
-173 275 364 0
334 383 409 0
210 -289 -315 0
-14 23 182 0
-157 228 -279 0
-40 150 -393 0
128 -272 318 0
33 -35 -152 0
-126 237 239 0
29 -297 309 0
24 -271 402 0
175 -212 -293 0
24 -39 67 0
73 -113 344 0
275 350 409 0
-34 -155 -262 0
-131 -174 330 0
45 -136 302 0
-86 -87 -281 0
270 310 424 0
76 125 -302 0
-62 140 -380 0
106 -131 -437 0
26 -270 -365 0
15 85 375 0
-197 396 -416 0
37 -241 -417 0
-179 197 -445 0
21 -114 -155 0
195 215 244 0
147 386 415 0
-188 350 -368 0
78 -146 -249 0
-34 236 -269 0
-8 -56 198 0
150 -172 -328 0
2 -61 179 0
-93 -185 415 0
221 -397 417 0
-187 230 382 0
130 174 382 0
79 125 -172 0
196 306 316 0
-244 325 -377 0
70 142 409 0
-198 -356 -387 0
14 -424 -430 0
63 173 -345 0
-58 151 207 0
344 -372 396 0
238 250 445 0
-178 -338 -366 0
278 308 -450 0
81 -343 429 0
16 214 -373 0
197 364 -424 0
-16 -126 307 0
-125 187 191 0
213 299 -409 0
-205 241 340 0
30 -86 381 0
25 290 312 0
-21 25 -85 0
170 -366 447 0
12 249 -390 0
75 171 -383 0
-129 218 230 0
-272 307 322 0
-6 72 444 0
-243 314 -327 0
326 -327 -409 0
234 -238 410 0
213 -280 -450 0
63 242 245 0
-164 303 -397 0
261 -313 422 0
-242 -314 -337 0
-362 -379 449 0
-176 -243 -306 0
141 -162 380 0
-166 366 -437 0
-278 407 427 0
247 -399 -421 0
-164 178 -360 0
190 -222 -380 0
63 -238 415 0
12 -244 327 0
93 -245 -386 0
-90 -163 -215 0
119 -161 -298 0
-28 57 59 0
-155 172 415 0
4 -253 -412 0
177 -180 -286 0
115 221 439 0
-203 -242 408 0
-58 -187 202 0
-206 289 397 0
-96 -365 -412 0
8 -154 -213 0
66 114 -165 0
181 -235 431 0
75 248 -339 0
124 -279 -360 0
-106 135 149 0
-60 -86 -90 0
140 -186 -237 0
179 213 -437 0
-248 294 -341 0
49 62 -175 0
148 274 296 0
-163 -203 275 0
157 216 -270 0
-83 248 -414 0
-167 348 374 0
165 248 350 0
181 208 -289 0
-26 -78 409 0
143 -256 -293 0
-42 239 -352 0
-136 216 240 0
-46 204 -398 0
-159 326 360 0
85 239 312 0
44 147 328 0
14 -427 439 0
-67 -232 -313 0
37 -70 305 0
-95 106 -432 0
239 302 336 0
30 -334 369 0
-83 172 -382 0
-55 -144 -347 0
59 251 -402 0
-14 280 319 0
-334 -353 394 0
-105 306 -418 0
-167 -415 -446 0
282 -332 378 0
-129 -349 385 0
261 -331 -364 0
177 -291 -324 0
-305 -329 341 0
-177 234 444 0
-45 180 -317 0
30 198 -284 0
-33 167 210 0
-79 309 -437 0
-142 -234 -301 0
-29 66 421 0
4 172 177 0
165 -195 223 0
137 -175 407 0
88 -180 375 0
143 -176 -250 0
-22 -219 -342 0
-27 275 449 0
-296 414 -439 0
-56 -178 -308 0
-45 -267 -402 0
13 62 -423 0
104 -152 -293 0
52 66 -212 0
-192 -261 316 0
73 143 -403 0
22 -28 118 0
147 303 434 0
-248 265 -354 0
-76 140 -210 0
-110 277 449 0
198 -408 441 0
109 323 356 0
60 138 -390 0
63 -179 -304 0
101 315 343 0
112 156 266 0
-113 163 409 0
41 139 -392 0
10 323 328 0
-116 -190 276 0
-168 318 -419 0
71 -315 -415 0
-122 -267 -388 0
221 389 -429 0
-45 243 352 0
199 -365 -431 0
-121 260 377 0
-118 -169 -267 0
-160 165 237 0
67 -184 -434 0
63 -165 238 0
-2 -121 -278 0
213 294 -446 0
133 -221 -420 0
-64 -121 199 0
71 166 -389 0
6 -81 -387 0
148 359 -394 0
-25 49 -143 0
-242 266 -342 0
-112 167 -308 0
-118 -176 360 0
-131 185 -275 0
-297 355 397 0
-1 -24 -279 0
-175 177 315 0
-129 383 -410 0
123 164 -327 0
-93 -184 211 0
39 -284 -326 0
-52 -195 333 0
-382 432 -450 0
-270 350 -405 0
-82 239 361 0
-34 -35 -183 0
80 320 440 0
-140 278 290 0
56 -224 287 0
-128 -143 406 0
-201 -302 362 0
-57 95 -202 0
-147 -163 255 0
69 -143 -397 0
-60 126 220 0
300 331 377 0
-39 -133 161 0
26 42 163 0
-56 145 -171 0
-113 -252 299 0
-233 365 -378 0
-118 217 354 0
142 236 -255 0
-1 18 337 0
150 -155 245 0
30 146 207 0
-223 295 417 0
-38 -111 -411 0
-209 -264 -445 0
-19 127 -342 0
35 367 -386 0
-76 101 116 0
82 230 328 0
-21 219 335 0
94 -305 -326 0
343 -390 -444 0
-67 -120 -189 0
38 334 356 0
-200 231 409 0
-104 -128 -320 0
-30 275 -397 0
-149 -245 -315 0
-118 297 -443 0
-21 272 -428 0
-219 317 -369 0
126 283 444 0
-246 299 -311 0
-98 338 -422 0
-285 -360 -436 0
114 211 399 0
-168 389 404 0
-33 -177 -235 0
62 170 -398 0
-314 -324 410 0
-84 -406 -450 0
-51 233 411 0
100 -187 -339 0
213 -352 438 0
137 229 -273 0
341 -413 -434 0
-111 200 -250 0
73 -308 -430 0
242 -264 -329 0
137 169 -311 0
-92 214 432 0
-52 -154 275 0
321 429 445 0
87 134 -267 0
122 154 184 0
130 -326 -437 0
-311 365 -394 0
8 70 184 0
40 390 -409 0
172 236 -321 0
179 -224 323 0
-89 340 381 0
-68 -151 -318 0
-15 294 -391 0
-3 60 97 0
283 -376 -395 0
20 -58 -240 0
118 -314 328 0
166 -188 212 0
283 -296 -447 0
74 303 -305 0
-199 244 285 0
73 -109 363 0
-7 60 -370 0
-170 249 279 0
58 268 -412 0
-27 -277 -445 0
176 192 -328 0
128 -220 328 0
-214 217 286 0
-38 -391 -423 0
144 -192 372 0
86 176 274 0
170 175 -352 0
-223 -248 -324 0
-81 127 313 0
33 316 -443 0
-41 74 -263 0
-259 375 402 0
-75 106 -338 0
-89 322 392 0
104 -210 268 0
350 417 444 0
25 73 295 0
116 148 203 0
15 81 124 0
-5 68 447 0
153 -348 448 0
3 -22 89 0
-40 55 206 0
-26 -145 -318 0
70 -243 273 0
-47 -229 -352 0
106 231 -404 0
-132 -142 -416 0
143 234 -408 0
-49 325 380 0
96 366 437 0
-23 39 -90 0
217 -248 362 0
153 293 -358 0
-25 -282 445 0
-129 224 -282 0
-18 50 -101 0
166 348 376 0
346 396 430 0
-44 -386 -426 0
-116 -333 410 0
-53 -245 -327 0
-22 140 397 0
-100 123 -172 0
-35 -269 -374 0
-239 -347 -368 0
-99 190 -283 0
124 -186 440 0
38 -231 382 0
-40 47 326 0
-101 -248 -275 0
47 -62 -181 0
136 244 264 0
-49 -246 -269 0
-52 83 -395 0
-21 131 149 0
260 348 359 0
-28 -134 182 0
-59 82 324 0
-35 -187 264 0
16 -56 169 0
146 -205 230 0
167 -180 -269 0
-141 -150 -172 0
-257 344 367 0
24 -72 -107 0
-125 235 272 0
-322 400 428 0
73 -179 -286 0
4 181 -281 0
170 245 -433 0
-168 214 408 0
-195 339 -397 0
-144 206 -250 0
206 280 -311 0
173 -189 -286 0
-94 -166 -392 0
-131 -139 200 0
9 -102 -432 0
-88 -186 -273 0
83 166 269 0
-172 -313 -335 0
211 229 425 0
-84 -104 -392 0
78 -269 -318 0
102 -320 355 0
69 -74 353 0
-53 202 373 0
71 174 -194 0
-127 -370 437 0
142 246 392 0
301 304 415 0
127 -166 -322 0
-52 -102 -285 0
39 -66 -159 0
131 -383 438 0
104 -407 446 0
-367 403 446 0
-146 -323 -346 0
64 -238 -274 0
-7 42 -304 0
-17 -290 -349 0
-212 321 414 0
-171 211 390 0
-125 164 -264 0
-40 -342 -450 0
-201 -283 367 0
-145 -193 412 0
334 -336 -417 0
-15 252 -320 0
7 -178 327 0
115 -141 -369 0
-48 -230 339 0
-77 152 -163 0
-59 -83 -375 0
17 74 -405 0
33 -100 328 0
-47 272 368 0
26 -260 408 0
44 -104 -354 0
34 -218 255 0
-286 -412 -430 0
-161 164 264 0
88 134 141 0
-88 -334 418 0
-196 -208 261 0
-47 101 -380 0
128 -298 409 0
-124 -416 -438 0
248 322 448 0
-41 341 -393 0
-62 288 302 0
-192 -225 -412 0
283 284 306 0
-111 370 409 0
92 137 -219 0
-97 117 377 0
-65 348 393 0
48 -128 -306 0
179 393 428 0
-155 295 313 0
7 -77 -191 0
132 198 -236 0
124 -172 361 0
45 -200 -320 0
-157 -210 221 0
78 -271 277 0
89 156 194 0
94 -247 417 0
155 -192 206 0
-114 -320 328 0
-161 184 -308 0
31 305 343 0
-62 119 435 0
-166 -231 375 0
-157 353 357 0
-138 220 -407 0
-13 -125 -300 0
218 -428 -445 0
92 -93 -209 0
13 183 -444 0
144 -439 448 0
138 151 -385 0
8 -166 -422 0
-92 160 -296 0
-81 318 -411 0
-86 179 -328 0
141 223 429 0
-99 -127 149 0
-86 -143 -247 0
163 -208 372 0
59 139 369 0
-192 -249 -423 0
102 -383 -447 0
-44 -201 -295 0
105 -230 324 0
-69 74 139 0
70 87 -429 0
-145 -161 -189 0
4 -93 -443 0
26 -272 408 0
-110 344 385 0
139 158 -222 0
-36 146 -397 0
