p cnf 450 1917
-331 352 370 0
-119 -308 418 0
-214 257 -393 0
-24 283 376 0
154 163 -173 0
110 221 -341 0
-291 424 -440 0
-1 -186 -216 0
167 347 447 0
-39 -78 151 0
20 170 426 0
88 141 390 0
154 178 288 0
-304 -377 443 0
-23 295 325 0
98 -130 -247 0
4 234 -272 0
64 152 -210 0
60 154 -177 0
215 308 377 0
-63 272 -290 0
332 397 -424 0
256 -368 435 0
215 225 318 0
152 -162 -427 0
156 -281 -410 0
-161 217 362 0
-29 67 -405 0
-10 385 399 0
-44 -126 -282 0
-193 -242 324 0
-217 -310 336 0
-8 165 339 0
-71 326 371 0
14 -145 169 0
68 164 -281 0
174 234 -376 0
32 -163 -356 0
-145 -297 -370 0
-287 -388 -443 0
50 302 339 0
147 307 -386 0
38 216 -356 0
137 222 -282 0
69 -149 -317 0
63 218 -287 0
-180 181 -362 0
6 138 -208 0
-68 -109 365 0
-152 222 342 0
-51 -297 -370 0
-244 339 -437 0
-58 -118 -168 0
-223 252 260 0
32 -199 294 0
84 -264 -321 0
301 -356 -439 0
-71 254 292 0
276 -321 -393 0
63 -77 -108 0
-68 -146 -188 0
31 -48 -194 0
164 -323 363 0
73 -171 -312 0
49 140 218 0
313 360 -444 0
315 -357 386 0
18 131 165 0
108 -153 351 0
98 317 -319 0
-58 183 291 0
24 -80 -250 0
44 215 230 0
-7 -244 422 0
-194 308 373 0
-148 225 267 0
75 -278 -325 0
145 -331 -395 0
329 -416 -422 0
53 -328 433 0
-23 335 -400 0
81 -123 -229 0
-96 107 416 0
-106 237 250 0
207 335 437 0
-98 -120 -141 0
-191 232 337 0
170 407 -435 0
-48 -171 -435 0
-16 289 323 0
-25 211 380 0
227 -335 -423 0
-162 -256 -328 0
49 -178 310 0
64 -205 -377 0
-27 52 -196 0
18 -70 144 0
-43 -135 -194 0
20 102 -289 0
-56 -325 409 0
84 -203 341 0
30 114 145 0
-8 -89 -247 0
-191 326 -376 0
384 -398 448 0
113 396 -427 0
-246 303 355 0
173 -289 396 0
-95 128 394 0
178 -314 -430 0
-245 -264 272 0
155 161 447 0
-79 237 -243 0
-70 148 -404 0
-41 72 -216 0
47 126 -351 0
-21 -76 173 0
38 190 -435 0
-198 -383 417 0
-326 402 -441 0
162 307 447 0
68 -162 -345 0
-321 352 441 0
78 222 367 0
176 254 364 0
25 -134 442 0
63 -187 -252 0
-18 96 390 0
-192 220 -245 0
-212 284 288 0
-18 -193 434 0
-36 356 -376 0
-124 233 -346 0
25 287 293 0
149 -156 366 0
-331 -363 -368 0
13 200 415 0
31 92 112 0
-108 -238 -390 0
312 -341 367 0
236 304 365 0
40 380 399 0
-266 -343 -352 0
-146 177 -213 0
122 213 -430 0
59 64 365 0
-39 -165 -387 0
68 -120 289 0
82 -191 213 0
-111 227 320 0
233 -345 427 0
42 415 420 0
-168 310 399 0
-147 -327 351 0
-175 363 -414 0
-158 417 444 0
303 -353 433 0
-21 -105 -158 0
-180 -321 -344 0
-187 -224 350 0
88 301 343 0
-88 386 409 0
59 229 -252 0
-55 -97 -107 0
-36 47 -269 0
14 -40 -199 0
-231 -270 -294 0
-229 -249 -376 0
55 -201 -390 0
145 266 -394 0
-1 243 -317 0
-1 53 92 0
12 -172 195 0
-158 201 -332 0
261 305 411 0
-36 -40 314 0
350 -366 409 0
-304 361 -388 0
28 57 -334 0
118 -217 422 0
-168 -192 316 0
35 -300 -365 0
141 -275 -426 0
-68 266 -277 0
166 210 344 0
-172 400 411 0
-283 307 439 0
-132 363 370 0
-84 339 -387 0
31 196 264 0
222 382 -435 0
141 -378 384 0
-304 376 -447 0
194 323 -441 0
-149 197 -201 0
228 -416 -447 0
21 -145 -292 0
249 368 434 0
138 -161 449 0
56 -70 -200 0
145 -181 261 0
-359 368 386 0
225 378 383 0
19 -378 432 0
2 -41 63 0
135 -137 -194 0
-28 -123 -297 0
111 -152 350 0
-35 -351 -353 0
149 352 -369 0
-119 -255 438 0
-104 -251 354 0
156 -211 256 0
-178 -421 430 0
-306 339 -351 0
48 75 -116 0
69 -260 283 0
39 -96 105 0
23 -73 -158 0
-69 106 -152 0
41 393 -398 0
160 -306 -437 0
262 -270 -449 0
188 233 -401 0
272 296 436 0
64 -140 -271 0
86 131 -373 0
-35 -193 381 0
-74 -137 264 0
168 220 437 0
-191 -225 364 0
-89 123 127 0
244 363 -427 0
125 126 -419 0
95 114 431 0
60 -70 342 0
203 -209 -329 0
-248 280 -375 0
27 -41 195 0
-169 264 -377 0
-133 274 281 0
-237 314 -334 0
-51 241 300 0
124 171 -372 0
11 -76 -362 0
-36 150 -414 0
-139 -388 -425 0
-45 88 -330 0
36 -125 147 0
-271 -278 287 0
-80 170 219 0
-86 -120 -314 0
-194 -364 -380 0
-44 192 -274 0
-354 386 -424 0
31 -89 -432 0
27 -61 -334 0
-226 -285 -413 0
-27 161 259 0
-14 156 -163 0
-217 331 401 0
249 309 322 0
-80 -88 -339 0
-25 -191 -285 0
293 -387 423 0
-168 181 316 0
-90 120 235 0
-90 131 -150 0
-211 -262 -322 0
-34 -391 396 0
93 126 445 0
93 -268 -284 0
-7 -35 188 0
-129 210 -212 0
6 -57 343 0
73 -284 336 0
-70 144 -227 0
74 -166 -326 0
108 162 421 0
29 139 -424 0
-102 -235 284 0
93 104 -137 0
-111 -202 292 0
-155 -177 228 0
105 150 328 0
60 -205 -387 0
210 360 446 0
-266 367 -408 0
-94 -277 -286 0
-156 -369 446 0
-216 297 327 0
-29 -160 308 0
28 133 -224 0
-257 265 -432 0
-24 -25 -212 0
102 -377 427 0
-147 263 425 0
72 -176 398 0
-35 171 322 0
-27 264 280 0
-144 166 -276 0
77 293 386 0
-32 -97 -171 0
259 286 -287 0
213 240 -419 0
-107 -411 444 0
-73 -109 331 0
-89 420 -441 0
16 -122 269 0
18 151 -289 0
25 121 -147 0
106 -280 435 0
305 -384 427 0
-171 -331 425 0
-220 -321 430 0
17 -181 -259 0
-8 121 -378 0
-336 377 -384 0
-7 11 348 0
-41 228 299 0
7 -72 242 0
46 154 232 0
9 14 -84 0
-20 -203 -423 0
-159 -247 -318 0
109 -233 243 0
15 -249 -278 0
181 -297 429 0
-6 -48 179 0
-265 -306 -310 0
286 310 -371 0
6 224 -300 0
139 -223 -281 0
-74 -122 -179 0
2 -69 -204 0
-15 88 171 0
-139 -355 432 0
34 381 429 0
33 127 -402 0
83 305 -447 0
-2 145 -429 0
-133 277 -447 0
-85 -329 337 0
123 286 291 0
4 104 -142 0
-225 246 372 0
165 -295 429 0
108 302 366 0
230 -339 404 0
-234 298 383 0
305 -380 -424 0
-30 77 -329 0
187 280 -418 0
272 375 376 0
-43 -64 104 0
-14 277 -424 0
37 -385 -425 0
270 -378 408 0
-13 -231 -444 0
220 226 -344 0
103 356 -401 0
-158 -347 440 0
-32 -182 -192 0
-8 -183 403 0
61 -150 -194 0
-24 -292 380 0
29 -57 381 0
-9 194 -337 0
-205 280 -324 0
-18 151 446 0
24 48 -215 0
74 -262 352 0
-26 -312 -436 0
128 -149 298 0
167 -205 -438 0
76 -193 -323 0
98 -377 -432 0
287 -296 428 0
-212 -324 344 0
3 -48 52 0
36 126 -414 0
-201 -219 -320 0
138 -241 309 0
-283 -437 440 0
37 125 338 0
-18 -39 306 0
-9 -93 -352 0
-57 -148 402 0
-24 114 -274 0
-115 146 -356 0
194 -245 -270 0
-33 -331 -350 0
132 -259 -425 0
105 -269 -373 0
189 233 398 0
18 72 -104 0
59 114 296 0
46 75 -359 0
-71 -163 444 0
30 -44 141 0
-43 -168 -313 0
-156 254 -264 0
-253 -267 -286 0
177 -329 435 0
61 -181 325 0
-231 -316 392 0
-343 -384 447 0
38 -137 178 0
-28 -250 278 0
148 317 357 0
39 229 232 0
221 -400 -440 0
168 215 400 0
187 406 -423 0
-134 298 -314 0
90 234 250 0
-56 -321 367 0
131 -170 -282 0
51 -282 388 0
-154 209 -321 0
105 134 -219 0
114 -266 352 0
114 -259 -356 0
-84 -270 -397 0
-109 -275 -282 0
-193 268 -279 0
-131 209 -241 0
45 -82 429 0
138 -156 321 0
-45 -104 -373 0
-172 -287 -365 0
6 113 390 0
195 -224 310 0
182 -299 -381 0
64 -179 -428 0
-90 -209 -363 0
41 -233 292 0
-1 138 -310 0
216 333 342 0
217 -245 406 0
-202 330 370 0
-122 136 446 0
-30 -287 -405 0
52 -224 277 0
-27 54 176 0
228 -266 428 0
113 -120 190 0
77 140 -175 0
-80 -214 334 0
30 261 -323 0
97 213 -435 0
57 -226 -251 0
-117 232 255 0
-66 -104 -275 0
105 -232 398 0
-281 351 427 0
-257 -286 -365 0
131 137 336 0
-29 -162 -256 0
3 24 -445 0
-77 -146 185 0
-421 -423 426 0
-28 -366 390 0
82 -269 -413 0
-134 135 442 0
45 -68 -147 0
23 37 -296 0
63 411 -427 0
-152 157 303 0
-105 -193 218 0
-1 159 -439 0
12 -121 -262 0
-14 -46 375 0
-214 288 315 0
-170 401 441 0
-73 -272 -436 0
125 -134 -262 0
146 254 325 0
-339 365 -417 0
-237 -349 -410 0
103 -198 236 0
107 -193 388 0
21 -76 -242 0
264 338 431 0
132 -158 -292 0
1 -180 -287 0
-85 142 -302 0
10 271 -395 0
-2 -363 365 0
-106 352 -414 0
-133 -255 -333 0
185 234 -328 0
142 -180 -324 0
82 -198 332 0
44 268 -413 0
-44 -300 -304 0
235 312 -436 0
47 131 202 0
-153 -275 -280 0
182 -222 427 0
-20 -53 239 0
-166 -179 271 0
-138 -190 205 0
94 -325 -376 0
83 85 -235 0
186 191 -202 0
145 249 -267 0
17 -143 236 0
83 245 249 0
14 -33 -394 0
21 -121 129 0
-145 150 262 0
-237 -265 -346 0
-275 307 425 0
20 162 -192 0
-52 -186 -323 0
-160 -189 -218 0
-168 -205 418 0
-21 -253 341 0
129 -189 440 0
-42 44 432 0
282 -296 353 0
220 -373 -440 0
-250 -320 -436 0
14 -148 390 0
-128 -281 294 0
-122 139 -295 0
220 -325 -415 0
-163 203 -372 0
151 227 -431 0
3 127 -363 0
-7 -120 -376 0
144 -291 448 0
8 -44 316 0
-356 -440 444 0
24 55 436 0
157 -192 270 0
-63 -87 88 0
8 -61 351 0
39 104 160 0
-34 -251 -400 0
65 -91 434 0
166 -201 237 0
78 334 388 0
30 167 183 0
83 -94 435 0
22 234 -304 0
48 -114 -335 0
-82 189 -209 0
-63 -232 284 0
73 205 -321 0
15 -40 -138 0
-59 -312 416 0
-140 247 -346 0
-39 -94 380 0
-64 -195 232 0
36 -203 -368 0
198 408 -435 0
18 368 380 0
145 247 366 0
135 -202 -242 0
-215 348 -385 0
-30 -335 442 0
78 258 -280 0
-25 181 205 0
47 85 167 0
-106 -120 131 0
36 183 355 0
24 64 -82 0
-35 -42 142 0
-94 -240 -407 0
-62 -68 -121 0
-16 103 209 0
-70 -161 282 0
86 -210 261 0
56 207 377 0
-27 48 359 0
-281 -345 -429 0
22 -176 -379 0
208 -336 -395 0
-36 -241 357 0
-42 -120 -254 0
-49 -377 391 0
-244 256 -315 0
-19 -56 73 0
-89 168 430 0
-36 -321 444 0
-11 139 373 0
-271 277 290 0
218 -402 440 0
109 -117 -122 0
73 -188 -399 0
-237 311 381 0
57 119 -123 0
-138 -374 -432 0
2 -147 267 0
-6 -27 177 0
16 359 419 0
-52 64 137 0
-121 205 240 0
-18 48 -156 0
-107 143 402 0
-81 112 348 0
-102 -246 -309 0
147 170 -320 0
-95 -170 -296 0
162 -249 -390 0
-22 -287 -366 0
-120 -143 -182 0
132 311 -355 0
143 -270 -412 0
313 -332 -448 0
-24 219 419 0
1 -251 -342 0
116 -168 215 0
110 -130 -431 0
-145 423 441 0
3 -308 -328 0
-42 -163 -183 0
94 348 -423 0
54 -83 -380 0
-116 167 -367 0
-272 -331 -335 0
-24 67 279 0
326 -361 -435 0
113 -330 346 0
39 -204 317 0
196 -286 -353 0
-57 -136 143 0
-16 -20 117 0
250 -303 441 0
40 405 -435 0
-7 248 420 0
50 -140 162 0
61 352 365 0
-51 325 418 0
57 -362 -440 0
-57 -71 -221 0
140 -299 -355 0
23 237 350 0
50 -122 -141 0
-8 307 394 0
171 242 -418 0
57 -100 -182 0
48 356 -365 0
-43 -153 371 0
-37 -83 253 0
-211 385 -434 0
116 -157 210 0
-99 -209 -324 0
39 57 -116 0
156 207 -225 0
-104 -145 -150 0
-223 -395 -418 0
-15 114 352 0
-101 127 -264 0
5 71 -303 0
64 179 303 0
100 345 -427 0
-20 150 204 0
-13 -21 -56 0
138 -201 401 0
34 -57 -67 0
284 301 367 0
215 -287 -376 0
170 -340 395 0
32 -262 -412 0
-313 -328 385 0
-119 -161 239 0
-8 -77 -199 0
139 -228 413 0
202 245 418 0
-129 -160 390 0
113 -114 428 0
89 -333 354 0
-28 299 -367 0
25 217 -264 0
124 211 376 0
8 -227 281 0
12 395 413 0
152 255 420 0
85 317 -416 0
-1 -314 377 0
67 85 -389 0
5 78 -356 0
-14 304 330 0
159 186 -353 0
3 189 277 0
58 -375 -406 0
20 -159 -279 0
-138 -317 324 0
140 186 370 0
26 368 -422 0
-305 -349 -400 0
90 259 394 0
-108 -340 -441 0
49 162 -168 0
-149 271 445 0
64 -168 356 0
-13 111 -326 0
-17 -101 318 0
-85 -349 -431 0
98 -125 -449 0
14 -282 -354 0
311 -397 422 0
-114 241 359 0
-271 291 -314 0
49 208 -272 0
208 226 -366 0
-79 -412 435 0
27 91 -419 0
-52 175 411 0
-16 -71 387 0
-258 -308 -432 0
146 -150 -327 0
-70 -144 185 0
59 207 -418 0
2 54 -197 0
22 -33 -220 0
-61 274 430 0
28 241 377 0
-167 -186 -190 0
-60 273 450 0
87 -136 -338 0
-55 -189 254 0
40 -221 269 0
-172 318 -406 0
64 -328 -347 0
-76 161 433 0
-11 -231 -259 0
-197 357 -423 0
12 31 -436 0
37 -208 276 0
150 -151 -435 0
193 233 -433 0
109 -223 235 0
39 -47 -202 0
-211 -322 331 0
91 -163 -332 0
102 -288 -372 0
174 272 -283 0
-134 271 -290 0
-298 -416 417 0
-354 405 444 0
182 -331 438 0
-102 229 335 0
-160 -241 289 0
-7 -29 -338 0
132 -155 313 0
65 125 -138 0
-33 -48 -193 0
135 -339 -422 0
125 221 241 0
65 89 218 0
-236 262 450 0
144 212 296 0
-85 -374 -449 0
-271 313 -335 0
-167 -212 -314 0
53 -213 428 0
73 303 -393 0
83 143 -311 0
-148 257 -317 0
-94 178 -193 0
-36 -371 -390 0
32 222 -337 0
-206 349 441 0
177 -178 -375 0
32 -108 -264 0
339 -364 -419 0
-365 -410 -439 0
258 -290 363 0
-251 309 427 0
-269 -357 409 0
284 -406 -425 0
6 -160 -329 0
130 -231 -407 0
-149 -185 -445 0
-112 -157 -218 0
-15 248 267 0
-214 -261 285 0
151 279 -438 0
78 -176 -201 0
-94 401 409 0
6 74 350 0
-174 383 442 0
25 159 439 0
-185 -349 -407 0
45 172 439 0
-65 -101 116 0
36 93 96 0
-22 -169 343 0
-58 -113 299 0
-28 179 -424 0
41 266 274 0
-199 287 -414 0
-206 -291 446 0
-82 128 321 0
-154 229 -379 0
-16 -50 448 0
347 -384 -446 0
-54 198 260 0
278 -389 -404 0
69 133 -222 0
101 348 -438 0
14 -105 -204 0
21 -50 -181 0
302 366 390 0
358 -411 -422 0
-38 -188 233 0
112 254 -447 0
-203 242 -445 0
200 270 -398 0
181 231 -298 0
221 294 430 0
-125 -257 383 0
-80 -222 360 0
47 394 -448 0
86 108 -236 0
257 -322 339 0
112 213 -303 0
141 -254 276 0
-46 137 271 0
-30 -207 -447 0
138 -187 -422 0
78 427 -431 0
273 282 422 0
-425 433 -440 0
-186 -345 -427 0
90 100 326 0
-48 -114 338 0
-52 -77 -246 0
-133 -182 -409 0
15 -198 288 0
-106 162 331 0
88 -117 316 0
-61 -111 -369 0
234 317 -339 0
-82 186 -396 0
77 156 -379 0
-266 278 289 0
-89 130 -369 0
51 -98 -281 0
-270 334 444 0
166 342 376 0
114 116 -373 0
-88 131 291 0
-311 339 -358 0
-233 348 -415 0
11 -31 -230 0
-73 270 370 0
-89 140 -397 0
-47 155 355 0
58 152 428 0
146 -308 419 0
-122 151 -314 0
-14 -106 -250 0
-164 327 359 0
-102 168 259 0
-172 -263 -421 0
74 -318 -401 0
295 -329 406 0
-191 -241 308 0
-107 -130 260 0
245 -260 285 0
-111 -263 318 0
270 308 -337 0
20 253 -269 0
96 178 -390 0
-39 59 -422 0
34 -104 -168 0
199 -224 292 0
-8 -66 -174 0
93 151 -399 0
-33 -114 -265 0
189 -275 411 0
42 175 -291 0
-59 147 -414 0
133 -214 -434 0
-166 237 -402 0
8 62 -114 0
-125 -152 158 0
140 -345 -369 0
-147 -340 435 0
-43 129 235 0
214 -256 -352 0
55 -205 365 0
81 225 329 0
91 -111 372 0
-255 -340 383 0
106 173 -219 0
76 308 -415 0
253 -262 -290 0
-69 134 -184 0
171 -373 399 0
215 -374 -381 0
-204 -207 423 0
-79 289 -318 0
63 231 441 0
46 -218 432 0
85 -181 298 0
48 384 -391 0
153 329 -334 0
-92 170 -266 0
56 -162 -168 0
-71 -134 -215 0
10 21 -374 0
62 -159 183 0
-124 -159 -343 0
103 -193 -350 0
191 226 -301 0
66 159 394 0
90 409 439 0
-1 -14 -226 0
-84 97 -201 0
70 155 -276 0
-80 179 226 0
-17 -70 329 0
-263 -348 -391 0
211 -297 -319 0
12 -121 406 0
57 -109 428 0
-144 -358 438 0
-5 -69 319 0
106 381 448 0
-38 -274 364 0
81 135 309 0
183 279 282 0
46 -417 -438 0
-35 -152 -371 0
97 -368 -369 0
-273 -321 -322 0
-81 279 421 0
165 168 -444 0
63 -416 -430 0
-7 41 84 0
-97 168 -319 0
127 -176 -374 0
187 234 -380 0
-129 -401 -408 0
197 285 -417 0
17 395 404 0
-137 -419 428 0
-231 241 304 0
94 177 444 0
-38 -231 389 0
-71 228 -312 0
-316 -405 429 0
-207 -252 285 0
65 109 -418 0
-19 132 -301 0
-86 115 -439 0
224 345 -362 0
103 132 -358 0
-2 -159 340 0
-288 295 365 0
-73 -122 160 0
-199 318 385 0
-174 -246 -339 0
-62 65 -140 0
101 111 -143 0
-68 -150 -190 0
-105 228 391 0
-10 -276 -352 0
160 -244 436 0
-50 73 328 0
-38 -404 -434 0
13 -331 417 0
19 138 -290 0
-18 -224 423 0
256 368 412 0
-18 324 -448 0
-8 215 -318 0
115 -124 -252 0
-87 -140 321 0
119 153 -334 0
17 -28 157 0
140 291 -361 0
-274 280 326 0
37 183 403 0
128 -198 -406 0
-183 -318 -346 0
-66 172 295 0
-178 226 446 0
-179 249 416 0
109 114 -432 0
-64 -180 394 0
-6 19 329 0
151 -266 -279 0
-201 -223 240 0
-15 264 431 0
85 -348 369 0
-89 110 387 0
79 -97 -265 0
-11 102 223 0
35 -78 -365 0
-48 330 439 0
15 -131 -384 0
-49 -145 194 0
-75 235 -262 0
352 368 -419 0
-201 290 407 0
82 -223 -301 0
-36 59 356 0
247 -298 336 0
-132 -187 -400 0
94 -334 439 0
152 288 343 0
135 -203 300 0
99 -350 353 0
10 222 367 0
15 58 163 0
34 168 -446 0
189 -224 -250 0
-11 -202 296 0
15 -118 240 0
90 322 -350 0
10 300 362 0
167 352 -426 0
-166 -176 -425 0
-95 -161 345 0
261 -266 311 0
61 201 427 0
378 -382 -411 0
88 114 -172 0
-36 145 362 0
25 27 -264 0
-15 230 278 0
216 -304 -326 0
-239 308 392 0
-213 -373 374 0
256 -380 414 0
-25 -201 -214 0
96 362 -419 0
90 219 -406 0
-41 75 -366 0
-217 218 -436 0
-68 -170 -354 0
19 199 -249 0
-106 132 156 0
190 -248 261 0
210 413 417 0
51 -112 243 0
-63 84 152 0
-33 -176 -321 0
-290 -301 437 0
-307 -327 360 0
-215 -251 -437 0
291 -360 -362 0
-81 -120 242 0
-45 -85 -321 0
-378 406 -447 0
-149 402 445 0
-298 304 351 0
231 -268 432 0
95 -180 -227 0
-146 302 -373 0
66 -144 298 0
127 -277 -405 0
-161 -334 -417 0
-139 -274 -432 0
-134 345 -366 0
20 -284 311 0
8 236 -253 0
-168 317 -376 0
-63 271 424 0
-201 225 438 0
-36 253 316 0
-117 -384 423 0
-17 -134 -219 0
-17 -277 428 0
314 -347 -384 0
-47 264 -447 0
89 -293 -432 0
153 172 279 0
57 341 424 0
253 322 411 0
-15 76 314 0
61 81 -211 0
36 328 -370 0
-19 99 -431 0
254 -288 -387 0
160 241 375 0
-311 -421 449 0
-161 -287 350 0
35 85 -405 0
40 143 -400 0
116 -319 -370 0
66 -276 417 0
-8 31 -125 0
68 124 -215 0
-3 306 420 0
-61 240 341 0
-225 -258 -349 0
-90 276 329 0
133 170 -426 0
-132 -241 313 0
4 365 -369 0
86 123 216 0
245 247 388 0
65 -399 -430 0
-26 -338 384 0
-77 -100 -346 0
210 265 -331 0
150 255 317 0
-40 -135 -391 0
-129 -148 383 0
-20 142 -172 0
270 -321 -326 0
17 -140 -272 0
34 -371 -426 0
-209 -251 291 0
37 -180 248 0
-12 117 385 0
-18 71 -155 0
42 190 418 0
-145 177 312 0
210 351 -434 0
-36 94 -350 0
-208 -331 343 0
335 -375 -409 0
-32 -254 -372 0
-97 237 269 0
-116 -338 398 0
-88 -145 349 0
127 179 211 0
-10 150 347 0
229 -270 393 0
-261 -275 -340 0
-125 -192 -193 0
43 75 265 0
-240 -252 -260 0
-97 -158 254 0
37 -199 305 0
179 -196 348 0
-17 184 218 0
163 171 -282 0
-159 174 -356 0
-313 -322 -361 0
-352 -385 -433 0
-165 -208 280 0
-155 430 -440 0
-131 195 -371 0
-127 342 356 0
45 61 -306 0
-145 -171 206 0
21 140 -434 0
-26 87 -121 0
18 -59 -219 0
-57 195 -356 0
4 372 430 0
-52 104 175 0
-163 342 -353 0
155 -299 -353 0
162 -410 424 0
179 -342 364 0
-21 -62 -92 0
-71 -180 -312 0
-2 -6 72 0
-306 405 431 0
-30 106 417 0
78 104 422 0
22 -77 -155 0
155 -335 422 0
37 -181 -364 0
206 213 352 0
-138 345 -365 0
27 69 -157 0
134 256 -279 0
-115 -153 -154 0
-279 282 289 0
368 -398 -438 0
-19 25 230 0
299 -355 -363 0
21 -301 406 0
67 88 395 0
-70 146 -272 0
-295 334 388 0
-62 -66 -279 0
7 -88 375 0
-27 29 -450 0
-138 -321 -405 0
79 -188 -441 0
-145 -416 -447 0
124 258 -355 0
35 60 -440 0
131 -160 -186 0
110 -192 -197 0
22 179 249 0
-13 192 292 0
-275 349 -447 0
-221 -310 450 0
-130 328 407 0
-267 286 -329 0
-165 383 -408 0
42 235 377 0
-155 233 425 0
221 276 429 0
282 345 -430 0
56 -172 241 0
-84 355 -415 0
325 -379 -389 0
79 -335 376 0
79 151 390 0
-47 108 394 0
-20 233 438 0
-22 -92 242 0
-2 -10 -449 0
293 351 391 0
261 283 -380 0
172 -217 218 0
10 17 -183 0
-161 193 -280 0
9 241 268 0
168 -378 -396 0
32 252 -447 0
229 -419 424 0
123 -241 431 0
-127 -293 -410 0
65 -127 -397 0
32 -59 -85 0
-236 300 322 0
170 -255 400 0
-83 113 -360 0
-181 335 353 0
111 -346 433 0
79 -319 403 0
8 -62 -371 0
8 94 -208 0
-6 -248 -284 0
-3 19 -373 0
-94 127 295 0
-61 -84 182 0
-108 -246 283 0
-100 122 -298 0
-34 -276 379 0
307 -328 -381 0
-77 134 320 0
62 323 -384 0
274 -316 -337 0
-24 -103 158 0
-135 -368 -385 0
99 -273 409 0
144 -293 -308 0
330 -373 403 0
-62 87 149 0
42 119 282 0
157 317 -344 0
-182 -355 -404 0
-414 416 443 0
89 135 -345 0
297 -354 -368 0
-24 52 215 0
44 -254 -450 0
-179 316 332 0
-47 -177 340 0
-88 97 -111 0
-11 340 413 0
109 220 384 0
-122 -181 -202 0
314 -358 -429 0
88 -226 356 0
109 -135 370 0
-90 -319 405 0
-181 -245 250 0
-113 -216 -234 0
-8 45 -78 0
23 239 -386 0
-193 335 441 0
147 393 -441 0
-43 58 202 0
-46 -281 293 0
-46 177 415 0
3 65 243 0
70 74 404 0
99 289 422 0
-241 374 -408 0
197 237 437 0
-161 -210 -256 0
-70 147 -174 0
70 -132 -330 0
-73 -338 -434 0
126 249 268 0
-30 -70 187 0
-41 -112 -180 0
-170 -199 -366 0
-21 229 -449 0
81 351 353 0
217 -253 398 0
143 163 -389 0
3 246 -281 0
-74 175 205 0
113 329 -438 0
-173 -199 282 0
-232 -341 -406 0
101 268 429 0
108 -275 350 0
-31 163 298 0
239 -247 -345 0
102 263 -279 0
-100 189 345 0
-117 -194 -306 0
2 -62 -296 0
244 -374 -430 0
-84 246 379 0
-103 -278 435 0
-247 339 450 0
-16 54 -334 0
27 -232 -425 0
34 241 -391 0
-49 -232 -318 0
48 -276 433 0
23 28 -148 0
27 165 -199 0
-85 -289 -373 0
121 -394 413 0
-14 -229 426 0
-124 248 327 0
94 -97 371 0
-157 238 436 0
2 119 175 0
191 309 -320 0
102 150 370 0
-263 -276 385 0
-28 -36 -267 0
-57 -442 -443 0
-167 275 395 0
-111 314 422 0
175 -263 -406 0
46 269 -296 0
242 -288 -332 0
260 378 386 0
93 -169 318 0
164 301 -364 0
89 118 241 0
-182 233 406 0
250 342 404 0
-55 314 386 0
215 252 -334 0
65 133 167 0
-39 -402 -415 0
-113 -183 369 0
-7 145 384 0
154 -276 -364 0
196 -242 -382 0
52 144 349 0
-150 322 377 0
206 377 393 0
-11 -82 342 0
-55 -130 -271 0
-244 -315 329 0
-119 303 348 0
63 88 216 0
82 -136 -315 0
-102 236 -448 0
91 408 -414 0
50 67 -204 0
-176 -222 -328 0
265 -381 -448 0
17 347 358 0
144 -196 -394 0
13 -42 -357 0
-178 -202 394 0
42 -297 407 0
-45 -155 388 0
72 -167 369 0
-201 -276 432 0
-104 -116 120 0
-125 346 -356 0
-25 -180 -233 0
-32 308 -421 0
-108 116 394 0
127 227 -434 0
-190 -285 -325 0
-55 151 312 0
-245 273 325 0
50 125 -190 0
149 -165 410 0
-64 198 -245 0
276 -325 -363 0
34 -142 365 0
-77 -130 -148 0
-11 -218 -400 0
-174 -366 -442 0
-141 -219 263 0
-129 -217 391 0
-69 240 -375 0
277 404 -440 0
38 -353 374 0
-40 -137 -199 0
285 338 -378 0
-58 -278 317 0
-258 327 433 0
-111 119 159 0
179 -246 409 0
-56 -260 415 0
-107 128 270 0
99 274 362 0
-145 -429 446 0
165 226 -387 0
-218 244 -426 0
180 -313 -413 0
-7 19 -189 0
181 -419 447 0
19 378 -417 0
-108 -208 -416 0
-45 135 -163 0
26 -150 276 0
-132 -234 -367 0
180 226 -238 0
189 -197 403 0
-27 33 -279 0
353 421 -450 0
205 246 258 0
106 -165 450 0
-93 -181 198 0
-242 -387 414 0
115 -265 392 0
-6 -52 -175 0
-51 287 449 0
286 305 -412 0
84 -121 215 0
34 49 -388 0
-90 139 -433 0
13 265 -369 0
-283 295 444 0
135 139 -413 0
97 -253 -342 0
155 -258 -287 0
-37 -159 -350 0
184 321 -404 0
25 -144 -233 0
72 279 -364 0
-43 -46 81 0
85 -152 -344 0
-135 -167 -260 0
98 -154 -215 0
-21 -102 256 0
-74 -195 -216 0
25 152 -174 0
310 353 -385 0
-12 40 -134 0
160 -291 -298 0
116 -245 -296 0
130 203 -225 0
148 154 194 0
-89 210 -379 0
134 -175 -216 0
-29 -142 -360 0
-274 326 404 0
70 433 -434 0
247 295 332 0
-20 -63 -170 0
275 -335 -359 0
64 81 171 0
-96 125 288 0
-95 428 -430 0
-64 81 -243 0
-59 -124 327 0
-164 277 363 0
-43 171 353 0
108 -144 203 0
182 -209 236 0
96 -189 -225 0
-96 270 -418 0
-175 -327 422 0
-83 244 -333 0
-54 -130 -151 0
-111 113 -118 0
-30 -257 -419 0
-231 -311 -388 0
139 -276 356 0
20 -245 -307 0
6 -275 419 0
189 296 -414 0
28 -60 -177 0
-315 -370 -397 0
-16 -67 -91 0
56 203 -287 0
-85 -312 -345 0
46 49 -96 0
77 -100 -320 0
-66 138 184 0
82 161 -236 0
150 165 258 0
-33 -160 262 0
63 212 -399 0
-244 -310 392 0
-220 297 -405 0
97 -286 380 0
49 51 -179 0
-185 278 -358 0
174 -371 -410 0
135 -266 -314 0
156 -158 -254 0
13 293 -400 0
-30 -297 -449 0
-138 -145 440 0
-145 -163 326 0
74 -103 153 0
103 163 395 0
-29 -303 446 0
-46 -114 -395 0
5 162 -324 0
-65 109 183 0
16 344 -441 0
85 285 292 0
-49 -197 359 0
217 -359 -373 0
221 349 -426 0
-86 -196 -393 0
176 -250 -435 0
11 -103 404 0
74 -82 -159 0
-283 -295 351 0
-207 -296 -322 0
18 -295 344 0
364 429 441 0
-69 301 444 0
108 219 -405 0
54 204 276 0
-61 -324 354 0
-46 -206 359 0
105 -185 -259 0
-39 187 325 0
131 258 -416 0
99 427 -441 0
-253 281 436 0
-60 88 -193 0
17 -98 -414 0
48 -200 -250 0
7 -210 -392 0
204 244 -258 0
95 259 330 0
-112 237 392 0
-109 -127 -265 0
-92 139 -332 0
142 268 337 0
258 -302 -355 0
36 -129 -362 0
17 -185 -284 0
-139 -237 -389 0
98 99 131 0
321 -334 -336 0
96 -164 -203 0
-126 145 -183 0
-105 -127 -129 0
62 -295 -450 0
-54 146 183 0
4 110 127 0
64 126 -154 0
72 -93 307 0
-53 -166 -212 0
-40 71 -437 0
-75 -349 408 0
57 241 -353 0
65 -222 -348 0
-117 283 -365 0
242 -262 -332 0
110 -164 -380 0
-55 61 182 0
-115 -271 -274 0
238 332 448 0
52 -169 -276 0
265 269 -324 0
-112 138 213 0
-279 343 417 0
-163 180 -338 0
-246 265 -368 0
245 252 349 0
173 -380 394 0
151 -229 -331 0
-112 -231 309 0
-38 325 -375 0
57 122 352 0
33 49 135 0
-49 -198 396 0
148 299 -411 0
-95 -142 287 0
-29 -97 161 0
112 179 291 0
-39 147 435 0
65 189 -193 0
-55 -123 391 0
-33 -81 -420 0
-6 16 94 0
120 -148 242 0
222 270 385 0
-67 139 329 0
-140 -345 432 0
-103 246 -322 0
150 203 -398 0
-37 -79 326 0
227 397 399 0
-317 353 410 0
-160 243 -263 0
-10 101 -207 0
28 -78 306 0
-156 -420 -430 0
20 -265 435 0
201 216 261 0
79 108 126 0
-1 276 -373 0
-7 270 375 0
3 260 267 0
-142 -385 -400 0
-211 282 336 0
15 -176 377 0
103 107 246 0
-24 68 218 0
-301 -369 413 0
-125 241 325 0
109 158 298 0
-174 -257 -418 0
15 27 -166 0
-50 168 307 0
45 -361 439 0
181 -289 -401 0
-144 -170 -379 0
-272 301 335 0
6 -150 353 0
130 385 429 0
-155 -370 428 0
-70 -241 387 0
-138 409 419 0
-203 299 -312 0
50 293 -392 0
-205 -275 -329 0
182 -281 -347 0
-243 -263 -435 0
-88 -242 259 0
230 -288 -362 0
79 182 403 0
-390 400 406 0
155 318 410 0
-147 -293 -336 0
-121 -210 326 0
-296 367 -380 0
-129 -230 -412 0
-19 94 -247 0
40 47 -126 0
93 256 303 0
-73 112 140 0
165 -396 -446 0
-68 82 -198 0
-106 251 -328 0
-31 73 -112 0
-31 344 415 0
-46 255 -277 0
-267 -297 439 0
-179 293 -424 0
-14 126 407 0
119 -163 176 0
-351 360 432 0
-144 -207 -256 0
-82 270 -362 0
-191 -197 408 0
-23 184 -335 0
71 372 -392 0
-164 227 413 0
-94 219 400 0
-100 280 -291 0
167 255 409 0
-9 -51 -105 0
-39 -110 435 0
-61 223 -412 0
30 59 -221 0
-79 136 -178 0
-124 -142 166 0
203 -210 -331 0
76 -245 -392 0
106 -258 306 0
-141 245 448 0
212 343 -352 0
-42 195 257 0
96 -203 419 0
68 -147 279 0
268 -302 308 0
22 -44 197 0
318 -325 -392 0
-75 203 432 0
113 184 318 0
15 -17 314 0
-181 420 440 0
159 -363 447 0
234 -363 408 0
-22 73 97 0
-193 -274 -299 0
-3 -274 323 0
-44 161 -177 0
-43 167 -204 0
-51 -115 393 0
131 -370 376 0
-168 386 -415 0
-2 -4 -21 0
-267 -297 391 0
-72 -95 415 0
127 -128 291 0
87 -334 -394 0
-203 204 -443 0
-153 173 373 0
78 -343 415 0
-76 -364 -389 0
-78 -288 -359 0
92 -107 -251 0
-103 156 -248 0
98 -216 -262 0
-58 250 -285 0
101 -335 347 0
10 -45 -115 0
64 185 -316 0
152 304 425 0
-30 54 233 0
113 -186 -230 0
-94 -299 -397 0
-164 -245 -366 0
-66 -272 -411 0
169 256 304 0
-45 254 436 0
166 -268 423 0
-109 192 387 0
-37 131 435 0
-39 -375 -382 0
109 -188 436 0
-147 165 -378 0
-127 -227 -365 0
-77 287 338 0
123 -227 -302 0
-9 299 -391 0
32 96 152 0
136 -162 217 0
-102 -184 -304 0
-69 -201 364 0
290 340 375 0
6 -58 414 0
67 287 -417 0
-27 -96 -423 0
153 181 258 0
164 315 376 0
-71 -134 -238 0
130 -198 -324 0
-90 176 336 0
166 -256 -426 0
110 -253 361 0
61 121 199 0
93 -103 251 0
-280 -379 -428 0
-93 -134 -219 0
-174 427 -432 0
181 292 -371 0
62 -197 435 0
198 -209 -396 0
159 -242 440 0
-36 -139 198 0
122 -140 281 0
202 218 -407 0
-48 -178 -239 0
301 362 396 0
57 346 -392 0
-139 -187 277 0
123 130 -264 0
273 -326 -356 0
102 296 -436 0
-3 -167 292 0
-94 -145 -387 0
-75 -258 -389 0
68 -131 439 0
67 141 230 0
-215 -258 357 0
110 143 230 0
178 -256 397 0
212 234 288 0
168 -284 398 0
-82 225 -344 0
28 104 403 0
293 404 -417 0
102 -116 117 0
8 114 122 0
90 126 -176 0
-103 -290 314 0
106 259 327 0
176 264 -278 0
-10 93 387 0
173 -206 209 0
167 210 362 0
169 -346 434 0
110 -171 317 0
-207 -229 -297 0
69 -209 -424 0
10 -148 -196 0
22 -78 241 0
143 -230 -329 0
-146 150 418 0
45 -90 238 0
-90 149 -186 0
-40 -41 412 0
8 212 222 0
92 -263 -341 0
85 -213 221 0
34 94 -358 0
-56 -108 -157 0
-298 414 -417 0
-135 173 -392 0
129 320 -332 0
214 -229 391 0
75 -145 -259 0
-31 -276 428 0
-284 394 -447 0
5 63 167 0
44 -261 301 0
275 369 393 0
-63 123 -145 0
81 143 296 0
-127 -336 -383 0
218 444 -447 0
-77 306 -316 0
71 278 -290 0
394 -413 417 0
-13 -22 43 0
-112 352 384 0
34 97 -238 0
-12 153 344 0
99 -258 -317 0
77 -79 -391 0
-6 -71 328 0
29 -146 -419 0
-267 353 401 0
156 -276 326 0
-229 -311 396 0
41 221 412 0
87 106 328 0
-7 -228 -320 0
204 -243 -280 0
61 154 -241 0
83 -122 -417 0
72 236 375 0
-216 278 -443 0
165 234 288 0
149 406 -435 0
26 155 220 0
223 -381 -417 0
175 -209 -323 0
229 367 406 0
-317 397 413 0
-49 73 203 0
22 250 -369 0
24 -196 -201 0
-27 -251 428 0
207 286 -421 0
295 -363 -434 0
181 -305 393 0
-17 -256 278 0
-123 -411 448 0
-82 283 318 0
-356 -357 417 0
73 -134 331 0
-30 33 141 0
-99 213 399 0
-256 313 329 0
230 244 325 0
174 225 370 0
194 -378 389 0
104 209 -285 0
-256 270 337 0
-198 -362 447 0
202 253 -341 0
-274 -310 -311 0
2 66 -276 0
117 -254 -417 0
-267 -297 -446 0
-50 156 -223 0
144 -225 -449 0
13 86 -346 0
-9 79 161 0
9 -40 -335 0
-240 386 -395 0
-48 -246 -402 0
127 132 -387 0
-175 -238 378 0
-104 -169 219 0
50 -110 -190 0
52 -83 -265 0
219 258 298 0
-21 -107 -399 0
-85 -100 -351 0
222 -348 -446 0
-19 48 136 0
-10 350 -393 0
106 193 -344 0
188 279 443 0
-72 242 271 0
-39 -56 167 0
-129 -293 376 0
-78 398 429 0
114 120 -304 0
32 269 -292 0
345 -376 -392 0
-24 -171 -313 0
-285 -403 434 0
29 -246 -428 0
77 182 -401 0
25 -122 -234 0
-74 -178 438 0
108 144 -429 0
-147 378 396 0
-112 -305 343 0
-55 288 334 0
95 314 374 0
-84 -163 -176 0
90 -157 421 0
106 413 -442 0
-87 328 -359 0
309 -333 356 0
94 227 -394 0
26 -119 -440 0
107 142 162 0
-24 -89 233 0
