p cnf 500 2129
76 180 -500 0
-61 -109 452 0
249 -298 444 0
-163 -380 489 0
193 -334 -392 0
-221 -260 -433 0
-85 245 -272 0
-48 271 -443 0
18 223 263 0
-15 -241 314 0
47 134 384 0
-126 -207 231 0
-79 259 481 0
-264 -281 434 0
98 240 -418 0
-365 417 -493 0
-117 295 450 0
-59 151 -350 0
-140 151 262 0
242 -254 -327 0
53 -74 -484 0
217 -342 -436 0
60 -69 -321 0
53 -234 -407 0
-4 230 -292 0
4 341 -469 0
41 215 -453 0
-178 228 -290 0
132 -242 281 0
-184 301 408 0
-206 331 388 0
60 -102 -229 0
243 409 -485 0
-8 337 476 0
45 -264 361 0
196 -429 483 0
-22 -32 73 0
-155 298 -363 0
-124 139 154 0
-46 127 -382 0
-3 90 213 0
-17 327 467 0
74 172 497 0
-146 255 -354 0
48 280 -479 0
59 -314 481 0
9 165 -429 0
-68 -142 -291 0
-157 402 421 0
-434 468 493 0
-36 -296 452 0
-64 -398 -402 0
-116 -133 449 0
127 -219 394 0
68 69 158 0
-162 -261 -453 0
53 -135 -336 0
-16 284 303 0
-40 252 439 0
158 261 284 0
-15 163 407 0
380 419 -493 0
-32 82 -411 0
67 -231 -437 0
292 -339 -400 0
201 202 -260 0
156 216 -357 0
37 194 285 0
-16 -34 -199 0
-1 -339 -360 0
41 128 266 0
-323 428 -487 0
-287 -408 423 0
117 -213 -474 0
-133 -287 413 0
53 368 -425 0
-244 -341 442 0
-202 -350 -374 0
-62 -78 434 0
103 189 -245 0
-72 -209 344 0
-160 -413 -444 0
30 35 171 0
31 -80 487 0
77 371 -387 0
135 156 -427 0
119 406 -411 0
343 -429 445 0
-54 264 -329 0
179 -204 234 0
134 236 -293 0
66 174 -200 0
110 -119 428 0
-261 343 -349 0
-92 206 -391 0
248 -342 470 0
-182 -261 471 0
-203 317 320 0
57 -402 470 0
154 181 -266 0
118 274 465 0
60 126 348 0
137 400 -409 0
265 435 475 0
-231 -341 -363 0
-38 307 490 0
-272 392 449 0
104 -310 375 0
156 -381 -458 0
-109 136 227 0
-92 -201 -391 0
-160 -265 -337 0
-158 -385 401 0
-84 -323 -418 0
8 455 488 0
48 -53 192 0
61 -285 -462 0
-131 -271 361 0
155 -357 -435 0
-90 -115 -170 0
176 342 384 0
-11 197 226 0
248 -405 422 0
22 -55 -252 0
-98 -362 -439 0
84 -288 313 0
223 -263 -492 0
151 324 -404 0
-15 -91 -120 0
-20 26 -319 0
17 -375 387 0
-181 -383 447 0
-430 -435 475 0
202 355 -411 0
71 -215 367 0
78 -433 -455 0
81 -85 -242 0
23 108 461 0
-129 329 390 0
-110 -157 189 0
-101 420 430 0
40 243 356 0
-352 -397 -435 0
-57 -318 336 0
-314 -361 -499 0
174 -375 -380 0
44 -173 -459 0
-99 129 -305 0
-21 -108 -258 0
-91 -140 -297 0
230 429 435 0
-97 -252 -497 0
-36 266 -364 0
66 -182 -365 0
-31 82 -361 0
6 38 59 0
187 342 350 0
-101 345 -441 0
-173 -425 431 0
19 354 -355 0
-282 301 -326 0
180 258 -495 0
-273 336 363 0
23 -173 -337 0
110 285 -387 0
142 -217 -468 0
9 207 271 0
-78 264 -337 0
-273 -315 342 0
-114 -119 491 0
7 150 -236 0
-253 -342 374 0
29 90 -123 0
-20 -335 406 0
-222 -313 -397 0
251 338 397 0
-265 378 383 0
-158 437 -444 0
220 -294 418 0
154 228 285 0
-17 225 -383 0
-252 272 -419 0
154 174 177 0
-20 -63 -487 0
-161 -221 -382 0
-14 250 475 0
-18 253 468 0
-125 233 339 0
-70 -203 -390 0
-65 -86 108 0
-86 -445 474 0
-89 -412 -480 0
-156 158 293 0
141 172 -404 0
177 -316 393 0
49 172 310 0
251 -293 -323 0
-218 385 397 0
-12 137 -477 0
-176 181 464 0
242 -261 370 0
-377 -378 396 0
70 95 -122 0
-79 300 320 0
-88 -196 -460 0
-29 -149 294 0
-181 205 464 0
155 225 496 0
-185 -380 -467 0
32 257 434 0
-16 -20 208 0
131 329 451 0
-150 -225 -390 0
-64 242 373 0
55 87 -425 0
18 54 200 0
-83 247 -284 0
183 335 349 0
-103 -188 -441 0
8 -86 -446 0
302 -341 -359 0
-172 394 -423 0
-94 384 424 0
-116 -119 257 0
-38 240 428 0
-306 364 -499 0
227 353 374 0
-108 400 -430 0
-29 -225 226 0
-93 -189 437 0
31 205 344 0
-62 -119 371 0
-33 102 -369 0
232 -237 -300 0
60 383 479 0
-172 268 -287 0
-68 -257 292 0
-43 -397 -493 0
31 -152 -342 0
229 240 379 0
137 298 472 0
70 78 -98 0
-167 196 336 0
-354 474 496 0
-229 -298 323 0
-82 199 -421 0
-72 252 -422 0
90 178 476 0
-193 -218 -444 0
-101 275 346 0
-405 486 -497 0
-31 -230 -416 0
-17 133 -431 0
195 -214 299 0
-266 279 491 0
-286 -379 439 0
-20 -275 -366 0
-123 -315 414 0
-66 -340 -362 0
-235 -289 -473 0
-112 193 -463 0
-23 -93 141 0
-2 303 337 0
33 42 105 0
-221 -361 421 0
-54 124 -488 0
16 190 -341 0
73 -340 -425 0
325 -367 424 0
-34 122 -390 0
192 294 373 0
118 240 -272 0
-127 372 469 0
69 -98 484 0
127 -315 468 0
60 172 314 0
62 -106 -338 0
146 -226 311 0
171 -173 -311 0
-178 -234 -382 0
228 266 -347 0
51 -214 259 0
129 355 -394 0
290 297 -428 0
15 -56 -495 0
-187 -253 451 0
-33 361 462 0
-54 -294 373 0
-115 340 374 0
-26 154 189 0
79 405 -415 0
19 383 -417 0
-185 -187 366 0
-27 246 -273 0
232 -397 -445 0
217 318 469 0
-36 -66 -67 0
12 -204 -241 0
-27 210 -419 0
66 144 -500 0
327 383 -478 0
55 244 340 0
122 -137 218 0
-91 -364 440 0
161 293 -308 0
105 -320 -464 0
-9 58 -236 0
-57 -316 326 0
28 415 500 0
84 -104 177 0
2 10 26 0
-84 -155 -454 0
-52 58 -179 0
-209 307 -391 0
63 -225 -283 0
41 -258 -349 0
106 -246 -475 0
-15 204 487 0
77 -366 401 0
-5 -133 249 0
-64 215 476 0
-335 339 473 0
56 170 370 0
10 366 -475 0
13 -213 -434 0
-158 377 -385 0
-90 328 -370 0
-94 -111 -278 0
-89 168 -211 0
-146 209 -431 0
-33 -349 -413 0
-169 233 351 0
56 290 -320 0
12 -232 493 0
7 -29 -267 0
196 -253 -342 0
-48 -166 462 0
309 -311 375 0
-92 101 116 0
-131 239 -499 0
42 82 214 0
-33 161 206 0
173 -400 491 0
251 -390 484 0
-133 249 -321 0
-4 132 -256 0
113 345 488 0
-227 -350 478 0
215 309 -372 0
26 -82 -323 0
-212 -311 -378 0
57 -73 138 0
187 279 -413 0
-320 402 -479 0
-47 -363 -442 0
-160 -201 -258 0
420 -425 446 0
-364 431 491 0
-109 -131 380 0
11 -180 -272 0
12 43 -389 0
-204 -275 434 0
-26 -59 -498 0
-4 -304 399 0
-36 211 254 0
239 -322 471 0
-306 -360 -408 0
194 -278 302 0
-103 -153 -389 0
-67 -219 424 0
124 -285 -339 0
18 -153 -235 0
-305 -368 464 0
-345 -385 438 0
-136 -420 436 0
-37 -322 352 0
4 87 -119 0
28 -292 -440 0
-89 133 320 0
-49 -89 127 0
128 -250 408 0
-272 -323 -345 0
-181 235 -412 0
135 -320 379 0
-68 -357 441 0
7 192 -269 0
-335 415 431 0
80 -439 472 0
-69 -117 313 0
125 -303 -478 0
152 -172 -355 0
-85 -312 -366 0
-84 -158 350 0
168 -174 -198 0
-172 -238 -296 0
-139 244 -319 0
-15 251 380 0
166 -199 -442 0
26 -308 -415 0
41 58 201 0
18 -36 -299 0
-144 230 376 0
-35 -52 -375 0
171 190 418 0
-325 -368 -399 0
-40 -249 -422 0
-45 -61 -363 0
33 435 449 0
-235 -328 -496 0
-113 -271 -301 0
56 80 475 0
334 -356 391 0
366 -401 458 0
185 198 495 0
370 393 436 0
-148 397 406 0
16 23 155 0
-71 92 234 0
269 -349 423 0
-15 189 386 0
-150 255 -420 0
143 416 430 0
56 277 -422 0
-134 -437 499 0
-167 393 421 0
227 -286 475 0
-251 313 316 0
38 -74 -301 0
101 -280 -373 0
-181 -322 -454 0
168 -346 -355 0
92 387 402 0
234 -353 360 0
-124 -249 -448 0
-80 -149 395 0
-287 375 432 0
129 -191 -288 0
118 -385 393 0
-56 -99 -225 0
-255 -297 -353 0
-78 -305 -352 0
-44 -297 329 0
92 210 336 0
-135 217 -408 0
19 -156 -389 0
-148 161 361 0
-3 51 -132 0
279 290 312 0
56 260 355 0
66 -166 -168 0
92 117 -160 0
58 -160 394 0
52 184 349 0
465 -493 -498 0
-5 -29 -271 0
107 -241 318 0
-132 -458 -497 0
-176 -214 301 0
22 245 382 0
-268 -426 -450 0
-119 -315 456 0
-467 480 487 0
-144 218 355 0
-204 225 410 0
-170 245 -337 0
-272 409 448 0
-177 -185 446 0
79 206 227 0
-9 283 359 0
-282 325 370 0
-18 -48 -159 0
24 -189 191 0
-97 116 452 0
-40 -147 -353 0
-146 461 -477 0
264 -311 -316 0
92 145 -199 0
82 -176 213 0
93 275 463 0
22 49 432 0
-170 -205 -483 0
54 82 -88 0
-60 -194 197 0
-23 105 370 0
113 -348 -491 0
-6 -73 340 0
75 -83 -361 0
100 201 -317 0
178 -281 -410 0
108 -181 -335 0
62 -166 392 0
124 222 464 0
-325 427 455 0
113 156 171 0
243 350 -402 0
-247 -342 -395 0
-175 189 334 0
114 292 373 0
-204 216 -412 0
-22 111 348 0
45 -281 -484 0
-60 -69 123 0
-108 -176 409 0
-173 -219 497 0
39 -133 -449 0
231 -233 -316 0
19 158 326 0
-120 177 255 0
182 -279 421 0
56 107 275 0
159 -348 452 0
-215 -236 358 0
63 348 -383 0
91 194 196 0
-144 -274 458 0
20 -44 -243 0
-101 -289 400 0
169 -353 -422 0
75 -389 473 0
-140 -436 472 0
5 -168 -358 0
-79 264 442 0
-92 -182 -356 0
153 234 239 0
40 -416 -452 0
173 -222 -281 0
306 389 416 0
-22 -62 -80 0
-198 -251 427 0
-170 -396 410 0
140 256 486 0
2 -26 464 0
-298 365 -369 0
57 -332 351 0
-190 262 -405 0
50 201 -367 0
-95 -259 -305 0
-49 -254 -315 0
-52 253 -258 0
187 -319 -341 0
98 278 417 0
160 213 -330 0
99 -198 -451 0
362 -374 -380 0
-186 -225 -315 0
-16 115 290 0
185 -227 -403 0
-20 -291 359 0
126 -182 498 0
159 212 453 0
161 -176 273 0
-204 -340 -490 0
6 -8 -54 0
-199 -240 343 0
-156 -235 478 0
-165 460 498 0
-40 -42 -162 0
96 -115 212 0
117 178 -403 0
-185 -295 496 0
184 -192 -465 0
238 364 -453 0
84 -166 477 0
-18 -258 322 0
-145 -206 -258 0
-12 -30 -142 0
-94 -102 367 0
447 -465 468 0
-60 -308 -353 0
16 28 346 0
-90 292 481 0
-30 416 494 0
-183 -211 253 0
-1 -22 100 0
40 -134 204 0
153 -298 -375 0
4 -60 -81 0
-46 -51 182 0
381 -382 446 0
18 -164 -322 0
114 355 -406 0
134 -173 463 0
161 -209 -410 0
-9 338 451 0
96 -457 -461 0
-16 -307 -413 0
-284 -437 -493 0
174 -379 -423 0
70 80 -396 0
20 314 442 0
-77 -240 -315 0
-125 -293 -408 0
-83 -239 -280 0
53 243 -287 0
240 -403 -419 0
135 158 -448 0
8 268 -452 0
306 -329 450 0
1 25 -343 0
257 -277 -331 0
-117 375 384 0
-335 -351 -368 0
66 -320 348 0
-43 -108 -282 0
175 197 427 0
109 -261 -483 0
90 392 -499 0
132 -188 -405 0
-331 343 -347 0
-12 130 364 0
57 -209 -457 0
-188 335 -373 0
187 -370 403 0
-192 -226 -353 0
-167 376 420 0
-160 408 -474 0
248 -395 -479 0
-96 -266 -499 0
-78 183 300 0
-158 -199 -222 0
-177 207 -211 0
-342 345 410 0
-82 -211 222 0
-13 -283 -457 0
106 291 331 0
45 -275 -450 0
-71 -230 -448 0
80 -157 -357 0
-256 272 -388 0
27 -187 -397 0
38 294 -422 0
-39 -131 472 0
-186 -276 -424 0
116 -223 323 0
-233 -328 500 0
-8 -351 457 0
-429 436 457 0
-99 -448 453 0
-426 -445 -489 0
10 -396 -398 0
-46 -114 -208 0
133 -311 -315 0
-85 -248 491 0
167 388 -421 0
-59 430 469 0
-74 116 -332 0
112 -121 -378 0
63 -139 487 0
-89 323 368 0
24 270 371 0
-160 200 485 0
-188 325 -326 0
3 -131 -386 0
-7 336 450 0
-346 -409 -431 0
103 243 453 0
60 288 328 0
162 -176 407 0
120 415 423 0
2 213 371 0
48 355 446 0
18 -318 -465 0
-31 414 461 0
149 189 472 0
-70 146 -197 0
48 -63 429 0
-65 -107 -482 0
-291 -373 425 0
-19 -362 384 0
-59 -233 -429 0
-153 229 -301 0
106 -210 352 0
-166 -288 474 0
298 -384 -469 0
294 -405 -464 0
84 88 -269 0
-137 151 -205 0
57 193 -435 0
107 241 -302 0
-44 276 -485 0
-8 -50 -314 0
98 -224 -468 0
-57 -390 493 0
16 127 -382 0
-29 171 -344 0
-136 -380 -457 0
300 333 397 0
-227 -362 -380 0
58 -148 -453 0
-51 159 -228 0
-120 239 355 0
-48 338 387 0
-105 -124 -413 0
-190 210 455 0
-325 -340 -497 0
55 217 234 0
-158 -249 -261 0
-18 -98 472 0
-37 -318 449 0
21 -159 -486 0
-29 222 450 0
-11 -400 480 0
84 301 365 0
64 194 339 0
-161 366 450 0
-96 -121 -294 0
-7 257 -287 0
-182 299 409 0
-292 -438 452 0
-78 -128 -328 0
188 261 -416 0
-18 124 -157 0
22 -201 -296 0
263 -327 -375 0
124 182 -184 0
-150 362 -479 0
114 280 447 0
-18 41 256 0
51 285 358 0
27 -39 363 0
-13 206 379 0
130 190 413 0
-39 60 -66 0
-59 -130 -199 0
-223 -400 402 0
-259 377 483 0
9 -362 491 0
-171 419 489 0
-98 249 343 0
-54 186 -483 0
5 125 -245 0
132 209 413 0
62 159 -389 0
-184 277 373 0
-181 268 -379 0
74 207 348 0
65 318 467 0
-136 171 -207 0
132 467 500 0
-24 470 -473 0
-169 -269 -304 0
-11 -16 -241 0
-85 147 416 0
114 116 403 0
-172 302 -482 0
84 -123 -380 0
-206 325 392 0
175 -267 362 0
223 248 -398 0
-130 -228 -325 0
73 -102 421 0
-311 343 415 0
-100 -299 411 0
145 379 -444 0
-78 148 -425 0
131 195 -209 0
-352 381 476 0
360 -378 418 0
197 -233 265 0
148 -218 450 0
84 -246 313 0
247 314 470 0
344 -447 463 0
-143 223 273 0
74 137 228 0
-104 -152 -203 0
11 389 -436 0
79 175 -404 0
-432 -452 -455 0
95 -378 444 0
-104 250 -342 0
-126 -413 -439 0
-7 254 379 0
-165 182 322 0
58 89 -484 0
103 264 -443 0
-36 288 397 0
-227 -373 376 0
141 -208 360 0
159 -304 -314 0
18 -274 -340 0
-170 -321 339 0
-196 240 -450 0
38 -254 338 0
103 -291 361 0
130 198 327 0
-203 396 -402 0
214 379 402 0
41 157 -322 0
107 144 236 0
-19 -308 320 0
203 -429 -496 0
-17 -75 383 0
-336 353 -469 0
-165 170 -331 0
73 406 464 0
-153 358 -390 0
84 125 -358 0
187 357 -488 0
-172 182 376 0
145 399 468 0
126 -360 -486 0
69 157 -435 0
192 -246 369 0
-214 307 342 0
81 -143 238 0
104 -252 346 0
-214 364 -456 0
-133 -145 -183 0
-353 -354 402 0
-270 277 -298 0
-3 31 462 0
46 114 232 0
154 -271 415 0
-92 -317 -341 0
7 -40 -183 0
-48 -103 372 0
-143 332 -386 0
123 -173 291 0
102 315 -375 0
54 -269 335 0
1 -24 -26 0
-319 -364 -371 0
-174 -258 464 0
-131 259 -494 0
-181 -217 444 0
65 -83 491 0
-167 477 -495 0
15 128 141 0
-1 42 -377 0
-59 370 -441 0
86 -258 297 0
119 -126 209 0
10 -170 349 0
21 163 205 0
-276 -343 -389 0
84 478 -480 0
115 205 -431 0
-56 -125 432 0
148 -193 486 0
-120 -188 -442 0
199 374 -379 0
150 260 -328 0
34 59 -129 0
58 -210 -475 0
-94 124 -413 0
338 -376 419 0
75 185 478 0
-230 278 446 0
-7 169 -410 0
223 272 354 0
-11 466 488 0
212 265 346 0
-115 -152 441 0
-70 247 430 0
-109 312 386 0
6 101 -253 0
300 -418 -445 0
156 -291 335 0
-19 53 198 0
-195 396 400 0
190 -318 402 0
106 -128 230 0
97 -228 257 0
74 166 -280 0
-145 238 -412 0
98 -154 196 0
-31 -76 391 0
-97 -362 399 0
-15 262 -337 0
41 139 -407 0
45 -297 -298 0
89 126 -340 0
-79 -87 369 0
6 14 -286 0
-58 -102 191 0
128 141 222 0
55 160 164 0
-87 298 -490 0
-5 -379 458 0
-75 434 -462 0
-2 419 -495 0
-10 74 -234 0
-3 52 255 0
-209 254 418 0
16 -307 -461 0
-53 132 -270 0
204 281 308 0
-155 -356 -493 0
-274 348 362 0
-352 401 465 0
16 -114 196 0
151 240 400 0
81 -294 297 0
195 196 346 0
177 -193 -234 0
178 -347 -433 0
130 -213 410 0
-302 328 416 0
118 254 -303 0
109 -206 349 0
-160 297 332 0
240 -285 -472 0
-109 -138 -421 0
-293 -304 473 0
270 -365 -444 0
-187 -245 -332 0
268 442 477 0
109 -425 455 0
-208 331 -415 0
-246 -355 363 0
-75 -89 408 0
370 475 -481 0
187 389 483 0
29 -55 -362 0
-34 104 -204 0
-284 -294 342 0
33 -82 -254 0
65 -93 -472 0
9 -121 -129 0
-91 103 -347 0
157 222 -273 0
19 -30 272 0
-93 208 490 0
-132 145 237 0
23 205 338 0
-127 194 335 0
-198 -335 339 0
-163 258 401 0
229 314 429 0
-140 -238 366 0
425 455 -498 0
-71 -121 -304 0
-223 295 390 0
205 348 -379 0
109 -411 450 0
-58 147 239 0
47 -69 388 0
241 -438 -462 0
82 -198 227 0
221 -224 262 0
-229 -314 -458 0
2 -213 355 0
40 62 333 0
20 171 335 0
-84 -224 272 0
-95 -272 287 0
-54 -55 -427 0
-390 -425 -429 0
81 -335 355 0
-89 334 -357 0
56 162 400 0
-256 360 -406 0
60 -272 -345 0
165 356 -373 0
22 -174 -211 0
8 -401 -408 0
56 399 500 0
-192 456 464 0
-298 453 -472 0
-118 -332 -436 0
-166 -207 320 0
-83 337 -484 0
106 131 -295 0
-191 -304 -448 0
91 203 236 0
212 -408 -465 0
-342 351 -418 0
-67 -143 472 0
9 -172 494 0
-182 -325 433 0
-170 318 -389 0
-225 245 357 0
128 -444 482 0
134 354 -355 0
109 -129 479 0
75 -181 -299 0
16 95 193 0
17 -332 398 0
41 216 -491 0
8 -186 224 0
28 183 -254 0
-63 115 -283 0
74 363 459 0
133 -304 -406 0
158 -254 410 0
-360 458 464 0
317 426 480 0
-124 204 -288 0
-35 -134 464 0
216 259 318 0
-261 346 493 0
181 -336 -438 0
-55 -187 313 0
-263 340 381 0
-31 192 374 0
48 84 -244 0
-101 -180 -221 0
270 -308 310 0
-125 255 -489 0
91 -167 354 0
268 395 482 0
42 -299 396 0
3 70 466 0
15 172 433 0
-126 192 441 0
23 138 408 0
-16 -56 498 0
-43 -262 392 0
149 -317 -329 0
-69 124 -286 0
100 432 -496 0
40 -129 -384 0
39 -52 144 0
-172 -222 -424 0
-184 -187 428 0
-109 328 -458 0
99 233 359 0
-31 -122 -124 0
-75 -368 496 0
-147 236 -342 0
30 -189 274 0
163 269 -467 0
-337 -340 -448 0
-177 271 -285 0
45 -110 -367 0
-85 -95 466 0
52 119 394 0
-61 161 490 0
209 231 -363 0
21 347 -380 0
156 289 471 0
-219 -450 -453 0
152 -193 -345 0
-4 84 168 0
35 -102 242 0
-204 -225 360 0
11 -107 -302 0
117 -270 -400 0
-9 139 -220 0
4 -258 -482 0
-128 198 -314 0
132 306 -387 0
239 407 -424 0
202 -394 -432 0
54 471 -474 0
141 402 -417 0
-130 -425 483 0
55 -372 442 0
-320 341 417 0
5 -448 456 0
-328 342 -358 0
61 219 402 0
-118 -171 -367 0
140 213 340 0
20 333 417 0
81 -105 -243 0
-32 421 441 0
-64 -212 -322 0
-119 -132 431 0
9 -178 335 0
33 215 328 0
76 176 -476 0
110 295 -353 0
-156 -169 -425 0
-40 50 -214 0
-309 356 463 0
46 -315 -348 0
262 315 484 0
48 -133 269 0
169 234 253 0
-364 404 -407 0
259 -418 -454 0
104 -268 298 0
-54 -227 -477 0
-284 -301 333 0
-187 221 -340 0
-112 -224 -323 0
29 -190 -483 0
43 203 398 0
-187 -216 -376 0
-211 295 -419 0
-369 -471 480 0
-219 258 319 0
270 274 349 0
-155 214 -478 0
-70 350 462 0
-69 255 -269 0
224 -253 -444 0
-218 -298 -424 0
86 156 -323 0
-51 -236 -469 0
-168 240 368 0
16 179 -399 0
276 324 446 0
-371 467 475 0
55 310 313 0
12 -244 251 0
-15 231 273 0
-132 -272 381 0
-149 301 -468 0
-126 379 -413 0
70 -339 424 0
260 -351 -387 0
-278 314 -320 0
308 386 466 0
90 -111 -207 0
83 362 370 0
-39 68 -195 0
323 362 -403 0
-16 -204 -493 0
-17 56 117 0
-137 211 301 0
-65 323 -359 0
-25 -120 -487 0
-19 -130 -246 0
65 -223 308 0
59 134 290 0
57 116 277 0
19 289 360 0
-127 -138 402 0
116 394 465 0
75 -108 109 0
49 55 -493 0
-39 -90 389 0
-16 -49 -56 0
-141 -256 -416 0
-256 -351 451 0
-12 -153 -427 0
-228 232 493 0
39 386 -392 0
200 -243 302 0
95 -125 223 0
26 -102 326 0
-99 -329 487 0
-44 -134 182 0
-287 318 441 0
5 -96 -98 0
-2 163 -317 0
-9 -376 428 0
66 -133 378 0
-112 -147 -309 0
60 265 -297 0
52 -158 260 0
-37 73 166 0
67 122 -184 0
-5 -417 500 0
94 138 234 0
-31 -122 129 0
-3 -163 -249 0
-109 -252 423 0
-60 164 -207 0
-78 162 313 0
160 169 -418 0
-197 231 415 0
-118 246 325 0
-91 -122 -499 0
14 -45 -53 0
171 437 -480 0
215 308 471 0
157 167 -301 0
22 -45 -338 0
-253 -293 444 0
246 429 486 0
291 315 375 0
146 236 495 0
238 355 385 0
-143 230 -388 0
16 260 -326 0
-111 156 294 0
-145 267 337 0
190 -286 -311 0
-137 -204 372 0
-416 426 427 0
212 -409 -431 0
91 234 440 0
-72 187 297 0
-105 -133 -309 0
39 244 -311 0
-87 94 427 0
-159 467 498 0
148 -171 -245 0
263 367 467 0
280 -414 489 0
-147 347 417 0
171 416 -478 0
99 416 452 0
26 -89 225 0
-73 -194 -284 0
-60 -376 387 0
131 180 -412 0
-128 327 -440 0
155 -236 -374 0
420 445 -447 0
-14 -219 286 0
-335 -380 -491 0
148 -294 420 0
-72 -222 -494 0
277 359 -402 0
-173 275 364 0
334 383 409 0
210 -289 -315 0
23 -182 479 0
-34 -228 320 0
199 -283 -361 0
17 245 -264 0
35 -114 443 0
156 -192 -300 0
3 136 387 0
82 132 -402 0
-112 175 -293 0
24 67 -245 0
51 357 494 0
82 179 409 0
-34 -155 -262 0
-131 -174 330 0
45 -136 302 0
-86 -87 -281 0
270 310 495 0
76 125 -302 0
-62 140 -380 0
106 -131 -474 0
26 -270 -365 0
15 85 375 0
-197 396 -416 0
37 -241 -417 0
-197 -445 462 0
114 155 -204 0
-251 -387 -415 0
68 324 -330 0
386 415 491 0
-188 350 -368 0
78 -146 -249 0
236 -269 492 0
132 198 -462 0
250 -462 -499 0
-51 -328 -386 0
2 -61 476 0
-93 -185 415 0
221 -397 417 0
-187 230 382 0
-174 382 476 0
36 -125 488 0
3 196 256 0
-325 -377 481 0
70 142 225 0
-198 -356 -477 0
14 -424 -430 0
63 173 -345 0
-58 151 207 0
344 -372 396 0
238 250 445 0
-178 -338 -366 0
308 450 -475 0
81 -429 483 0
-16 373 473 0
-257 -462 493 0
110 239 -307 0
-59 -231 474 0
189 468 -496 0
309 361 -409 0
-241 -465 466 0
23 30 -381 0
43 290 312 0
50 322 330 0
130 -343 -437 0
-23 281 -366 0
12 390 -457 0
75 171 -383 0
-129 218 230 0
-272 307 322 0
-6 72 444 0
-243 314 -327 0
326 -327 -409 0
234 -238 410 0
213 -280 -500 0
242 245 478 0
-63 -314 397 0
164 -313 422 0
-242 -314 -337 0
-362 -379 449 0
-176 -243 -306 0
141 -162 380 0
-166 366 -500 0
-278 407 427 0
247 -399 -421 0
-164 178 -360 0
190 -222 -380 0
63 -238 415 0
12 -244 327 0
93 -245 -386 0
-90 -163 -215 0
-119 485 -490 0
164 309 485 0
-8 -42 -204 0
-19 22 431 0
-289 -454 -478 0
177 -286 -454 0
115 221 439 0
-203 -242 408 0
-58 -187 202 0
-206 289 397 0
-96 -365 -412 0
8 -154 -213 0
66 165 468 0
-322 -329 -471 0
12 -180 463 0
69 -339 391 0
279 -360 -467 0
-106 135 149 0
-60 -86 -90 0
140 -186 -237 0
179 213 -437 0
-248 294 -341 0
62 175 451 0
148 215 296 0
-163 -203 275 0
157 216 -270 0
-83 248 -414 0
-167 348 374 0
165 248 350 0
181 208 -289 0
-26 -78 409 0
143 -256 -293 0
-42 -352 464 0
-136 -164 216 0
-101 398 -499 0
-1 -166 360 0
-104 281 286 0
68 465 -470 0
14 120 357 0
247 359 -436 0
-199 219 258 0
45 206 305 0
143 -280 -432 0
20 90 336 0
92 -189 -400 0
47 -194 -347 0
-191 203 402 0
-112 402 -489 0
-11 -93 353 0
-105 306 -418 0
-167 -415 -446 0
282 -332 378 0
-129 -349 385 0
261 -331 -364 0
177 -291 -324 0
-305 -329 341 0
-177 234 444 0
180 -317 476 0
165 198 284 0
-303 -328 381 0
210 252 467 0
152 -309 -437 0
-142 -143 301 0
29 173 -421 0
4 56 -172 0
-15 165 -195 0
-113 137 -407 0
-29 88 -375 0
143 -250 -488 0
-22 -219 -342 0
-27 275 472 0
-296 414 -439 0
-56 -178 -308 0
-45 -267 -402 0
13 62 -475 0
104 -152 -293 0
52 212 458 0
-185 -261 -316 0
72 143 403 0
163 399 487 0
-112 119 167 0
-40 248 -265 0
-76 140 -210 0
-110 277 449 0
-408 441 -490 0
110 323 494 0
410 -422 498 0
-49 -58 366 0
-83 217 341 0
-5 70 112 0
-109 113 163 0
41 139 -474 0
10 323 328 0
-116 -190 276 0
-168 318 -497 0
71 -415 -499 0
-122 -267 -388 0
221 389 -429 0
-45 243 467 0
199 -365 -431 0
-121 260 377 0
169 -267 -468 0
-259 -343 -402 0
177 237 -278 0
67 -434 -497 0
63 -165 238 0
-2 -121 -278 0
213 294 -446 0
-221 420 -458 0
167 -341 483 0
133 201 -283 0
-72 86 458 0
-65 -243 445 0
-26 321 -396 0
-49 358 -456 0
-266 -342 458 0
167 -234 471 0
-164 301 -426 0
202 -270 -400 0
-80 -157 322 0
1 -53 -279 0
-256 -469 -490 0
300 405 -443 0
-5 254 -457 0
-36 -78 -482 0
-93 206 345 0
-69 -284 -326 0
52 -186 194 0
-133 312 -477 0
-82 239 361 0
35 -473 -486 0
-212 283 296 0
36 -267 -268 0
101 419 -446 0
-98 287 398 0
142 -143 -246 0
219 299 -328 0
-8 -95 -187 0
148 -161 255 0
-82 -286 -443 0
60 126 169 0
-7 -12 291 0
-229 377 458 0
42 163 476 0
-56 145 -171 0
-113 -252 299 0
-233 365 -475 0
-118 217 354 0
142 236 -255 0
1 -454 459 0
322 -343 -482 0
-104 155 403 0
119 146 -207 0
45 154 308 0
-158 -224 -275 0
195 235 -259 0
-89 302 405 0
284 -382 431 0
76 101 -145 0
82 295 322 0
-21 219 335 0
305 471 -481 0
172 -343 -390 0
67 -189 -455 0
194 340 443 0
-110 -231 409 0
-39 -104 -128 0
275 -397 476 0
-148 -245 -455 0
-118 252 -292 0
-21 272 -428 0
-219 317 -369 0
126 283 444 0
-299 -311 471 0
202 -338 422 0
-263 -424 -479 0
-114 221 464 0
-61 -389 404 0
-33 -65 -235 0
-62 193 398 0
-237 -314 324 0
-84 -406 -450 0
-51 233 411 0
100 -187 -484 0
213 -352 438 0
137 229 -273 0
341 -413 -454 0
-111 200 -250 0
73 -308 -430 0
242 -264 -329 0
137 169 -311 0
-92 214 432 0
-52 -275 -496 0
101 321 360 0
87 134 -267 0
-122 -467 470 0
-25 88 -437 0
-181 311 -405 0
8 184 453 0
72 444 478 0
-303 -363 -464 0
262 321 -342 0
-179 323 -485 0
-5 89 340 0
-68 -151 -318 0
294 -391 491 0
3 -60 246 0
72 -283 -376 0
58 240 -461 0
118 -215 314 0
166 -188 212 0
296 -447 -488 0
74 303 -305 0
-199 244 285 0
73 -109 485 0
-7 60 -370 0
-249 -279 483 0
58 110 -412 0
-27 -277 -445 0
176 192 -328 0
128 -220 328 0
-214 -456 479 0
-38 -59 -391 0
144 -192 372 0
451 -468 487 0
-76 85 175 0
-240 -248 -444 0
81 -165 313 0
37 316 357 0
165 332 -334 0
-111 170 344 0
-75 106 -477 0
-89 322 392 0
-104 268 -462 0
111 350 467 0
25 73 467 0
148 203 470 0
32 467 489 0
79 113 467 0
-82 98 -171 0
300 400 472 0
22 -388 427 0
-40 55 206 0
-26 -145 -318 0
70 -243 273 0
-47 -229 -352 0
106 231 -455 0
-132 -142 -455 0
143 234 -408 0
-49 325 380 0
96 437 451 0
-23 39 -90 0
-217 362 -496 0
15 153 -432 0
-25 -282 445 0
-129 224 -282 0
-18 50 -101 0
166 348 376 0
346 396 430 0
-44 -386 -426 0
-116 -333 410 0
-53 -245 -327 0
-22 140 397 0
-100 123 -172 0
-35 -269 -374 0
-239 -347 -368 0
-99 190 -283 0
124 -186 440 0
38 -231 382 0
-40 47 326 0
-101 -248 -275 0
47 -62 -181 0
136 244 264 0
-49 -246 -269 0
-52 83 -395 0
-21 131 149 0
260 348 359 0
-28 -134 182 0
59 -324 490 0
-35 -43 -400 0
56 -80 310 0
-280 361 -385 0
146 -205 357 0
167 -180 -269 0
-150 -172 -460 0
-271 -313 495 0
24 72 -75 0
-125 135 235 0
-322 400 428 0
73 -179 -472 0
181 463 488 0
-259 -334 -491 0
290 392 -499 0
-168 214 408 0
-339 -397 496 0
-179 -206 250 0
206 252 -280 0
173 -189 -286 0
-94 -166 -392 0
-131 -139 200 0
9 -102 -432 0
-88 -186 -273 0
83 166 269 0
-172 -313 -335 0
211 229 425 0
84 -466 -480 0
78 -248 -390 0
102 -320 355 0
69 -74 353 0
-53 202 373 0
71 174 -194 0
-127 -370 437 0
142 246 392 0
301 304 451 0
127 -166 -459 0
-52 -102 -285 0
39 -66 -159 0
131 -383 438 0
104 -407 446 0
-367 403 446 0
-146 -346 -452 0
64 -238 -274 0
42 -304 493 0
-17 -169 -290 0
-212 321 414 0
-171 211 390 0
-125 164 -264 0
-40 -342 -450 0
-201 -283 367 0
-145 -193 412 0
334 -336 -417 0
-15 252 -320 0
-7 327 -478 0
27 -115 -141 0
-48 -230 339 0
-77 -152 451 0
228 285 -370 0
-143 321 408 0
405 465 -491 0
33 -100 328 0
-47 272 368 0
26 -260 408 0
44 -104 -354 0
34 -218 255 0
-412 -430 -491 0
-164 -264 476 0
343 -345 -361 0
88 106 455 0
-238 431 -483 0
-208 -288 490 0
-47 101 -380 0
128 -298 409 0
-124 -416 -438 0
248 322 448 0
-41 341 -393 0
-62 288 302 0
-192 -225 -412 0
283 284 306 0
-111 370 409 0
-92 137 474 0
242 317 -377 0
79 356 -435 0
264 298 309 0
-87 -128 -461 0
85 -102 -342 0
115 -265 461 0
-32 -77 -341 0
82 -132 198 0
172 -262 361 0
45 -200 -320 0
-157 -210 221 0
78 -271 277 0
89 156 194 0
247 417 -474 0
-107 -192 456 0
-65 -114 227 0
-161 184 -308 0
31 305 343 0
62 -435 466 0
-95 -166 -342 0
-71 -357 365 0
-78 138 -220 0
-13 -125 -300 0
218 -445 -464 0
-92 93 -488 0
165 183 444 0
-138 345 -383 0
-91 -440 488 0
54 -142 460 0
132 -236 -296 0
92 -226 457 0
-86 -140 328 0
-141 231 429 0
85 -99 -149 0
44 -247 -381 0
-194 -249 496 0
115 -254 369 0
55 -378 -495 0
-172 -423 441 0
-6 -401 -447 0
-44 -295 -296 0
105 -230 324 0
69 -139 465 0
284 350 411 0
106 -286 -429 0
-145 -161 -470 0
4 -93 -443 0
26 -272 408 0
-110 344 385 0
-158 -465 485 0
-105 438 -461 0
197 -288 -367 0
-54 112 245 0
133 -336 -355 0
-78 -156 -164 0
-123 379 387 0
10 99 355 0
-33 -171 -243 0
-39 494 495 0
-191 228 -490 0
33 76 -307 0
-185 -269 -297 0
249 -361 396 0
97 -139 387 0
66 -270 349 0
-363 -399 446 0
-269 331 -413 0
-80 295 -454 0
82 308 -352 0
-58 412 -460 0
33 -132 245 0
106 212 -493 0
-225 438 -482 0
-10 34 -369 0
85 182 -324 0
-6 242 -389 0
45 277 357 0
302 -339 372 0
-176 288 299 0
209 272 300 0
11 50 285 0
-132 -198 269 0
-153 -168 434 0
20 81 -445 0
-80 103 271 0
32 -45 -309 0
111 440 -483 0
160 -355 401 0
173 236 -459 0
37 -79 479 0
11 57 -384 0
-48 -368 -470 0
-77 -140 -483 0
1 136 -237 0
-69 -202 -466 0
-251 359 -361 0
3 -146 456 0
-126 -489 -493 0
4 -107 -293 0
-93 185 -421 0
74 -216 -416 0
-52 208 327 0
-140 362 -416 0
-206 -326 358 0
-127 -388 -401 0
289 -371 -388 0
78 -255 385 0
-17 89 349 0
119 -147 -490 0
-157 333 386 0
-125 -357 450 0
63 -267 -481 0
100 190 -348 0
157 -163 -464 0
-95 -169 307 0
-67 411 454 0
236 267 461 0
-83 86 -269 0
-118 -270 -317 0
75 312 373 0
35 -321 376 0
70 320 -481 0
396 -403 451 0
122 146 210 0
-58 247 -405 0
195 -358 461 0
37 -124 -455 0
-320 -452 467 0
28 173 442 0
-349 -462 468 0
281 324 394 0
-95 -197 -476 0
-349 389 -430 0
-237 -245 -401 0
-14 24 379 0
70 258 438 0
-168 253 -500 0
35 -170 447 0
265 -297 -347 0
75 147 411 0
284 308 426 0
-125 265 460 0
-39 -281 -309 0
-50 -118 -454 0
97 239 282 0
75 177 323 0
26 191 259 0
-15 -151 486 0
-328 -461 484 0
151 -278 -387 0
-27 -239 -371 0
-103 -200 369 0
-84 -235 469 0
12 -149 -458 0
123 -161 -197 0
152 319 -456 0
-29 82 463 0
171 -257 325 0
321 -451 486 0
-347 -382 -397 0
-81 260 -360 0
-100 -105 -449 0
-47 -49 -468 0
-31 165 -477 0
73 -283 -300 0
89 259 -306 0
241 -290 -480 0
-127 -325 -364 0
-82 134 -333 0
167 -242 334 0
-187 -206 378 0
-83 106 -327 0
-254 -310 -388 0
49 76 -135 0
-13 108 494 0
169 -217 -230 0
55 -66 166 0
-71 -82 -496 0
-134 -170 177 0
-127 159 -285 0
-50 -244 449 0
185 -240 -476 0
75 -207 307 0
-119 -170 -429 0
-75 129 284 0
286 -329 464 0
-69 -405 456 0
-202 251 395 0
-134 136 -370 0
-162 320 -351 0
-14 124 162 0
-158 355 -373 0
165 169 -278 0
-129 -134 215 0
45 -441 445 0
-358 360 432 0
64 111 418 0
-56 177 308 0
-131 155 277 0
-19 112 -441 0
-146 -247 -376 0
-125 280 -352 0
176 308 -309 0
-97 -143 -181 0
154 -218 462 0
-6 -158 245 0
5 -101 394 0
187 237 -395 0
-134 209 -251 0
8 276 403 0
124 132 -389 0
158 184 -242 0
-107 300 -448 0
-299 -411 -447 0
-175 -243 -270 0
-264 -402 -439 0
130 273 -396 0
-467 -476 -484 0
69 -174 -393 0
-272 385 396 0
176 -212 268 0
9 -139 424 0
72 180 343 0
38 49 123 0
29 110 454 0
-61 -376 -389 0
31 -224 -495 0
50 -193 359 0
14 131 -404 0
-216 449 493 0
-160 -230 -405 0
3 -17 -315 0
-76 116 -238 0
-39 -148 500 0
-83 292 300 0
-62 118 -229 0
-126 -220 -482 0
30 365 449 0
75 -265 332 0
-54 -327 336 0
59 -317 453 0
265 -319 -473 0
404 472 473 0
28 -89 -227 0
212 -440 486 0
-156 -252 485 0
184 229 -243 0
-167 -234 -338 0
107 189 -477 0
-235 363 470 0
-61 -122 -262 0
-70 -458 474 0
-58 -378 476 0
-73 450 455 0
235 484 -490 0
-134 -171 -366 0
-30 91 368 0
-67 254 -404 0
-41 140 424 0
-116 333 490 0
-35 -47 -500 0
80 -172 238 0
-184 -368 -444 0
-37 -93 105 0
43 178 386 0
301 -415 -447 0
-197 429 470 0
-74 200 224 0
67 -247 -274 0
-13 58 169 0
22 62 -174 0
-133 270 323 0
40 -141 178 0
25 291 -302 0
255 283 -353 0
-119 -150 334 0
-20 -98 -484 0
121 239 -293 0
225 293 320 0
172 -233 -305 0
-56 362 496 0
-79 226 295 0
-197 223 -365 0
-398 479 483 0
-84 -404 -494 0
11 78 218 0
211 -297 -306 0
90 -108 423 0
-327 -421 461 0
95 -156 267 0
88 -325 -387 0
-97 343 495 0
83 -205 442 0
54 405 -470 0
67 372 468 0
-58 432 458 0
-88 324 432 0
-140 197 -461 0
-78 316 468 0
-184 212 -379 0
-149 -158 477 0
186 -188 233 0
46 164 322 0
115 -131 319 0
78 166 -388 0
-8 165 222 0
-23 -227 -235 0
295 362 -379 0
12 -305 424 0
51 169 -239 0
153 -450 451 0
-141 164 244 0
265 -288 300 0
-54 387 -393 0
15 63 184 0
47 -71 -356 0
-209 407 442 0
-276 -403 -417 0
-4 -77 -180 0
27 -61 291 0
-54 250 433 0
-46 -183 295 0
-385 -435 442 0
11 -20 243 0
63 -180 -363 0
-160 438 450 0
143 -278 -445 0
213 256 396 0
-107 -183 271 0
209 -375 -474 0
-6 -145 265 0
-190 -258 290 0
-340 353 -481 0
32 -238 -401 0
95 -175 -387 0
98 -324 -420 0
-32 172 -289 0
-119 144 188 0
-183 311 421 0
176 475 482 0
-76 -81 -201 0
330 427 478 0
-29 274 316 0
-5 270 463 0
85 156 311 0
-256 298 393 0
-158 402 431 0
-81 176 192 0
36 -100 446 0
372 414 -449 0
-109 187 234 0
277 -474 -490 0
136 301 -377 0
15 -88 -205 0
-93 322 360 0
-125 317 362 0
129 -364 -442 0
68 -406 469 0
51 -272 -401 0
332 399 446 0
72 -198 236 0
55 119 -496 0
137 -299 473 0
-174 -297 -494 0
149 412 -485 0
-100 164 -268 0
-121 -215 459 0
-130 -162 366 0
-26 224 -499 0
261 -445 -453 0
156 -222 470 0
112 -258 -358 0
286 -428 433 0
-238 -369 430 0
-44 -281 310 0
10 228 -430 0
110 330 489 0
-45 175 490 0
-134 -158 280 0
244 -265 -309 0
-21 180 372 0
78 -98 -132 0
117 424 475 0
-91 377 392 0
232 -240 -389 0
5 -225 430 0
-111 436 -454 0
308 448 -458 0
53 376 498 0
1 268 449 0
129 166 -446 0
4 162 294 0
61 -106 -280 0
-39 128 311 0
32 251 472 0
160 237 -452 0
132 171 360 0
75 290 -328 0
153 377 468 0
-243 283 -483 0
109 110 -334 0
-193 221 263 0
83 246 -249 0
195 263 444 0
-6 -318 441 0
-166 -388 -394 0
-281 -305 467 0
37 -353 483 0
-155 -260 336 0
347 455 482 0
-52 -310 468 0
-227 -360 418 0
54 -228 -476 0
102 194 -322 0
317 348 374 0
-8 29 -112 0
10 -98 -378 0
-52 124 -292 0
-135 145 282 0
32 -152 -423 0
33 59 318 0
26 42 158 0
27 95 128 0
-263 -464 -472 0
372 439 460 0
143 -412 413 0
-108 -193 366 0
16 -55 -281 0
-162 203 -226 0
90 299 396 0
99 196 246 0
35 106 111 0
333 -355 -373 0
-32 -346 461 0
-227 -267 312 0
109 -303 459 0
42 -67 302 0
182 -368 -443 0
-10 55 219 0
-73 -89 321 0
158 253 -447 0
33 -344 -398 0
298 -434 -490 0
30 -250 -353 0
-15 -80 150 0
198 233 248 0
-179 189 -218 0
-2 -326 -361 0
30 308 365 0
89 -293 -473 0
205 -323 -497 0
104 344 359 0
75 263 437 0
-120 125 243 0
118 205 -275 0
-145 308 337 0
-210 -287 293 0
312 406 -453 0
-207 -268 495 0
-190 -232 337 0
-212 214 -267 0
115 -329 -462 0
9 151 201 0
184 -432 -444 0
207 390 491 0
-39 -145 348 0
-12 -66 317 0
47 213 374 0
272 -404 450 0
-143 -171 -174 0
-244 -251 -323 0
80 121 -133 0
102 317 -326 0
128 178 -245 0
61 198 -382 0
-70 -203 413 0
111 213 272 0
