p cnf 500 2129
-133 -162 -368 0
-2 -128 208 0
-50 -100 -129 0
25 113 -331 0
100 354 -496 0
373 449 -482 0
-82 212 462 0
-93 -401 485 0
4 26 -472 0
40 133 281 0
31 -274 -436 0
64 259 420 0
317 363 -416 0
-1 -377 460 0
67 85 -389 0
5 78 -356 0
-14 304 330 0
159 186 -353 0
3 189 277 0
58 -406 -462 0
20 -159 -279 0
-138 -324 479 0
140 186 370 0
26 368 -422 0
-305 -349 -400 0
90 394 488 0
340 -469 -471 0
-49 -162 326 0
-102 -330 -396 0
-40 52 356 0
12 139 -466 0
17 -19 -150 0
110 -385 -434 0
-343 433 438 0
-93 -391 418 0
-46 -282 473 0
106 -206 -290 0
-1 51 -278 0
-49 272 454 0
-301 -310 -485 0
21 -312 366 0
-168 406 412 0
27 415 -419 0
175 -411 465 0
41 313 -352 0
248 -305 -313 0
-385 -450 -477 0
-45 -312 -354 0
-70 185 -238 0
34 -59 -418 0
2 54 -279 0
22 -33 -220 0
-61 274 430 0
28 241 377 0
-167 -190 -500 0
-60 161 273 0
87 -136 -500 0
254 -483 -498 0
223 -294 379 0
-108 269 -294 0
-318 406 -452 0
64 -347 -468 0
-76 161 433 0
-11 -231 -259 0
-197 423 -485 0
12 456 495 0
-266 -335 499 0
303 -334 485 0
150 -151 -435 0
193 233 -433 0
109 -223 235 0
47 202 -469 0
-202 -211 322 0
91 -163 -332 0
102 -288 -372 0
174 272 -283 0
-134 271 -290 0
-298 -416 459 0
-354 444 485 0
182 -331 469 0
-102 229 335 0
-160 -241 481 0
-7 -29 -338 0
132 -155 313 0
65 125 -138 0
-33 -48 -193 0
135 -339 -470 0
125 221 241 0
65 89 218 0
-236 262 450 0
144 212 296 0
-85 -449 -456 0
-271 313 -335 0
-167 -212 -314 0
53 -213 428 0
73 303 -393 0
83 143 -311 0
-148 257 -317 0
-94 -193 475 0
253 -371 -390 0
-32 244 337 0
-163 206 394 0
-177 375 -496 0
-288 363 381 0
-118 241 -357 0
-137 -365 -487 0
258 -363 473 0
-251 427 490 0
-269 -357 490 0
284 -406 -425 0
6 -160 -329 0
130 -231 -407 0
-149 -185 -445 0
-112 -157 -218 0
-15 248 267 0
-214 -261 285 0
-474 478 487 0
190 -371 -480 0
109 -165 187 0
6 24 74 0
-174 383 442 0
159 439 458 0
-86 -349 -494 0
-323 337 -467 0
53 314 465 0
-101 116 202 0
93 96 -109 0
-22 -343 420 0
-58 -113 299 0
-28 179 -424 0
41 266 274 0
-199 287 -414 0
-206 -291 446 0
-82 128 321 0
-229 -379 473 0
183 448 -473 0
27 -170 -288 0
-54 198 260 0
278 -389 -404 0
133 222 483 0
166 348 438 0
204 242 364 0
147 -232 485 0
-62 -443 456 0
96 274 -424 0
215 -429 -445 0
207 235 -267 0
-8 -34 -356 0
-3 -241 258 0
-20 -204 311 0
-31 206 430 0
-14 -125 384 0
-80 -222 360 0
394 448 498 0
86 213 236 0
200 -326 461 0
112 213 -303 0
-141 276 -481 0
-41 -46 469 0
-30 -91 -324 0
-293 -392 -401 0
-32 134 288 0
385 -444 494 0
2 -460 462 0
-182 -186 -345 0
90 100 326 0
-48 -114 338 0
-52 -77 -246 0
-182 -409 -482 0
-225 487 495 0
178 281 -366 0
74 182 279 0
308 -315 460 0
-61 -111 -369 0
-317 339 474 0
-339 -363 436 0
-89 144 -377 0
332 411 -463 0
-266 278 289 0
-89 130 -369 0
51 -98 -281 0
-270 334 444 0
166 342 462 0
114 116 -373 0
-88 -291 497 0
-47 339 -358 0
-233 348 -415 0
11 230 -497 0
-73 200 354 0
-89 140 -498 0
-47 155 355 0
58 152 484 0
146 -419 467 0
-122 151 -314 0
-106 452 -497 0
-132 -159 367 0
-67 -102 474 0
-123 -172 -421 0
74 -318 -401 0
295 -329 406 0
-191 -308 -453 0
18 -130 -260 0
275 -320 336 0
54 -238 -361 0
8 277 -337 0
20 253 -269 0
178 390 482 0
-39 59 -175 0
34 -104 -168 0
199 -224 292 0
-8 -66 -174 0
93 151 -399 0
-33 -114 -265 0
189 -275 411 0
42 175 -291 0
-59 147 -414 0
133 -214 -434 0
-166 237 -402 0
8 62 459 0
188 -305 -480 0
176 -216 311 0
-229 -432 -454 0
-68 -211 283 0
28 -187 -395 0
311 -351 -482 0
-55 365 -460 0
-76 81 329 0
325 392 397 0
83 -217 -312 0
72 -149 173 0
64 169 473 0
-156 290 -413 0
-69 -176 -355 0
-16 152 -469 0
83 -215 -381 0
-204 -207 423 0
-79 289 -318 0
63 231 441 0
46 -218 432 0
85 -181 500 0
48 384 -391 0
153 329 -481 0
-92 170 -266 0
56 -162 -168 0
-71 -134 -215 0
10 21 -374 0
62 -159 183 0
-124 -159 -343 0
193 453 -494 0
-208 226 478 0
159 232 394 0
17 297 409 0
-14 94 -286 0
185 225 -317 0
187 -294 -358 0
-46 -70 88 0
-179 310 475 0
-17 -70 329 0
-263 -348 -391 0
211 -297 -319 0
12 -121 406 0
57 -109 428 0
-144 -438 482 0
5 -319 -461 0
59 369 381 0
81 -270 -274 0
-5 81 478 0
69 183 279 0
46 -417 -438 0
-35 -152 -371 0
97 -368 -369 0
-273 -321 -322 0
-81 279 421 0
-165 444 471 0
216 286 -338 0
41 -84 170 0
-66 97 -168 0
127 -176 -374 0
187 234 -380 0
-129 -401 -408 0
197 285 -417 0
17 395 475 0
-137 -419 428 0
-231 241 479 0
94 177 483 0
-38 -231 389 0
-71 228 -312 0
-316 -478 492 0
-207 -252 500 0
65 109 -453 0
-19 132 -301 0
-86 115 -439 0
224 345 -362 0
103 132 -358 0
-2 -159 340 0
-288 295 365 0
-73 -122 160 0
-199 318 385 0
-246 -339 -475 0
65 -140 148 0
101 -200 441 0
-24 -334 -424 0
-68 -176 381 0
-228 391 485 0
-10 -276 -352 0
-244 436 -476 0
28 334 -481 0
38 -46 -483 0
-268 334 494 0
172 384 -483 0
65 -361 -484 0
-18 182 -423 0
298 412 453 0
324 -448 462 0
206 -215 318 0
115 -241 271 0
-235 327 -426 0
-202 448 473 0
1 -153 -334 0
17 -28 438 0
140 291 -361 0
-274 280 326 0
37 183 403 0
128 -198 -485 0
-183 -318 -346 0
-66 172 295 0
-178 226 446 0
-249 -416 457 0
13 320 447 0
-77 250 -394 0
17 232 -386 0
296 448 -475 0
310 -441 -454 0
-201 -223 240 0
-15 264 431 0
85 -348 369 0
-89 110 483 0
79 -97 -265 0
-11 102 223 0
35 -78 -365 0
-48 330 439 0
15 -131 -468 0
-49 -145 194 0
-75 235 -262 0
352 368 -419 0
-201 407 496 0
82 -223 -480 0
-36 59 356 0
247 -298 336 0
-132 -187 -400 0
94 -334 439 0
152 288 343 0
-135 300 -465 0
120 302 -350 0
85 222 367 0
-15 58 102 0
77 -305 446 0
-127 -173 224 0
132 -202 -224 0
-118 125 310 0
83 231 322 0
256 300 372 0
120 167 -352 0
-166 -176 -425 0
-95 -161 345 0
261 -266 311 0
61 201 427 0
378 -382 -411 0
88 114 -172 0
-36 145 362 0
25 27 -264 0
-15 230 278 0
216 -304 -326 0
-239 308 392 0
-213 -373 374 0
256 -380 414 0
-25 -201 -214 0
96 362 -472 0
219 406 482 0
41 -243 366 0
-159 -277 -371 0
-83 258 -468 0
-199 -302 -363 0
19 -58 199 0
-132 156 398 0
190 -248 261 0
210 413 417 0
51 -112 243 0
-63 84 152 0
-33 -176 -494 0
-290 -301 459 0
-307 -327 360 0
-215 -437 -494 0
130 -323 -466 0
-81 -120 242 0
85 -321 -491 0
-388 -437 491 0
-222 -402 497 0
-70 304 478 0
231 -268 432 0
95 -180 -227 0
-302 -455 456 0
219 -257 489 0
174 381 485 0
-163 -221 -484 0
-139 -141 -406 0
-134 345 -366 0
20 -311 480 0
8 236 -253 0
-168 317 -376 0
-63 271 424 0
-201 225 438 0
-36 253 316 0
-117 -384 423 0
-17 -134 -219 0
-17 -277 428 0
314 -347 -384 0
-47 264 -447 0
89 -453 -494 0
153 172 279 0
341 456 480 0
-47 315 374 0
-15 76 106 0
61 81 -211 0
36 370 -466 0
-19 99 -431 0
254 -387 -470 0
160 241 375 0
-311 -453 481 0
-161 -287 350 0
35 85 -405 0
40 143 -400 0
116 -319 -370 0
66 -276 417 0
8 -125 497 0
-68 124 141 0
235 -306 420 0
122 -240 470 0
-7 -225 -349 0
-90 276 329 0
133 170 -426 0
-132 -241 313 0
4 365 -369 0
86 123 216 0
245 247 388 0
65 -399 -464 0
-26 -338 384 0
-77 -100 -346 0
210 265 -331 0
150 255 317 0
-40 -135 -391 0
-129 -148 484 0
-20 -172 465 0
216 -270 -326 0
17 -140 -272 0
34 -371 -426 0
-209 -251 291 0
37 -180 248 0
12 -385 480 0
56 -71 -377 0
121 190 206 0
-11 -380 -473 0
112 -293 420 0
-29 314 403 0
-65 -204 -471 0
107 -238 -335 0
-32 -254 -372 0
-97 -269 458 0
-69 -116 338 0
-88 -145 349 0
127 179 211 0
-10 150 347 0
229 -270 393 0
-261 -275 -340 0
-125 -192 -193 0
43 75 499 0
-240 -252 -260 0
-97 -158 254 0
37 -199 305 0
179 -196 348 0
-17 184 218 0
163 171 -282 0
-159 174 -356 0
-313 -322 -361 0
-352 -385 -433 0
-165 -280 -485 0
-93 155 -430 0
-131 195 -371 0
342 -356 461 0
4 45 306 0
-145 -197 -206 0
-21 53 434 0
26 232 -411 0
-94 356 362 0
-78 -200 219 0
-83 144 400 0
307 374 484 0
104 175 -177 0
-55 -175 353 0
-193 223 -396 0
296 -381 454 0
83 211 483 0
-210 -344 -443 0
-71 -223 312 0
-2 -72 313 0
-306 405 431 0
-30 106 417 0
78 104 422 0
22 -77 -155 0
155 -335 422 0
-37 364 -497 0
-225 -408 460 0
-78 -112 452 0
27 -172 379 0
-53 134 230 0
-115 -153 -255 0
-165 279 282 0
368 -398 -438 0
-19 25 230 0
299 -355 -363 0
21 -301 406 0
67 88 395 0
-70 146 -272 0
-295 334 388 0
-62 -66 -279 0
7 -88 375 0
-27 29 -453 0
-138 -321 -405 0
79 -188 -441 0
-145 -416 -447 0
124 258 -355 0
35 60 -440 0
131 -160 -186 0
-110 192 -465 0
247 -433 -475 0
68 363 -370 0
-13 265 292 0
-275 349 -447 0
-221 -310 450 0
-130 328 407 0
-286 329 -462 0
-165 383 -465 0
42 235 377 0
-155 233 425 0
-276 429 481 0
126 430 -490 0
-56 241 -463 0
-2 84 -305 0
325 -379 -389 0
79 -335 376 0
79 151 390 0
-47 108 394 0
-20 233 438 0
-22 -92 242 0
-2 -10 -449 0
293 351 391 0
261 283 -380 0
-217 -495 497 0
111 -149 369 0
-45 -120 -490 0
-280 465 -479 0
9 241 268 0
168 -378 -396 0
32 252 -447 0
-424 452 -471 0
-42 123 -415 0
-34 -127 -293 0
65 -127 -397 0
32 -59 -85 0
-236 300 322 0
170 -255 400 0
-83 113 -479 0
-181 335 467 0
111 -433 489 0
79 -319 403 0
8 -62 -371 0
8 94 -208 0
-6 -248 -284 0
-3 19 -373 0
-94 127 295 0
-61 -84 182 0
-108 -246 283 0
-100 122 -487 0
-34 -276 379 0
307 -328 -381 0
-77 134 320 0
62 323 -475 0
274 -316 -337 0
-24 -103 158 0
-135 -368 -385 0
273 409 -471 0
-55 271 -317 0
-475 482 -489 0
33 149 -391 0
36 42 112 0
-72 436 495 0
-238 -355 -404 0
-210 339 416 0
89 135 -345 0
297 -354 -368 0
-24 52 215 0
44 -254 -450 0
-316 -332 468 0
-46 340 -475 0
239 310 431 0
88 -152 356 0
170 340 -418 0
51 109 -384 0
-122 -202 -466 0
314 -358 -429 0
88 -226 356 0
109 -135 370 0
-90 -319 451 0
-181 -245 -453 0
72 -216 -364 0
239 242 480 0
-24 149 248 0
-30 -408 -469 0
-86 94 433 0
58 -202 235 0
21 -281 -496 0
-12 46 177 0
3 65 243 0
70 404 492 0
58 99 289 0
-241 374 -408 0
197 237 437 0
-161 -210 -256 0
-147 472 -499 0
314 -427 459 0
132 -330 -453 0
338 -434 -481 0
223 249 491 0
17 -272 430 0
-138 286 375 0
-112 -180 -460 0
-170 -366 -470 0
135 -321 -449 0
50 172 353 0
88 -217 253 0
-163 389 487 0
166 246 413 0
-184 205 -447 0
43 67 332 0
-157 -173 199 0
-232 -341 -406 0
101 429 482 0
108 -275 350 0
-31 -463 482 0
401 -436 -437 0
-112 -345 471 0
263 279 -295 0
-100 189 345 0
-117 -194 -306 0
2 -62 -296 0
244 -374 -430 0
-84 246 379 0
-103 -278 435 0
-247 339 450 0
-16 54 -334 0
27 -232 -425 0
-34 391 466 0
-248 270 -495 0
-150 304 398 0
-4 163 500 0
85 -116 -183 0
-15 17 -484 0
121 -162 165 0
-14 -229 426 0
-124 248 327 0
94 -97 371 0
-157 238 436 0
2 119 175 0
191 309 -320 0
102 150 370 0
-263 -276 385 0
-28 -36 -267 0
-57 -442 -443 0
-167 275 395 0
-111 314 422 0
175 -263 -406 0
46 269 -296 0
242 -332 -454 0
260 378 386 0
93 -169 318 0
164 301 -364 0
89 118 241 0
-182 233 406 0
250 342 404 0
-55 386 477 0
215 252 -334 0
65 133 167 0
-39 -402 -415 0
-113 -183 369 0
145 -384 498 0
-53 276 -364 0
-343 -394 -406 0
-96 -333 -399 0
32 52 -349 0
64 -218 322 0
92 275 494 0
-182 342 -408 0
-55 -184 -311 0
-329 -356 414 0
-119 348 480 0
63 88 216 0
82 -136 -315 0
-102 236 -476 0
91 408 -414 0
50 67 -204 0
-176 -222 -328 0
265 -381 -448 0
17 347 358 0
144 -196 -394 0
13 -42 -482 0
-178 -202 394 0
42 -297 407 0
-45 -155 388 0
72 -167 369 0
-201 -276 432 0
116 -120 -494 0
22 -346 356 0
-149 479 -499 0
129 -209 255 0
-108 116 159 0
-127 434 491 0
-129 -457 -477 0
178 -334 -438 0
-51 -105 407 0
50 106 190 0
-149 159 -410 0
-59 -64 -259 0
433 -467 478 0
-270 -273 -495 0
-9 34 -365 0
130 -458 -487 0
-11 -153 -218 0
-174 -366 -442 0
-141 -219 263 0
-129 -217 391 0
240 -464 467 0
234 277 -404 0
38 -374 456 0
-40 -199 -490 0
176 338 -378 0
278 -317 -466 0
-89 258 433 0
-111 119 159 0
-179 409 -457 0
112 -415 -491 0
-35 107 128 0
99 274 362 0
-145 -429 459 0
165 226 -387 0
-218 244 -426 0
180 -313 -413 0
-7 19 -189 0
181 -419 447 0
19 378 -417 0
-108 -208 -416 0
-45 135 -163 0
26 -150 276 0
-132 -234 -367 0
180 226 -238 0
189 -197 403 0
-27 33 -279 0
353 421 -450 0
205 246 491 0
-106 450 -480 0
43 -279 -477 0
-120 -203 -251 0
34 340 -392 0
6 -117 -175 0
236 -297 350 0
115 305 -412 0
84 -121 215 0
34 49 -388 0
-90 139 -433 0
13 265 -369 0
-283 295 444 0
135 139 -413 0
253 342 -482 0
-251 339 -346 0
-37 -148 -350 0
-230 286 404 0
-25 144 -231 0
206 279 364 0
43 -81 -195 0
1 -85 -152 0
-135 -167 -490 0
98 -154 -215 0
102 -256 -493 0
-74 -86 -195 0
152 -186 489 0
-120 489 499 0
134 136 -453 0
-38 -384 491 0
190 202 -245 0
-178 -260 -300 0
-59 -104 -419 0
33 86 -194 0
-61 -171 -216 0
-39 -184 312 0
-157 -213 361 0
70 104 -434 0
247 295 332 0
-20 -63 -170 0
275 -335 -359 0
64 81 171 0
-96 125 288 0
428 -430 477 0
205 328 -354 0
81 143 -179 0
253 -317 -370 0
59 -90 -490 0
83 314 -492 0
203 -286 356 0
182 -209 236 0
96 -189 -225 0
-96 270 -418 0
-175 -327 422 0
-83 244 -468 0
-54 -130 -151 0
-111 113 -118 0
-30 -257 -419 0
-311 -388 -464 0
137 -139 276 0
-20 307 -465 0
233 275 -472 0
-125 370 414 0
28 -167 473 0
-143 -154 -302 0
-16 -67 -91 0
56 203 -287 0
-85 -312 -470 0
46 49 -96 0
77 -100 -320 0
-66 138 184 0
82 161 -236 0
-165 258 466 0
-33 -83 -262 0
285 372 -447 0
89 -344 -399 0
-164 310 -320 0
-261 297 -405 0
97 -286 380 0
49 51 -179 0
-185 278 -358 0
174 -371 -410 0
135 -266 -314 0
-156 158 -487 0
240 293 430 0
-30 -201 -297 0
-138 -145 440 0
-145 -163 476 0
74 -103 153 0
103 163 395 0
-29 -446 465 0
-46 -114 -395 0
5 162 -324 0
-65 109 183 0
16 344 -441 0
85 292 454 0
-49 -197 359 0
217 -359 -373 0
221 349 -426 0
196 -393 -468 0
-136 176 -348 0
245 282 480 0
-278 325 432 0
74 -159 -434 0
-283 -295 351 0
-207 -296 -322 0
18 -295 344 0
364 456 469 0
-69 301 444 0
108 219 -405 0
54 204 276 0
-61 -324 354 0
-46 -206 359 0
105 -185 -259 0
-39 187 325 0
131 258 -416 0
99 427 -441 0
-253 281 436 0
-60 -88 488 0
17 131 -265 0
-312 393 -500 0
-123 -250 -438 0
7 -392 -421 0
-204 258 496 0
177 259 366 0
-103 361 -369 0
72 115 -350 0
-92 -218 219 0
142 201 337 0
258 -302 -355 0
36 -129 -362 0
17 -185 -284 0
-139 -237 -492 0
98 99 131 0
321 -334 -336 0
-96 164 -467 0
-126 -145 175 0
105 -129 -166 0
62 -148 -450 0
-54 146 183 0
110 127 462 0
18 154 280 0
118 144 403 0
55 -255 -263 0
-149 179 383 0
-327 339 -405 0
-75 -349 408 0
57 241 -500 0
65 -222 -348 0
-117 283 -365 0
242 -262 -332 0
110 -164 -380 0
-55 61 182 0
-115 -271 -274 0
238 332 448 0
-52 276 -496 0
-284 326 483 0
-112 -138 187 0
-36 343 417 0
-163 180 -338 0
-246 265 -368 0
245 252 484 0
173 -380 394 0
151 -229 -331 0
-112 -231 309 0
325 -375 491 0
57 167 349 0
33 -95 445 0
22 -108 -258 0
240 -351 431 0
-86 388 -488 0
213 227 -324 0
-97 245 -387 0
112 291 493 0
-39 147 435 0
65 189 -193 0
-55 -123 479 0
-33 -81 -420 0
-6 16 94 0
148 242 -481 0
-101 270 385 0
80 -139 329 0
-15 -345 -432 0
-103 -128 260 0
-197 -291 295 0
-21 329 388 0
-142 298 -326 0
397 399 469 0
-317 353 410 0
-160 243 -263 0
-10 101 -207 0
28 -78 306 0
-156 -420 -430 0
20 -265 435 0
201 216 261 0
79 108 126 0
-1 276 -373 0
270 -375 481 0
88 315 478 0
-40 -385 -400 0
-200 211 361 0
15 -176 456 0
103 107 246 0
-24 68 218 0
-301 -369 413 0
-125 241 325 0
109 158 298 0
-174 -257 -418 0
15 27 -166 0
-50 -307 498 0
45 -128 361 0
-289 401 -470 0
-144 -159 -379 0
-296 -321 483 0
41 -305 310 0
-126 151 292 0
-32 -155 428 0
-70 -241 387 0
-138 409 460 0
-203 299 -312 0
50 293 -392 0
-205 -275 -329 0
182 -347 -458 0
-243 -435 -491 0
-88 -242 259 0
230 -288 -460 0
-79 403 498 0
-17 390 406 0
155 318 410 0
-147 -293 -336 0
-121 -210 326 0
-367 380 -462 0
-129 -230 -412 0
-19 94 -247 0
40 47 -126 0
-93 303 489 0
-52 -73 112 0
-42 396 -446 0
-314 -328 405 0
68 -217 328 0
-46 215 251 0
112 -216 325 0
-415 481 483 0
-46 255 -277 0
-267 -297 439 0
-179 293 -424 0
-14 126 407 0
119 -163 176 0
-351 360 432 0
-144 -207 -256 0
-82 362 -482 0
-191 -197 408 0
-23 184 -335 0
71 372 -392 0
-227 -488 500 0
-94 -277 400 0
-9 100 -291 0
-409 -458 498 0
19 323 457 0
-51 -180 418 0
-39 143 -435 0
61 -243 381 0
30 221 -372 0
-79 136 -178 0
-124 -142 166 0
-203 331 -484 0
-375 445 -463 0
-16 151 346 0
181 -300 -412 0
167 306 -448 0
343 352 -380 0
-42 195 498 0
96 -203 419 0
68 -147 279 0
268 -302 308 0
22 -44 197 0
318 -325 -392 0
-75 203 432 0
113 184 318 0
17 314 -481 0
-82 -420 440 0
-89 318 -474 0
-117 363 -408 0
329 464 489 0
73 -82 -143 0
146 -197 -274 0
-4 -44 177 0
139 -167 -455 0
79 242 -492 0
253 -328 375 0
-301 329 -476 0
205 -415 470 0
-2 -21 -429 0
-267 -297 391 0
-72 -95 415 0
127 -128 291 0
87 -334 -394 0
-203 204 -443 0
-153 173 373 0
78 -343 466 0
-76 -364 -389 0
-78 -288 -359 0
92 -107 -251 0
156 -248 496 0
216 220 -424 0
188 -383 -464 0
-28 281 328 0
-268 309 353 0
-10 -52 115 0
185 316 -472 0
152 304 425 0
-30 54 233 0
-113 230 -463 0
-282 338 -437 0
-152 -244 -465 0
-243 298 -418 0
-169 191 244 0
108 -254 436 0
60 -166 268 0
-109 192 387 0
-37 131 435 0
-39 -382 -494 0
109 -188 436 0
-165 -378 465 0
-127 -160 -227 0
-77 287 338 0
123 -227 -302 0
-9 299 -391 0
32 96 152 0
136 -162 217 0
-102 -184 -304 0
-69 -201 496 0
290 340 476 0
6 -58 414 0
67 287 -417 0
96 -423 -465 0
-153 250 498 0
112 164 376 0
-71 -134 -238 0
130 -198 -324 0
-90 176 336 0
166 -256 -426 0
-110 361 -488 0
48 121 199 0
23 -103 367 0
135 -309 -484 0
-226 -369 456 0
-148 -175 -432 0
334 -348 -423 0
30 -292 -396 0
62 -337 388 0
198 -209 -471 0
159 -242 440 0
-36 -139 198 0
-122 281 -489 0
52 202 -218 0
-48 -178 -239 0
301 362 489 0
346 392 470 0
-229 -387 -453 0
202 386 -459 0
-49 58 -264 0
-274 344 450 0
-3 -79 -198 0
18 -328 -485 0
-227 392 -426 0
-140 263 -309 0
345 -389 498 0
67 141 230 0
-215 -258 357 0
110 143 230 0
178 -256 397 0
212 234 288 0
168 -398 478 0
-82 225 -344 0
28 104 403 0
293 404 -417 0
102 -116 117 0
8 114 462 0
4 126 176 0
-103 -233 290 0
106 259 327 0
176 264 -457 0
-10 93 387 0
-206 209 -468 0
-123 210 362 0
-10 331 -362 0
355 378 -468 0
-104 317 -360 0
-207 -209 -297 0
69 -307 -424 0
10 -148 -196 0
22 -78 241 0
143 -230 -329 0
-146 150 418 0
45 -90 238 0
-90 149 -186 0
-40 -41 412 0
8 212 222 0
92 -263 -341 0
213 221 -488 0
34 68 -94 0
-56 -108 -157 0
-298 414 -417 0
-135 173 -392 0
129 320 -332 0
214 -229 391 0
75 -145 -259 0
-31 -276 428 0
-284 394 -447 0
5 63 167 0
44 -261 301 0
275 369 393 0
-63 123 -145 0
81 143 296 0
-127 -336 -383 0
218 444 -447 0
-77 306 -316 0
71 278 -290 0
394 -413 456 0
13 -43 -495 0
-106 112 384 0
34 97 -238 0
153 -344 493 0
31 302 -468 0
77 165 -487 0
188 328 -366 0
-290 337 446 0
-53 -146 -409 0
-88 125 -406 0
-40 -396 -461 0
-104 332 412 0
97 100 106 0
-7 -107 -228 0
-243 280 -464 0
148 -354 -440 0
-102 121 333 0
-11 212 -498 0
53 -73 -373 0
-38 132 234 0
117 149 -435 0
26 155 220 0
223 -417 -495 0
-175 323 -469 0
-141 406 415 0
-87 317 471 0
49 -203 477 0
63 250 356 0
-273 407 -484 0
-110 -201 -467 0
-27 204 -409 0
102 -286 421 0
-215 242 -352 0
260 -290 489 0
151 227 -278 0
6 -195 393 0
-90 -337 356 0
73 -134 331 0
-30 33 141 0
-99 213 474 0
-256 313 329 0
230 244 325 0
174 225 370 0
194 -378 461 0
104 209 -480 0
-256 270 337 0
-362 -447 -469 0
-16 253 476 0
-166 -274 -310 0
66 276 463 0
-117 137 -417 0
-206 -446 -470 0
-50 156 -223 0
144 -225 -449 0
13 86 -498 0
9 -161 472 0
9 -40 -64 0
-240 386 -395 0
-48 -246 -402 0
127 132 -387 0
-175 -238 378 0
-104 -169 219 0
50 -110 -190 0
52 -83 -265 0
219 258 298 0
-21 -107 -399 0
-85 -100 -351 0
222 -348 -446 0
-19 48 136 0
-10 350 -393 0
106 193 -344 0
-279 443 455 0
92 -242 500 0
-39 40 -303 0
189 -326 -368 0
67 -242 333 0
43 333 336 0
112 169 461 0
-331 375 -393 0
-275 -293 327 0
-174 -190 -360 0
-53 290 390 0
182 241 245 0
25 -171 500 0
-354 -404 -459 0
-74 220 484 0
120 -144 -429 0
61 199 -378 0
177 376 -419 0
30 274 400 0
127 -312 419 0
-176 -210 476 0
-35 157 421 0
320 413 -442 0
-87 328 -359 0
309 -333 356 0
94 227 -459 0
26 -119 -440 0
107 142 162 0
-24 -89 233 0
68 -210 337 0
6 270 343 0
174 -341 -355 0
52 -222 427 0
12 -261 -430 0
95 -313 -410 0
220 425 -485 0
-162 -222 -417 0
169 220 -311 0
208 -343 -475 0
-48 91 -147 0
-146 368 464 0
82 104 -493 0
-360 -418 -436 0
-94 -317 348 0
-27 -109 317 0
-87 367 -475 0
-34 102 232 0
376 -434 455 0
-114 -139 -359 0
-150 360 -437 0
104 -162 -322 0
-11 -61 -306 0
19 -218 -370 0
283 -319 352 0
102 277 -438 0
53 95 -472 0
102 -168 -212 0
179 -356 -387 0
-25 123 369 0
-332 405 -442 0
47 280 468 0
-39 -450 -488 0
-89 201 394 0
36 -302 323 0
73 119 380 0
314 386 490 0
248 313 -417 0
90 -196 369 0
-153 207 490 0
4 -164 387 0
41 167 -238 0
165 -265 500 0
248 324 -429 0
-292 -319 -392 0
-167 376 459 0
-207 370 -393 0
223 -371 455 0
-26 -230 444 0
-39 -110 498 0
123 -136 -476 0
233 234 429 0
-220 -282 491 0
176 343 423 0
320 410 -456 0
28 -194 -442 0
-81 -301 494 0
277 403 -442 0
-189 225 -393 0
262 369 -498 0
-23 -52 -144 0
127 -251 370 0
-81 -238 -282 0
-45 203 359 0
59 -82 -480 0
-54 122 -492 0
-249 378 496 0
22 42 91 0
-48 -205 235 0
-27 -283 350 0
-102 231 -238 0
-213 359 -395 0
-100 -160 225 0
182 346 414 0
-53 -130 282 0
39 71 231 0
97 450 -500 0
-87 293 -377 0
-191 333 455 0
-45 -172 173 0
128 -153 426 0
-83 -354 -446 0
294 351 -394 0
111 207 -353 0
427 -434 -436 0
-111 -294 -455 0
-140 -186 424 0
-21 59 -185 0
42 -55 204 0
-162 359 440 0
-144 -180 238 0
65 -119 315 0
151 -437 478 0
141 -161 349 0
93 330 494 0
339 368 -474 0
181 -431 -498 0
-195 -226 245 0
-153 347 -403 0
128 -260 450 0
-37 148 -325 0
13 411 -456 0
36 74 370 0
13 -302 325 0
-86 89 -277 0
-106 233 -377 0
23 205 246 0
238 381 -483 0
-164 -215 491 0
4 -307 -339 0
-109 -113 -283 0
12 209 -355 0
-226 302 383 0
255 263 -348 0
-89 -104 468 0
-314 -373 475 0
-101 168 347 0
247 -277 387 0
-126 -350 -474 0
-45 370 -412 0
-71 -231 -289 0
-51 -90 432 0
-263 -380 -453 0
130 188 -208 0
-62 201 401 0
1 236 -488 0
334 -402 -413 0
-139 -383 443 0
-25 157 163 0
86 -264 412 0
282 -361 -479 0
-10 80 -412 0
-132 -384 -404 0
295 459 493 0
87 -101 -254 0
86 -429 -459 0
72 -116 235 0
-243 410 -415 0
135 -351 451 0
302 -405 424 0
-295 329 430 0
-4 -248 379 0
42 -124 -425 0
-284 -431 466 0
-91 -141 361 0
-196 -288 -441 0
186 288 352 0
-19 67 172 0
170 -222 -234 0
297 -432 -446 0
21 -214 -470 0
-46 -333 -495 0
66 -174 388 0
-93 195 407 0
-403 486 -488 0
82 361 -382 0
62 -204 -302 0
-22 335 480 0
-1 48 438 0
-12 15 -249 0
101 189 229 0
-147 -462 465 0
-184 -268 462 0
179 -297 -298 0
68 -365 -432 0
-198 295 450 0
-252 272 470 0
170 -318 -491 0
-14 304 -339 0
-65 -78 -491 0
-302 -365 -473 0
46 -175 -320 0
245 283 437 0
36 256 388 0
-93 318 414 0
263 314 448 0
93 219 -277 0
-124 258 418 0
-104 353 -438 0
-130 -203 -232 0
-455 -462 -498 0
37 150 -243 0
-79 -322 -424 0
1 429 480 0
247 -455 -469 0
-129 -131 -337 0
-9 59 -99 0
98 -256 -350 0
93 191 -440 0
-423 426 -442 0
-227 443 -498 0
-26 -90 -412 0
112 418 -484 0
-202 -373 396 0
-204 234 -283 0
124 -274 358 0
86 328 -398 0
56 138 -419 0
-267 377 -447 0
22 -83 337 0
-136 153 -392 0
101 -453 478 0
-215 275 -315 0
-179 304 -316 0
-175 -247 271 0
76 239 -374 0
-302 433 -461 0
-24 30 456 0
86 -123 436 0
-87 -162 316 0
-98 203 377 0
-235 -433 -490 0
146 -177 -368 0
-183 -186 -202 0
69 -244 -295 0
35 -422 -445 0
-213 -314 -432 0
-149 154 263 0
151 -414 415 0
-41 69 186 0
187 384 482 0
337 346 -434 0
-90 -91 109 0
187 -267 373 0
-134 -273 -458 0
-360 -403 -478 0
-4 215 -418 0
-32 257 456 0
-172 239 297 0
195 -353 -453 0
-89 -99 362 0
-109 -111 273 0
35 -312 319 0
-244 301 -401 0
-53 274 461 0
387 425 -462 0
360 -405 -432 0
-80 123 341 0
82 157 480 0
-60 92 -319 0
68 -193 402 0
-95 -110 395 0
48 -49 449 0
-197 244 284 0
-88 98 182 0
-374 -442 486 0
-192 251 -365 0
16 137 223 0
-196 -414 433 0
-184 -375 -435 0
-95 -192 -246 0
-6 -65 -95 0
-17 108 -218 0
-242 -299 -380 0
-91 284 311 0
124 -312 372 0
-130 -207 -405 0
-165 -295 421 0
-113 -190 -205 0
-28 173 424 0
-7 405 -476 0
361 414 429 0
302 -459 -468 0
-231 -285 -410 0
3 -195 -227 0
16 -124 -399 0
143 243 455 0
-25 106 -378 0
3 -220 -477 0
2 -345 456 0
-252 -315 -384 0
311 354 -457 0
165 399 498 0
-319 -326 470 0
-163 -307 333 0
110 -289 432 0
289 -412 457 0
175 304 -414 0
189 458 473 0
100 177 327 0
11 -12 207 0
-80 -260 398 0
-145 -347 458 0
14 356 359 0
-41 71 86 0
80 -172 -438 0
-22 -67 -452 0
142 -345 393 0
268 -355 -380 0
-18 -175 485 0
80 -203 283 0
151 -299 396 0
287 -391 -426 0
2 -22 -101 0
145 340 480 0
-105 -200 -290 0
38 -229 443 0
51 197 -474 0
-31 -411 473 0
-99 169 -219 0
16 -308 -483 0
-202 246 272 0
-21 95 177 0
126 248 439 0
34 121 -248 0
44 -200 448 0
-112 210 339 0
-8 -339 375 0
-314 359 485 0
61 422 471 0
9 -152 -243 0
-30 -43 -480 0
-133 -196 -474 0
-42 491 -494 0
-294 -387 -418 0
298 -454 484 0
86 -180 311 0
-150 404 -483 0
-45 370 -457 0
112 -205 -408 0
132 -268 -462 0
198 -445 -483 0
130 -420 476 0
41 187 -264 0
223 293 430 0
-113 -402 -405 0
-165 182 403 0
-172 -200 338 0
5 -36 -413 0
-229 437 438 0
-72 462 -464 0
50 236 -257 0
-82 209 383 0
397 404 455 0
42 -326 410 0
-158 -199 -331 0
-229 241 363 0
31 156 223 0
271 298 -323 0
65 -136 140 0
-51 -87 -459 0
-327 457 -480 0
-227 -328 -375 0
-293 -378 440 0
323 327 -484 0
346 422 -467 0
-93 -104 123 0
164 -306 374 0
-83 -138 -450 0
-137 -201 469 0
70 -121 -364 0
308 433 489 0
8 404 424 0
307 -346 -382 0
82 -87 -171 0
-97 -310 313 0
3 117 191 0
22 167 -301 0
-30 -141 -223 0
-23 -167 -407 0
42 -300 -373 0
91 -256 -486 0
34 249 -383 0
-56 -119 152 0
-217 250 437 0
28 -61 432 0
-57 69 483 0
64 -173 -481 0
-36 -41 -307 0
-328 392 -458 0
146 250 492 0
89 -212 -349 0
11 337 351 0
50 210 -255 0
20 301 485 0
-106 -215 -334 0
19 193 -410 0
-88 -332 -449 0
104 -120 152 0
45 -304 363 0
164 249 343 0
24 -409 -435 0
13 200 -461 0
169 -197 498 0
-56 226 -230 0
-43 -242 -462 0
83 151 158 0
328 356 395 0
93 -200 226 0
52 202 401 0
-173 252 494 0
3 -165 368 0
196 390 393 0
-66 258 -467 0
-74 146 480 0
11 143 405 0
-151 -225 -320 0
-60 -251 -327 0
63 -254 410 0
29 126 410 0
147 213 379 0
-40 -229 -492 0
291 -324 -387 0
72 198 414 0
-182 279 390 0
308 405 -428 0
24 221 -236 0
194 -234 -253 0
75 416 -437 0
136 190 243 0
-34 166 -490 0
77 201 -343 0
-48 273 404 0
175 441 495 0
-209 -226 -317 0
203 265 -440 0
287 -371 453 0
147 -313 -432 0
81 -102 -215 0
67 241 -422 0
62 -245 463 0
258 -381 -471 0
131 233 -400 0
-126 252 349 0
165 225 322 0
42 67 -188 0
-156 306 -476 0
-119 412 -485 0
335 -368 -427 0
-409 -438 450 0
389 -448 -467 0
-273 -338 -421 0
171 173 184 0
-112 275 -473 0
238 -291 -396 0
49 -329 -420 0
-157 -188 270 0
8 -450 -475 0
87 254 -381 0
277 444 -448 0
14 80 169 0
-208 -304 320 0
-299 -300 -425 0
151 313 440 0
156 265 -404 0
14 -191 370 0
-11 29 -217 0
170 -358 -395 0
11 184 297 0
7 203 -253 0
-36 -343 424 0
-123 -251 -449 0
-119 338 -460 0
276 -285 376 0
32 208 462 0
-362 390 -477 0
67 -296 463 0
-96 -237 240 0
129 -131 169 0
52 -384 489 0
-49 383 -435 0
-14 179 261 0
-125 -178 -310 0
-25 245 284 0
-285 306 395 0
148 325 425 0
-116 -365 -417 0
-2 178 283 0
-105 -166 324 0
22 -145 -218 0
-150 -183 379 0
-345 385 -419 0
-3 -37 147 0
286 -315 495 0
11 -92 489 0
121 123 -185 0
-39 -64 -271 0
-241 246 -476 0
-454 -464 483 0
-199 405 496 0
199 263 -429 0
40 -426 -457 0
79 -171 290 0
139 299 -465 0
-236 372 -374 0
74 174 -314 0
114 235 258 0
342 418 487 0
-196 -327 -392 0
27 -117 471 0
-133 172 -394 0
62 -107 500 0
24 -119 461 0
60 -141 204 0
105 -192 208 0
-137 -179 -392 0
-11 -38 276 0
-287 -420 -462 0
83 325 411 0
45 112 -159 0
171 431 486 0
37 193 -291 0
-32 -131 -133 0
-173 -174 295 0
5 -361 -485 0
150 -254 -448 0
14 -233 343 0
-25 36 380 0
182 383 -418 0
181 305 -369 0
57 -240 382 0
24 450 -457 0
-24 -34 248 0
87 93 375 0
-156 281 403 0
25 120 -159 0
174 -276 -451 0
-300 -414 -424 0
209 -253 347 0
161 449 498 0
117 277 -302 0
302 326 -449 0
77 196 -208 0
-31 -61 -392 0
-62 -407 414 0
-231 465 -495 0
-40 -352 427 0
-246 -279 391 0
-21 -249 284 0
76 446 -465 0
-79 102 201 0
170 180 -193 0
-73 126 393 0
-3 -85 -159 0
-105 120 -415 0
329 339 -484 0
-304 389 -477 0
-8 149 171 0
85 142 146 0
179 -203 448 0
-135 -209 219 0
73 -98 -486 0
-10 -57 364 0
373 425 -496 0
63 -251 470 0
148 220 413 0
-213 -218 481 0
235 474 -475 0
-117 -173 236 0
-100 -137 -490 0
214 -248 -362 0
34 -187 -483 0
160 -215 -419 0
5 -252 309 0
-30 83 142 0
196 443 -462 0
55 257 495 0
-297 -298 -475 0
-53 -279 380 0
340 419 458 0
250 268 -272 0
-124 -145 281 0
347 366 -394 0
112 369 406 0
-187 218 456 0
-39 56 332 0
82 -130 -169 0
-139 -183 228 0
322 420 -498 0
-22 71 307 0
63 -289 381 0
14 -103 392 0
-105 -203 -437 0
87 -263 462 0
-398 -417 477 0
186 -337 -490 0
114 -115 -447 0
2 -467 497 0
-12 -132 142 0
98 -355 -490 0
150 270 369 0
-69 151 -271 0
49 331 407 0
-152 -158 -300 0
152 -243 299 0
-76 -176 500 0
140 -177 -276 0
214 -359 -465 0
207 -379 -410 0
26 -211 291 0
-64 -296 343 0
-3 -29 241 0
-244 -299 355 0
54 -212 -483 0
-135 313 449 0
-8 319 413 0
99 -115 121 0
293 322 -399 0
-328 -338 -373 0
-269 386 -439 0
-299 362 -371 0
53 -190 -405 0
-100 266 -347 0
208 294 -391 0
-149 -300 315 0
-74 135 488 0
-14 93 468 0
-82 -116 -327 0
-181 272 -391 0
-5 283 391 0
168 422 -452 0
-52 -80 -377 0
-29 -327 332 0
87 -144 423 0
248 -254 355 0
137 268 -336 0
6 202 -458 0
45 -265 -385 0
174 -312 -327 0
-202 -260 -459 0
-328 335 -452 0
60 -361 -370 0
-96 -138 203 0
-152 -167 393 0
169 -404 420 0
74 -81 -401 0
-15 435 491 0
-149 217 332 0
-12 62 294 0
299 310 -379 0
369 -399 -453 0
-156 -232 -316 0
105 -145 219 0
-44 -245 477 0
228 266 328 0
331 -440 458 0
-46 76 -229 0
-22 -52 -125 0
-405 423 -489 0
74 156 340 0
-185 233 -467 0
135 241 -398 0
333 428 478 0
-40 209 381 0
87 -157 -326 0
10 30 103 0
-54 -156 186 0
356 -440 -483 0
-119 -325 -466 0
22 343 -495 0
113 -210 306 0
160 405 467 0
16 -90 150 0
305 401 488 0
-167 365 408 0
48 204 314 0
160 233 303 0
67 254 463 0
59 207 302 0
-380 460 498 0
-107 163 248 0
129 -192 289 0
-19 -148 416 0
64 -263 439 0
-20 -134 208 0
-378 -438 -482 0
267 354 411 0
-390 443 445 0
-352 -428 435 0
-25 98 389 0
-61 203 -242 0
103 -284 -438 0
-213 -241 -375 0
-339 -374 439 0
-59 359 -371 0
-253 400 -408 0
280 -308 -390 0
75 175 247 0
-29 175 -392 0
-203 310 -445 0
104 133 259 0
-61 -284 -308 0
127 305 -436 0
105 343 494 0
-137 267 441 0
123 275 364 0
3 162 425 0
-27 98 -403 0
283 375 471 0
191 -249 -293 0
255 -270 311 0
-124 -210 -335 0
-319 376 492 0
3 -288 -420 0
-312 339 475 0
204 206 -433 0
-81 134 166 0
390 -481 -487 0
220 224 -257 0
-287 471 -479 0
98 -229 370 0
78 181 -447 0
181 -284 -411 0
170 338 -425 0
-68 103 -143 0
72 101 -444 0
288 333 -436 0
-259 -316 -421 0
221 336 491 0
-119 190 -245 0
142 183 304 0
110 263 -431 0
-292 421 483 0
-109 373 -429 0
290 -387 -404 0
25 -218 305 0
55 -107 163 0
1 345 361 0
-60 222 -468 0
47 -61 -287 0
236 252 -267 0
-234 -304 367 0
-331 -428 499 0
106 216 289 0
-115 -323 -412 0
-163 -168 -332 0
-133 -162 -416 0
-13 -202 385 0
344 466 -500 0
-255 370 -494 0
1 16 197 0
-357 -430 -464 0
132 -275 -453 0
-158 -296 -407 0
-6 -354 477 0
-181 -279 -390 0
-35 268 -330 0
-223 269 480 0
2 92 -415 0
101 260 423 0
-243 -442 -476 0
291 400 -418 0
17 170 400 0
-3 101 304 0
8 63 -434 0
324 338 439 0
185 259 -485 0
10 -432 473 0
-24 -83 -240 0
-129 156 -245 0
-313 -362 -367 0
-67 236 -438 0
-103 -152 -471 0
170 -193 -347 0
-27 -89 358 0
-106 -118 -464 0
-21 -434 -453 0
-219 278 -418 0
-30 447 -461 0
-155 -192 379 0
82 -91 -377 0
-51 129 -420 0
181 383 486 0
-415 -421 -438 0
-106 242 326 0
-20 -214 367 0
150 -224 450 0
-108 109 167 0
311 411 -484 0
-30 77 -329 0
12 118 -324 0
125 -366 437 0
-261 -354 -490 0
-70 416 474 0
-65 -290 475 0
9 109 418 0
2 -123 -263 0
178 -396 -416 0
-347 388 448 0
-98 387 417 0
-72 220 -476 0
122 -207 -450 0
355 391 484 0
81 -120 -303 0
-305 317 -371 0
-114 135 -350 0
12 345 413 0
38 119 307 0
143 297 477 0
117 300 -424 0
-204 318 371 0
4 150 280 0
88 -360 483 0
89 326 -343 0
-174 -206 217 0
26 116 215 0
88 190 -210 0
240 286 428 0
-162 -230 -365 0
40 -97 -336 0
-7 82 432 0
1 27 160 0
-108 -376 -488 0
93 188 495 0
-7 104 159 0
27 -245 426 0
-174 -208 296 0
316 397 453 0
-65 -286 399 0
416 -430 -455 0
-235 302 -474 0
-134 -179 418 0
13 -68 317 0
-8 -186 -488 0
-292 -343 423 0
35 219 -363 0
57 296 321 0
131 -264 367 0
123 144 408 0
126 -403 404 0
36 -103 -180 0
65 -284 -447 0
-87 185 -202 0
-121 277 -343 0
13 -230 -494 0
-17 226 277 0
186 -193 -494 0
-23 -133 -276 0
-48 -193 -230 0
106 -207 484 0
-43 307 322 0
201 -214 249 0
46 51 -414 0
56 229 452 0
281 -359 -434 0
-89 -208 477 0
-6 -270 405 0
61 277 -290 0
332 438 -445 0
167 208 -488 0
46 146 -237 0
209 -368 -434 0
