p cnf 500 2129
96 405 449 0
100 -162 -370 0
-57 -220 295 0
39 -152 207 0
2 229 -385 0
128 134 228 0
125 -429 -454 0
10 388 -433 0
-248 285 354 0
147 273 -492 0
86 113 -138 0
-153 355 -499 0
42 -270 290 0
36 -95 -187 0
237 -303 -333 0
-163 321 392 0
193 297 -394 0
141 -163 240 0
-160 -315 -336 0
18 -133 326 0
-137 164 -294 0
96 -304 382 0
82 117 -318 0
66 71 -349 0
327 337 -401 0
-94 351 -440 0
322 -330 -437 0
102 -213 -372 0
206 -297 452 0
-187 212 -490 0
214 315 -395 0
63 191 204 0
-35 -234 382 0
-289 416 -490 0
6 -160 456 0
1 -393 465 0
-154 -253 412 0
-49 -198 -434 0
-290 -412 479 0
-54 93 340 0
58 353 -416 0
-14 -411 442 0
-47 236 362 0
230 247 436 0
-132 253 417 0
39 -176 -497 0
170 -387 419 0
167 -238 -243 0
37 318 -477 0
182 313 388 0
-81 359 492 0
105 -153 318 0
108 330 -435 0
353 -379 -478 0
-120 -131 183 0
84 -130 150 0
-105 317 408 0
114 -198 -255 0
-20 57 -360 0
-10 -259 -483 0
-108 -147 -469 0
-62 269 -301 0
50 82 154 0
287 -343 -360 0
28 -333 448 0
66 -237 -440 0
178 -402 446 0
189 305 395 0
-93 -186 366 0
98 -188 -449 0
-1 -206 -462 0
278 393 442 0
296 -309 494 0
256 353 404 0
-5 -144 -388 0
-97 306 423 0
-251 -261 394 0
76 232 -277 0
16 230 253 0
-16 -145 -266 0
15 -121 -482 0
124 -163 270 0
23 45 -399 0
-304 392 -406 0
34 314 449 0
26 -120 -462 0
-183 427 448 0
10 -138 428 0
166 218 -475 0
-37 186 396 0
29 96 -355 0
122 325 422 0
-114 -175 265 0
34 -93 -205 0
296 438 496 0
152 -159 485 0
261 -392 -490 0
15 -61 -467 0
443 458 486 0
29 -404 420 0
-361 -427 -452 0
-144 213 491 0
36 -98 104 0
75 407 459 0
-52 -244 283 0
47 269 -351 0
-51 -332 -489 0
-37 129 -411 0
-63 342 -455 0
-33 377 -447 0
-10 -182 -384 0
-62 275 358 0
252 352 -497 0
37 -365 -466 0
-5 28 -296 0
-185 258 264 0
222 -277 282 0
100 255 -456 0
155 -290 -293 0
4 -50 -127 0
-47 192 -414 0
-2 -266 491 0
18 -96 233 0
-104 -116 194 0
191 -260 -286 0
-193 -284 -390 0
203 429 -487 0
-86 -130 -401 0
-60 -64 -326 0
4 -212 -395 0
189 -278 493 0
-172 259 -329 0
86 -115 -371 0
-33 -102 244 0
2 -81 -494 0
276 -414 472 0
-118 -423 -474 0
138 163 234 0
-122 210 330 0
-67 -197 368 0
174 -189 451 0
-135 -203 485 0
-92 -267 473 0
-42 -84 -130 0
-185 -209 -306 0
135 144 -316 0
235 -266 -449 0
-167 247 281 0
-61 -222 359 0
34 -217 -420 0
69 -264 -408 0
295 296 -440 0
318 -351 393 0
69 164 -445 0
7 -440 -458 0
81 200 354 0
-102 302 359 0
1 -245 -349 0
-124 457 494 0
-183 226 488 0
134 149 -228 0
195 -399 499 0
-120 234 -487 0
-209 -216 -222 0
-35 450 -486 0
-115 -312 435 0
124 -156 451 0
-58 131 231 0
-23 315 367 0
-1 26 93 0
-22 -23 462 0
-113 446 -472 0
191 368 -477 0
23 385 -440 0
-273 373 -432 0
5 255 281 0
-220 -300 435 0
-316 -331 492 0
323 -332 -432 0
-105 140 312 0
-61 261 332 0
-239 316 -364 0
139 343 -345 0
-155 277 342 0
339 -417 -465 0
-8 231 -464 0
-140 -152 225 0
-29 -55 -446 0
-38 117 -197 0
58 -79 -478 0
-15 -120 334 0
-166 -286 -314 0
-137 434 480 0
-188 -332 484 0
-73 -211 478 0
335 390 -493 0
173 333 -439 0
-45 235 -456 0
35 460 -499 0
-47 -198 362 0
301 396 -442 0
-372 -412 -421 0
54 -69 204 0
-104 -191 -396 0
-179 -239 -403 0
-47 -166 -478 0
192 -224 286 0
98 -207 263 0
-33 -316 390 0
-346 -387 -392 0
-82 -339 -496 0
-84 -136 149 0
-313 -423 437 0
-151 456 479 0
-140 -161 165 0
-142 -327 -442 0
-201 -377 452 0
25 -206 289 0
176 286 383 0
-6 89 376 0
-64 -387 -449 0
-76 -121 172 0
256 316 -453 0
281 285 -342 0
-41 250 292 0
-139 161 424 0
293 314 -405 0
-15 241 -448 0
-173 -388 426 0
77 291 -374 0
-310 -327 -443 0
-163 -249 -497 0
261 425 431 0
-208 274 -408 0
-88 134 214 0
230 455 463 0
-95 346 393 0
-8 279 324 0
252 -334 468 0
107 -244 -337 0
-238 246 277 0
-10 28 -383 0
-164 -326 -486 0
-300 -304 -350 0
84 181 441 0
-175 397 483 0
21 -140 -324 0
-289 359 -434 0
-124 -145 -471 0
17 -68 -79 0
162 -248 261 0
-17 -272 391 0
65 198 200 0
-12 -333 348 0
-18 141 -198 0
-171 311 405 0
121 301 -488 0
88 -131 422 0
334 -476 -500 0
-65 -92 197 0
207 239 291 0
106 213 259 0
94 245 479 0
13 16 -247 0
244 -312 388 0
-40 217 324 0
-142 -231 471 0
-47 249 -446 0
-203 276 -410 0
14 16 -25 0
-4 219 -253 0
-28 402 -438 0
8 -124 -167 0
68 149 -375 0
98 137 -321 0
392 434 -473 0
27 -243 450 0
-281 353 -466 0
-66 -117 465 0
196 -327 332 0
30 131 198 0
392 412 -472 0
12 -198 243 0
92 334 481 0
91 -167 227 0
-18 42 -302 0
80 -251 -488 0
-29 188 427 0
-147 324 364 0
-256 -417 452 0
5 -307 -336 0
37 106 -168 0
-378 429 -478 0
185 -235 -410 0
-117 -216 477 0
132 -220 -409 0
127 -202 392 0
24 -198 -245 0
-184 -381 -480 0
67 287 -352 0
10 -28 -352 0
-13 158 -412 0
33 -258 451 0
94 257 446 0
-33 -167 475 0
-15 -59 -310 0
76 99 -103 0
-188 189 236 0
169 176 -234 0
-114 -232 -436 0
-51 159 227 0
17 168 -253 0
6 46 403 0
134 -197 465 0
67 -141 397 0
273 -287 -382 0
97 217 -310 0
237 -424 -464 0
-189 -343 -420 0
-60 -401 -438 0
-171 251 361 0
260 305 -470 0
14 164 464 0
-53 73 94 0
-31 -81 450 0
-173 200 -294 0
200 -218 494 0
201 -448 -471 0
72 328 459 0
-162 -214 268 0
244 380 -436 0
-158 326 403 0
-64 -71 -390 0
-121 157 -496 0
176 -206 481 0
-6 370 427 0
6 26 32 0
143 -166 229 0
108 216 -454 0
78 228 486 0
-296 392 451 0
240 338 -497 0
-208 -269 339 0
-139 -301 377 0
-323 -382 470 0
-277 -469 493 0
200 303 -368 0
33 -240 -499 0
125 218 -454 0
-40 -252 -355 0
187 219 286 0
-154 -220 -297 0
310 370 -447 0
129 -316 -449 0
217 -344 -351 0
-271 312 -353 0
-193 -259 -500 0
-137 169 403 0
21 190 327 0
-108 245 -361 0
-75 -388 -422 0
-200 -252 379 0
-13 -248 431 0
42 279 421 0
-207 287 -304 0
104 261 411 0
-193 269 462 0
115 -283 -375 0
-265 -436 -474 0
14 -205 -301 0
-97 -430 494 0
-185 230 361 0
-138 -334 -444 0
194 -374 -436 0
-160 -318 -347 0
5 -326 437 0
66 -260 -429 0
26 79 229 0
114 -483 499 0
91 -172 -233 0
62 100 363 0
-224 -270 -357 0
-39 -46 -112 0
170 336 -454 0
-113 217 338 0
22 -186 203 0
-168 298 324 0
17 173 483 0
-92 -195 -453 0
91 194 -291 0
98 249 -409 0
-71 155 -370 0
25 300 469 0
23 -146 408 0
28 -225 -440 0
-276 437 500 0
-9 84 -307 0
143 -249 340 0
-73 79 -153 0
-137 377 -466 0
-71 -315 -492 0
-3 357 -476 0
11 180 -281 0
-47 115 278 0
-43 159 373 0
22 176 -492 0
301 395 -495 0
-160 368 449 0
-263 475 -486 0
6 133 -229 0
133 -420 472 0
-51 -241 247 0
-91 -276 305 0
-45 -55 -273 0
-173 429 466 0
-165 -270 436 0
182 231 -442 0
88 -318 403 0
142 159 -173 0
88 -143 404 0
151 -281 -399 0
188 220 -316 0
-4 108 112 0
181 371 372 0
-166 -366 -479 0
29 -255 -460 0
1 18 -33 0
4 178 -390 0
-271 303 324 0
14 -183 -401 0
106 149 358 0
-171 285 362 0
-93 389 -457 0
-200 -368 -459 0
103 -232 379 0
79 143 150 0
149 389 499 0
54 261 350 0
233 314 320 0
273 322 426 0
-207 395 452 0
-207 302 368 0
-191 -392 395 0
-245 261 369 0
-78 171 -370 0
-327 -336 -459 0
-68 -231 448 0
11 -183 -232 0
236 -359 423 0
-267 -308 -340 0
104 248 -270 0
-90 121 -491 0
-2 33 -153 0
-109 147 399 0
321 -382 -418 0
112 -390 424 0
-263 279 281 0
-137 -472 487 0
8 -203 -371 0
221 264 408 0
142 177 -306 0
-6 101 280 0
177 -200 -437 0
-52 -80 102 0
11 65 142 0
-40 -243 -307 0
55 146 -428 0
239 -271 -413 0
-16 -296 316 0
-175 322 487 0
-249 -292 -457 0
-177 251 -351 0
370 -448 468 0
45 50 -80 0
-61 249 -339 0
-326 -466 485 0
275 -345 -476 0
92 -212 423 0
-86 238 -465 0
-79 -122 204 0
8 161 265 0
144 153 408 0
-223 -289 -471 0
-197 371 -493 0
-112 329 -387 0
-13 160 -347 0
-60 -358 447 0
214 -267 -436 0
19 45 -292 0
210 412 468 0
16 49 125 0
-14 -127 369 0
122 366 -487 0
-424 -454 487 0
-34 -71 -439 0
-156 355 476 0
200 405 479 0
-227 -237 -274 0
224 -231 -414 0
-211 -226 -409 0
-40 188 362 0
-176 246 -444 0
129 330 388 0
-120 -188 255 0
-97 -270 488 0
-90 291 332 0
257 410 -456 0
117 -139 -161 0
30 246 -483 0
221 247 273 0
-187 393 395 0
-3 324 -439 0
-19 -128 -341 0
42 -46 325 0
74 289 -453 0
379 -458 496 0
-129 382 -484 0
67 -241 436 0
-17 -201 -388 0
-303 -380 -468 0
-81 -188 -301 0
24 261 346 0
41 390 406 0
-68 181 404 0
-200 -280 -368 0
-149 -279 443 0
-67 -115 -334 0
-230 346 -397 0
11 -288 -397 0
-240 -382 480 0
61 405 -418 0
9 163 -468 0
-280 335 -474 0
-133 231 260 0
132 179 -199 0
-62 145 159 0
51 -89 -353 0
-63 270 481 0
-198 412 414 0
-261 -282 310 0
-153 -161 492 0
20 -84 -315 0
-51 -80 336 0
91 -107 -303 0
145 297 -429 0
241 -370 372 0
-1 215 418 0
56 -383 401 0
133 247 401 0
-9 -84 489 0
166 464 493 0
138 146 282 0
175 -347 -368 0
75 -125 439 0
-175 -217 -350 0
-102 270 428 0
-201 237 374 0
-245 -319 -448 0
-59 343 -426 0
180 -304 356 0
-88 286 438 0
-73 -97 218 0
-94 -135 -291 0
152 -338 459 0
305 398 -415 0
131 206 436 0
-115 -305 401 0
105 -311 -432 0
-1 -241 368 0
205 -264 -470 0
-372 -423 441 0
-84 119 -433 0
254 290 382 0
-426 466 487 0
-87 -179 -472 0
3 81 -451 0
-45 360 -413 0
-9 -125 -198 0
314 321 432 0
-6 -54 -234 0
122 349 -373 0
133 190 -364 0
-60 -164 -251 0
50 -57 -493 0
-172 -223 315 0
-76 231 330 0
108 152 360 0
62 -64 243 0
-33 175 -388 0
-67 72 148 0
236 -271 -494 0
94 -185 -205 0
-85 -203 484 0
-172 -225 367 0
178 -380 454 0
194 -289 -298 0
29 -82 340 0
-22 -173 476 0
-158 385 -490 0
51 -219 289 0
-290 404 -405 0
113 -259 343 0
-104 -414 -476 0
231 -246 280 0
135 -184 -359 0
276 317 -492 0
251 -429 -464 0
227 231 -339 0
-246 326 -393 0
-367 375 -470 0
242 436 -499 0
-50 -135 -182 0
72 -404 499 0
-48 -190 431 0
23 -44 -372 0
-138 277 396 0
-264 -331 369 0
163 189 387 0
-178 -197 -490 0
-43 -298 446 0
264 292 477 0
59 -63 -466 0
42 -159 -407 0
-257 -320 422 0
180 262 282 0
118 -173 -228 0
88 -117 456 0
57 -265 -376 0
48 338 -479 0
-246 279 362 0
7 277 474 0
326 -333 -456 0
-53 -337 392 0
27 104 432 0
190 -293 367 0
207 -232 -314 0
-26 -299 395 0
146 275 424 0
-16 -45 326 0
-29 331 -403 0
-35 244 385 0
-242 -345 404 0
-307 353 425 0
235 -365 -460 0
382 388 -495 0
-250 265 340 0
-136 246 251 0
-276 278 424 0
7 52 -500 0
-100 160 184 0
-198 396 -400 0
124 -132 283 0
-171 -269 302 0
227 -355 -373 0
144 -194 497 0
118 200 -500 0
299 -323 389 0
-28 -266 -383 0
-77 -227 -462 0
-84 -189 -402 0
-289 428 -487 0
85 151 300 0
-11 -56 -156 0
130 251 -392 0
21 -362 -377 0
-400 418 498 0
-64 -421 450 0
-160 -219 -362 0
-70 -138 168 0
-57 175 430 0
-17 -418 437 0
44 -93 352 0
-206 282 368 0
-230 -366 -497 0
-39 -142 -431 0
-29 -346 -500 0
108 -264 355 0
206 -240 430 0
169 183 -324 0
-81 253 -269 0
-33 219 255 0
113 -329 468 0
-19 -250 323 0
85 397 -473 0
85 -109 -199 0
37 420 427 0
-175 235 -356 0
-7 46 -256 0
-51 194 -489 0
12 195 436 0
37 253 454 0
-177 -323 -377 0
-56 212 -472 0
-117 -336 363 0
8 10 432 0
-43 153 492 0
-56 62 -446 0
-102 -306 -344 0
171 287 -323 0
-71 -118 -394 0
-234 371 421 0
-24 146 -380 0
-297 -414 456 0
-247 370 436 0
117 -398 -433 0
46 75 -190 0
271 -323 -364 0
-165 -289 371 0
90 -102 178 0
33 -142 -387 0
-31 38 134 0
-283 -336 412 0
51 134 -284 0
301 303 335 0
51 74 153 0
-91 406 493 0
92 -128 404 0
43 -116 249 0
161 447 -498 0
-59 -243 -349 0
-137 -182 -248 0
-384 401 415 0
-59 137 410 0
17 -361 -418 0
-71 -265 -383 0
-238 309 357 0
223 416 494 0
-146 249 304 0
263 -310 315 0
-346 443 -460 0
-67 104 339 0
37 -60 -426 0
86 165 229 0
-37 -135 -245 0
-43 170 -259 0
-96 291 318 0
250 -292 -326 0
-113 -331 340 0
49 252 429 0
-149 181 472 0
22 -54 -403 0
-150 160 371 0
-38 -395 -458 0
-88 287 -301 0
3 143 -243 0
-251 -286 310 0
46 -258 298 0
-1 -92 373 0
141 242 405 0
9 -81 286 0
-1 353 431 0
-72 -351 473 0
-17 254 -483 0
-236 263 447 0
194 -253 332 0
-12 -219 261 0
323 -423 -457 0
-49 286 453 0
74 131 219 0
79 233 417 0
29 71 224 0
-126 349 389 0
-20 233 434 0
49 55 -101 0
-47 -98 -170 0
-170 301 -405 0
-18 -184 -368 0
-230 -327 370 0
442 -451 456 0
-27 -38 -71 0
90 121 474 0
-127 185 -472 0
-215 320 -432 0
275 -298 422 0
122 -295 445 0
-29 -390 416 0
177 -331 352 0
262 -265 -409 0
-189 204 484 0
-242 293 411 0
62 289 -367 0
-124 128 483 0
-71 -151 274 0
-19 193 337 0
176 -195 -360 0
182 -348 418 0
-211 -302 366 0
-156 -159 -253 0
-155 -233 -416 0
-128 156 -443 0
-268 428 -438 0
115 -226 263 0
-30 86 -156 0
-155 -313 441 0
297 412 -472 0
-72 -307 406 0
53 167 -204 0
142 212 358 0
-72 306 447 0
-157 -238 328 0
89 211 289 0
-117 -341 431 0
-114 -203 -271 0
46 81 488 0
-239 -331 442 0
-79 123 -397 0
-120 -243 -498 0
220 -334 368 0
-115 186 -389 0
-54 243 354 0
73 154 423 0
-1 310 359 0
93 -170 -294 0
-245 -428 -446 0
-211 256 -427 0
46 58 -124 0
185 -368 -377 0
68 255 -431 0
-170 -417 -469 0
33 56 241 0
-14 -168 -208 0
-132 -186 262 0
82 126 377 0
-240 326 -334 0
-68 -360 -482 0
-59 -99 -273 0
136 341 372 0
-150 182 -426 0
-24 333 -447 0
155 -276 283 0
-238 -356 -369 0
13 -48 63 0
-87 -305 -351 0
-134 -298 377 0
-2 -133 -229 0
17 -31 158 0
137 448 470 0
242 312 -385 0
-85 245 -296 0
154 220 474 0
179 320 397 0
-150 287 -388 0
74 402 448 0
80 360 390 0
91 335 349 0
171 194 -339 0
-140 319 -343 0
4 348 495 0
-210 -237 433 0
16 -104 271 0
22 115 221 0
-233 -317 374 0
-11 207 368 0
-137 138 410 0
-109 -143 202 0
-201 -285 492 0
43 193 308 0
161 -210 -480 0
5 7 270 0
83 -186 339 0
-58 66 -193 0
74 147 347 0
43 -218 373 0
19 -29 277 0
137 -399 452 0
293 306 326 0
-45 356 -422 0
-78 206 -373 0
-339 -354 -422 0
-223 -350 -476 0
-287 359 -420 0
407 427 448 0
-17 -228 -495 0
-28 151 -184 0
11 296 -451 0
-181 -395 -469 0
18 -314 -373 0
96 -200 -419 0
-268 314 -399 0
162 240 483 0
-384 435 444 0
23 435 -490 0
-230 268 448 0
-110 -145 -254 0
-302 -384 -445 0
186 -397 444 0
-167 -181 270 0
47 357 493 0
24 237 249 0
-88 432 455 0
99 136 460 0
-157 224 -322 0
-77 -226 395 0
100 168 406 0
-7 -47 -464 0
-132 141 -491 0
-138 -207 -498 0
29 91 147 0
49 77 -123 0
-276 281 -314 0
124 -345 399 0
17 183 268 0
4 87 98 0
107 -302 463 0
-63 114 398 0
-34 301 -448 0
26 369 480 0
-196 -250 355 0
-92 413 -480 0
-155 245 327 0
218 -301 -469 0
132 -294 -322 0
-26 364 459 0
14 105 326 0
-124 279 288 0
-428 438 -440 0
-310 327 -497 0
215 421 464 0
-42 188 242 0
105 256 281 0
113 140 -411 0
-72 81 -149 0
-50 233 346 0
-145 -444 471 0
-9 272 -319 0
58 -116 430 0
89 119 -192 0
-32 132 174 0
229 -410 471 0
-150 234 351 0
22 40 -471 0
-176 -427 438 0
56 -61 497 0
4 -159 -466 0
109 -207 -316 0
38 55 -174 0
327 -428 -435 0
41 -386 -429 0
95 241 -251 0
-113 245 310 0
15 115 341 0
-356 -372 492 0
32 -33 -404 0
109 -183 -334 0
69 -144 -151 0
223 285 -365 0
-56 228 316 0
-84 233 411 0
169 -184 -441 0
-124 -256 495 0
23 -473 -492 0
-223 -244 -362 0
62 420 -460 0
20 -291 -342 0
37 217 413 0
64 108 394 0
264 -422 448 0
109 166 -263 0
-49 187 479 0
210 -329 418 0
-88 -368 -423 0
220 -396 -481 0
-86 261 -266 0
26 -105 497 0
-7 -11 -494 0
-141 278 -296 0
131 -274 -279 0
19 177 -391 0
-16 -407 488 0
-179 -240 -262 0
8 -194 251 0
-71 -111 -232 0
130 -219 -384 0
-29 47 -483 0
-175 268 -390 0
-70 -238 440 0
266 312 -437 0
115 284 436 0
147 267 491 0
312 -404 446 0
56 -126 398 0
29 -134 -256 0
-222 -316 -497 0
130 219 -277 0
-28 404 -486 0
-132 211 457 0
-191 -293 427 0
397 -417 -460 0
-72 -103 -461 0
-85 -248 463 0
113 201 -360 0
-384 -404 -436 0
-56 -159 -316 0
-84 -329 419 0
-279 354 431 0
-10 -149 352 0
167 458 -492 0
-133 -331 -454 0
279 -297 312 0
-270 -389 -459 0
-265 -436 444 0
-16 -327 480 0
14 256 401 0
189 232 266 0
7 -284 486 0
-146 -232 492 0
66 328 -355 0
-68 350 416 0
-209 292 -326 0
-150 231 -359 0
-74 245 284 0
-131 -167 281 0
-208 237 452 0
254 270 -497 0
156 -337 -434 0
-39 115 -292 0
33 -203 -306 0
-164 201 246 0
204 369 387 0
73 121 151 0
180 -241 -264 0
-58 -271 -431 0
59 -229 424 0
6 169 -208 0
-82 223 463 0
-67 -144 386 0
54 99 -226 0
-86 -350 -462 0
116 -359 -481 0
-186 -279 -296 0
57 -124 486 0
-29 270 -286 0
56 486 -499 0
-210 318 456 0
56 299 -491 0
124 -159 -306 0
-51 286 -427 0
-40 191 345 0
-318 331 -455 0
43 139 201 0
-206 385 -408 0
-9 406 -425 0
-3 -453 -487 0
-21 195 -365 0
-34 -216 -324 0
-92 -292 -360 0
-68 -385 469 0
273 374 -415 0
127 -370 451 0
41 246 422 0
151 349 423 0
-194 -298 -310 0
24 31 185 0
-22 -104 496 0
-290 347 413 0
129 -333 -368 0
52 390 409 0
117 140 -446 0
-106 453 469 0
-261 -302 497 0
34 -67 210 0
10 -321 -371 0
5 47 -389 0
-269 -427 473 0
6 140 -248 0
-276 317 -479 0
-38 114 423 0
105 283 -481 0
180 -291 500 0
-305 396 413 0
89 -191 363 0
-53 -75 231 0
128 186 -303 0
90 210 -381 0
18 -343 428 0
-265 -327 -369 0
-138 -212 219 0
-6 169 322 0
-286 306 -455 0
12 -281 -461 0
-381 -428 -479 0
-38 67 247 0
-214 261 406 0
-132 239 -365 0
-301 -319 486 0
6 486 491 0
94 -373 -397 0
-97 -261 297 0
-406 -408 479 0
11 -292 320 0
-36 407 439 0
-43 -113 -268 0
-64 253 469 0
64 -77 -172 0
27 -41 392 0
-198 293 323 0
-40 246 272 0
110 -230 -330 0
85 152 261 0
-51 -352 426 0
149 368 478 0
-9 239 476 0
-101 -263 -268 0
10 -159 433 0
-117 139 -277 0
-243 460 -478 0
76 -97 -241 0
-173 -247 290 0
257 -310 -380 0
60 243 -456 0
96 194 245 0
279 343 -414 0
199 -270 -426 0
-11 36 213 0
-101 189 230 0
97 286 319 0
-119 -196 310 0
120 123 -374 0
-46 133 -447 0
77 -142 331 0
284 -323 -360 0
-173 413 -466 0
53 318 357 0
118 119 496 0
-54 241 415 0
106 160 350 0
281 -386 -407 0
-31 206 327 0
-23 70 125 0
163 -306 -454 0
113 475 498 0
-39 257 -482 0
49 -126 -205 0
83 -264 321 0
164 -425 441 0
-10 -182 -468 0
57 -178 388 0
135 220 459 0
224 250 -477 0
78 300 -459 0
-183 328 -433 0
300 -309 398 0
139 -263 -483 0
-1 38 271 0
199 -268 290 0
-134 364 -484 0
114 -341 497 0
-160 452 463 0
-70 -109 -169 0
-52 -102 328 0
83 333 446 0
44 -256 -479 0
-110 -113 281 0
40 142 183 0
23 -151 -420 0
83 -314 -424 0
45 -126 337 0
261 -408 413 0
-114 -149 -345 0
-80 -118 -174 0
-165 -293 -494 0
13 275 401 0
1 -116 -341 0
102 -119 401 0
346 413 452 0
-256 308 336 0
-11 480 -489 0
-43 202 -319 0
-27 -210 497 0
272 -424 433 0
-56 149 -188 0
-20 434 478 0
164 357 494 0
93 -178 -423 0
210 421 473 0
197 -440 -493 0
71 266 -393 0
147 -189 -196 0
-136 -221 455 0
-37 310 -463 0
253 399 -441 0
206 217 -231 0
-35 -306 331 0
173 -313 -407 0
-188 -369 493 0
-56 -73 -171 0
-263 -425 494 0
130 -207 -351 0
-29 62 -296 0
-1 -86 -195 0
-202 -308 428 0
-186 -354 427 0
-7 214 482 0
179 -263 -369 0
-94 200 -208 0
-11 -129 -317 0
259 -294 -415 0
-127 266 -447 0
310 408 446 0
50 143 -177 0
-10 -61 407 0
32 -198 395 0
-176 263 -355 0
188 -219 -406 0
-151 181 -485 0
138 164 -169 0
27 -202 408 0
233 395 -471 0
-151 246 427 0
-62 255 325 0
-89 121 268 0
145 -235 270 0
-156 183 185 0
-73 -339 409 0
-61 -128 440 0
132 306 -333 0
-271 -335 -456 0
-38 -152 -482 0
49 -54 351 0
-82 195 318 0
-294 390 437 0
-312 331 -398 0
5 -16 35 0
-148 418 455 0
-127 175 438 0
-93 278 -332 0
10 -65 -181 0
416 -451 -493 0
-400 441 -462 0
71 -425 -446 0
220 -466 488 0
160 354 -383 0
38 106 -218 0
51 189 221 0
-77 -161 -322 0
220 266 -442 0
280 -310 414 0
-126 184 -466 0
-12 157 -319 0
-44 -121 474 0
4 195 -261 0
-28 357 490 0
18 -44 347 0
-192 207 -248 0
288 299 324 0
81 153 -280 0
32 -34 475 0
-24 -209 413 0
-81 -258 486 0
-147 275 -300 0
15 -346 -376 0
189 211 467 0
-132 -196 -261 0
118 -194 -440 0
-167 -345 494 0
-237 314 -449 0
-1 68 423 0
-250 -255 -391 0
-312 -426 -437 0
-56 -359 -455 0
192 -372 -461 0
65 264 -497 0
133 -287 488 0
-134 -171 498 0
227 236 -272 0
154 362 476 0
272 -302 -472 0
38 277 498 0
-14 326 -378 0
340 -441 -450 0
-261 -424 432 0
-110 449 475 0
-27 355 -456 0
-9 125 -303 0
74 -207 284 0
128 -130 -215 0
-53 327 484 0
-115 145 320 0
126 327 355 0
-171 209 376 0
-346 356 -367 0
-69 -318 -322 0
238 337 -473 0
146 253 -438 0
-165 -220 462 0
171 220 302 0
348 406 -453 0
29 190 269 0
329 -347 -448 0
-258 -368 480 0
-143 283 377 0
44 168 -334 0
-25 90 -420 0
160 189 -282 0
-328 378 -386 0
121 147 -460 0
-32 -121 426 0
100 -196 -357 0
70 -186 379 0
-47 115 332 0
194 -240 -306 0
44 -126 398 0
-136 193 416 0
31 -145 -193 0
56 143 180 0
25 256 372 0
-42 -112 -458 0
86 -296 -402 0
-101 251 437 0
47 469 -479 0
74 -181 -454 0
35 257 371 0
123 127 387 0
62 454 464 0
311 -320 371 0
-94 340 -361 0
164 -178 -236 0
-75 281 451 0
-8 95 -200 0
-101 -300 -467 0
14 -117 288 0
-42 225 409 0
373 400 402 0
-5 166 -201 0
-215 -381 396 0
9 359 -489 0
351 362 387 0
-196 468 492 0
-10 12 459 0
11 290 -383 0
54 135 261 0
279 302 387 0
20 -79 -95 0
-73 221 -320 0
-205 257 -380 0
-226 -267 -359 0
21 -222 -422 0
-411 -420 481 0
-48 -68 69 0
35 -42 310 0
267 -382 -459 0
-201 -341 427 0
16 -133 -273 0
76 195 283 0
-147 -203 -330 0
36 61 -76 0
-12 -14 -122 0
-43 239 258 0
329 -361 -439 0
-180 227 345 0
46 297 -331 0
312 354 420 0
44 -485 -487 0
95 -335 410 0
-233 276 415 0
-71 -111 159 0
37 363 -388 0
-361 -365 396 0
-123 -325 -328 0
236 302 488 0
31 -204 464 0
111 -122 -190 0
113 239 -394 0
-54 -202 459 0
103 -213 -447 0
156 -263 359 0
224 -263 487 0
120 -219 -375 0
237 402 -439 0
17 375 -410 0
187 -378 -455 0
318 328 -447 0
82 93 139 0
-132 135 -481 0
-172 268 -327 0
-339 408 -498 0
285 -466 -489 0
8 -41 368 0
-109 338 -369 0
54 169 268 0
113 -372 -486 0
71 288 -405 0
-46 166 436 0
-216 292 -495 0
89 -353 -374 0
127 -247 298 0
-23 -55 -107 0
-175 -261 311 0
58 -299 367 0
81 188 -249 0
-28 -128 429 0
-45 142 -429 0
-145 -355 397 0
31 -66 455 0
46 184 350 0
74 -239 -461 0
-5 -123 -244 0
-200 295 -339 0
195 258 392 0
101 -270 -320 0
-20 30 -59 0
29 371 478 0
19 276 -419 0
90 -110 350 0
126 425 -454 0
-356 362 460 0
-75 -255 377 0
90 -206 477 0
259 270 -346 0
-212 223 -383 0
-58 -167 362 0
226 378 -447 0
-319 401 485 0
-169 -425 437 0
103 -161 480 0
114 335 498 0
77 146 389 0
146 -171 -240 0
-34 153 -162 0
-88 -246 463 0
44 -143 -216 0
176 -369 -489 0
89 183 -216 0
-117 -253 354 0
102 -110 426 0
26 -79 181 0
-128 176 -273 0
-103 105 353 0
24 -72 358 0
-76 -303 -383 0
-126 159 -437 0
-112 242 -265 0
-176 -234 315 0
-230 -236 -356 0
-180 303 339 0
5 -51 -319 0
63 -260 472 0
1 -86 467 0
73 249 335 0
143 220 -303 0
260 298 464 0
169 245 -440 0
115 -213 -361 0
107 -451 -493 0
77 -135 -437 0
-301 -323 368 0
168 -248 -359 0
-240 -282 317 0
-154 196 -336 0
271 285 372 0
-93 313 -466 0
37 391 -423 0
362 369 -498 0
23 334 -477 0
-163 214 -303 0
70 -203 421 0
21 -59 -417 0
-84 -228 -453 0
-82 -87 -181 0
-92 296 -363 0
-345 385 495 0
-305 423 -429 0
-439 -482 496 0
357 -374 -401 0
-51 -194 -323 0
-271 -364 453 0
80 -202 -483 0
-22 40 -133 0
-87 249 -467 0
-23 -192 -493 0
6 433 -469 0
30 445 -457 0
-305 404 -474 0
-10 95 -166 0
136 -333 -377 0
-10 -89 -269 0
-1 73 95 0
-42 292 -420 0
-153 307 450 0
213 337 458 0
180 -383 487 0
51 -197 -310 0
176 -203 -474 0
-29 -95 428 0
155 -371 376 0
124 227 -342 0
170 -289 479 0
-23 -162 494 0
-145 322 465 0
229 341 430 0
-147 -164 -444 0
-37 147 313 0
89 -388 467 0
195 337 -389 0
-50 225 436 0
52 -307 -447 0
-72 293 -321 0
-26 421 -475 0
34 112 433 0
67 -182 -340 0
171 277 435 0
275 -292 302 0
-22 -165 296 0
-29 -124 424 0
254 284 -323 0
-6 280 316 0
-77 -137 -211 0
228 266 -434 0
-68 -175 -439 0
71 394 -402 0
111 319 -363 0
109 -177 317 0
-63 -157 -233 0
-26 194 492 0
108 -184 -421 0
120 179 217 0
141 -251 456 0
31 148 -433 0
103 187 -470 0
-329 -383 -471 0
115 160 -234 0
-8 118 273 0
-26 116 194 0
-190 -209 354 0
184 -289 -296 0
-38 40 491 0
217 -445 458 0
-7 -348 426 0
425 -455 456 0
1 181 186 0
-31 -174 422 0
151 -169 394 0
4 -232 -473 0
-151 218 344 0
-98 270 486 0
163 -284 411 0
-8 -254 -447 0
159 -187 467 0
-126 -145 -433 0
59 -346 474 0
-191 -194 -263 0
33 -145 434 0
-26 161 285 0
111 -399 428 0
203 -385 406 0
-159 -419 -473 0
104 238 -425 0
132 -234 -252 0
-45 -244 -418 0
-95 -280 -435 0
-110 -405 418 0
197 404 467 0
51 -348 -370 0
-397 -419 443 0
290 -327 -418 0
12 75 459 0
-73 210 -398 0
-172 409 -495 0
217 230 -252 0
-257 -260 -374 0
-87 -398 494 0
-361 376 -473 0
87 -337 -472 0
-94 -302 -498 0
42 -343 411 0
-233 -432 -461 0
-5 287 -290 0
-20 -40 42 0
-20 93 181 0
-120 -129 -411 0
-52 -276 455 0
-132 -235 486 0
-113 -125 494 0
-6 -470 491 0
18 214 -321 0
-161 -329 -337 0
72 109 -365 0
225 -277 -295 0
-75 93 -336 0
-68 426 462 0
-156 169 -249 0
-14 -132 178 0
128 -212 -250 0
35 62 228 0
174 -193 -198 0
-193 233 -379 0
305 -367 498 0
101 -351 -377 0
-36 -211 -398 0
82 225 -264 0
-220 -436 475 0
-4 274 295 0
82 131 178 0
97 465 -497 0
127 -258 -351 0
-90 -474 479 0
199 -211 -256 0
10 -380 -460 0
107 139 270 0
62 127 177 0
69 -110 -154 0
-72 312 457 0
-38 42 312 0
-162 -445 462 0
80 -245 -350 0
82 -127 300 0
-169 331 476 0
-105 229 -476 0
-153 -227 -293 0
1 149 -192 0
-1 167 365 0
269 480 -498 0
189 345 -393 0
287 291 320 0
121 -258 333 0
187 270 382 0
65 367 461 0
172 348 426 0
34 -156 -362 0
-142 303 -492 0
-109 225 471 0
-23 -57 82 0
223 -412 436 0
-10 -70 403 0
-123 318 -499 0
-6 -356 -389 0
-64 -324 478 0
-146 -397 -421 0
-153 382 459 0
121 187 -252 0
94 -213 386 0
-133 135 -468 0
155 -331 337 0
-165 183 -221 0
160 -208 -435 0
177 -201 350 0
24 133 -473 0
78 -191 -368 0
28 -79 227 0
186 -252 439 0
-207 260 -364 0
-165 308 -486 0
-26 -75 -165 0
-53 72 -209 0
21 -298 -464 0
-13 -397 494 0
-216 -304 452 0
-151 167 -460 0
298 435 -474 0
-66 -175 182 0
90 419 438 0
29 -444 465 0
-116 319 422 0
40 78 -157 0
-230 -303 -371 0
64 77 -473 0
3 66 -163 0
287 322 -420 0
-208 -390 -445 0
-272 426 -492 0
253 267 -413 0
124 -196 224 0
301 430 486 0
162 319 -350 0
-45 -359 419 0
55 413 476 0
39 -245 -294 0
1 14 -439 0
331 -406 -485 0
15 95 -462 0
244 421 497 0
-161 -419 462 0
-138 -437 446 0
-29 -273 320 0
105 390 493 0
207 347 -484 0
-40 -75 -424 0
179 240 -407 0
-44 271 327 0
272 442 -470 0
-80 367 410 0
-358 385 470 0
241 333 -358 0
3 233 -446 0
-24 262 -341 0
104 235 263 0
-28 42 139 0
130 176 474 0
-305 314 -417 0
-211 -322 -353 0
103 366 381 0
-130 395 402 0
35 -76 -96 0
369 445 -471 0
-163 -203 382 0
83 170 199 0
-210 -319 -468 0
279 -365 499 0
30 -54 -268 0
-122 153 -447 0
166 -244 347 0
49 -257 467 0
145 -222 -235 0
158 -265 480 0
-91 184 -399 0
202 404 -457 0
-211 238 283 0
92 214 229 0
-45 -110 -473 0
-5 -15 -291 0
-124 363 433 0
3 289 442 0
193 194 -474 0
276 -285 -496 0
-52 63 -467 0
13 301 329 0
-138 259 354 0
-83 -211 -455 0
100 412 496 0
111 344 -367 0
116 -221 -263 0
-368 -458 467 0
-129 -262 382 0
350 -408 488 0
-147 484 -489 0
1 53 -262 0
296 -299 -437 0
5 -83 -343 0
-31 252 -269 0
37 -355 436 0
-104 256 -411 0
-11 417 -428 0
-98 114 -115 0
-100 159 450 0
116 126 -266 0
-35 -83 388 0
-144 219 292 0
-181 294 337 0
129 215 273 0
82 -480 497 0
185 344 377 0
-80 83 352 0
36 -218 327 0
-83 -225 -266 0
167 237 -482 0
-66 -193 376 0
218 227 323 0
405 412 483 0
91 374 -386 0
-26 -350 395 0
-125 127 -461 0
1 -404 481 0
303 -400 -497 0
379 389 445 0
374 -463 -489 0
71 84 -272 0
-154 374 400 0
197 255 374 0
31 261 -384 0
-296 -336 -450 0
50 120 193 0
275 -300 395 0
-151 361 445 0
79 -153 -451 0
422 470 -471 0
-10 58 -491 0
-176 -305 -373 0
22 -62 115 0
-114 -335 -353 0
231 276 382 0
204 209 314 0
3 -13 260 0
100 -117 308 0
-85 170 -465 0
253 454 467 0
33 97 -312 0
59 221 -473 0
-17 -376 396 0
31 -118 -148 0
-137 -169 -436 0
-109 219 -397 0
36 -72 470 0
-10 -138 -400 0
-61 -275 -437 0
-90 219 225 0
-83 157 327 0
-62 -211 410 0
-223 349 -350 0
77 450 -485 0
42 -167 194 0
138 415 451 0
175 -223 -448 0
96 -98 473 0
233 383 -486 0
-139 -236 261 0
11 417 -435 0
302 326 496 0
-58 201 362 0
255 427 -469 0
-62 190 307 0
100 -305 424 0
-76 185 426 0
-84 -225 -438 0
-19 -207 -223 0
16 24 44 0
-103 177 -436 0
-115 -215 -389 0
-118 285 308 0
-142 311 -416 0
-51 182 -474 0
-25 -220 448 0
-241 335 -336 0
-55 84 -426 0
242 -264 -363 0
44 -90 -168 0
-177 206 209 0
-118 172 -243 0
-7 -352 497 0
215 338 356 0
-24 254 -455 0
-14 107 280 0
7 -167 -443 0
63 142 335 0
71 -404 -433 0
111 445 496 0
-14 -87 123 0
133 199 -308 0
58 86 -282 0
182 -380 -430 0
-199 -354 484 0
106 -312 -442 0
191 -327 -380 0
-1 -228 -381 0
221 323 427 0
-62 320 415 0
178 -327 -424 0
245 -314 -475 0
-59 259 -442 0
-123 198 414 0
110 -206 -464 0
461 463 480 0
-240 -241 -463 0
-332 421 453 0
30 -198 -426 0
-138 226 414 0
55 153 242 0
-130 380 457 0
252 465 500 0
265 -286 399 0
-25 -100 -131 0
-63 -292 -494 0
-46 466 483 0
-84 149 -263 0
-5 -83 -438 0
-287 -369 -495 0
-112 -125 142 0
-172 -300 -349 0
-202 -248 -259 0
56 273 -332 0
-37 -91 -380 0
-39 -99 -252 0
216 339 -396 0
-133 -349 -363 0
-109 -240 -262 0
-21 70 188 0
145 299 494 0
75 -83 183 0
11 -259 -431 0
-70 -84 424 0
-298 -448 459 0
-151 376 400 0
-226 -286 308 0
-151 -228 -459 0
-128 382 419 0
-174 -324 355 0
-277 -405 440 0
-185 309 -334 0
-392 -428 480 0
-44 -265 -376 0
20 110 359 0
-77 -340 421 0
-104 260 492 0
-173 304 -379 0
200 -420 -491 0
-33 -164 -497 0
346 -465 -479 0
102 272 288 0
-35 -215 407 0
135 -149 365 0
22 -248 -372 0
-141 -439 493 0
120 -227 -279 0
116 193 -286 0
16 162 438 0
-72 74 95 0
-92 179 -321 0
-182 318 -324 0
272 -303 355 0
-255 402 412 0
58 -71 -252 0
-125 163 448 0
16 44 -274 0
-221 470 -487 0
-22 83 285 0
70 -202 436 0
37 277 -334 0
-104 255 -493 0
45 -343 -464 0
129 -179 369 0
299 304 -490 0
-123 -213 -270 0
-44 310 481 0
65 110 118 0
246 -267 -301 0
-328 -376 386 0
44 289 383 0
14 155 164 0
-33 45 -380 0
-170 -354 429 0
39 232 456 0
-50 -281 -487 0
305 -402 458 0
-25 165 -397 0
151 420 435 0
15 -374 -467 0
-26 -419 -449 0
-236 -255 318 0
348 367 408 0
162 -373 499 0
24 -45 -267 0
-43 -61 -315 0
-303 -382 -401 0
-14 -371 -403 0
75 237 -340 0
3 313 364 0
-15 186 189 0
129 194 -203 0
-136 -412 -498 0
68 159 -406 0
77 377 387 0
-259 -261 -500 0
76 365 401 0
331 486 -499 0
-160 -280 -484 0
88 110 -380 0
-21 171 -302 0
233 339 353 0
-36 -178 363 0
102 196 -308 0
-46 300 -307 0
174 314 496 0
174 462 -492 0
-72 287 465 0
-58 -142 495 0
110 177 -304 0
-87 -108 -446 0
389 401 498 0
-80 -190 -465 0
157 -160 -208 0
76 -330 368 0
-66 -108 -249 0
162 478 -498 0
-61 -110 -193 0
346 -361 -443 0
32 104 -293 0
-83 293 492 0
-182 445 -492 0
289 399 472 0
19 -107 -459 0
-102 104 -255 0
-383 407 476 0
17 129 281 0
-36 163 464 0
356 388 395 0
246 264 -338 0
66 177 -387 0
17 163 -226 0
138 -158 244 0
90 -118 403 0
51 -57 67 0
207 393 -397 0
239 249 355 0
-10 -96 -267 0
148 -346 476 0
-433 437 -485 0
-22 -153 352 0
117 164 -204 0
193 391 429 0
3 164 -463 0
-47 104 -322 0
-136 240 -463 0
-83 295 491 0
29 -104 115 0
79 349 446 0
32 -154 295 0
-123 246 309 0
-203 332 -464 0
158 -364 435 0
-268 -305 -429 0
39 -167 -204 0
176 -200 -245 0
-62 72 159 0
241 -272 325 0
17 -19 -294 0
-303 361 396 0
170 437 470 0
39 162 -247 0
100 -162 -363 0
171 191 228 0
31 -104 200 0
-21 -74 -287 0
-122 140 199 0
168 -299 -330 0
161 307 380 0
22 -299 -306 0
-181 -284 309 0
114 292 -403 0
-221 -237 -427 0
15 -194 -273 0
-113 300 -409 0
-76 308 -377 0
252 -256 -375 0
62 84 155 0
-40 -213 -311 0
-196 -248 452 0
-296 312 -321 0
-31 -122 312 0
-102 149 346 0
-94 273 -374 0
77 83 -347 0
82 159 -436 0
-81 -287 -473 0
-49 100 -321 0
-170 -174 254 0
236 -461 -472 0
-194 -307 468 0
29 103 -398 0
76 -336 430 0
-87 228 350 0
100 241 324 0
-84 97 107 0
64 -363 -453 0
148 240 495 0
-63 382 383 0
56 -115 445 0
-334 346 494 0
-113 -294 379 0
24 211 -259 0
219 234 464 0
-111 186 -330 0
131 286 397 0
-166 -254 -405 0
241 347 376 0
-40 -345 -387 0
257 -280 -327 0
-113 -199 223 0
-10 -440 -468 0
65 -293 -497 0
-225 -419 452 0
-127 -361 -458 0
111 -130 304 0
-14 -168 481 0
85 -105 -404 0
151 -339 -413 0
336 -414 -463 0
295 -425 462 0
176 -179 -216 0
298 360 -428 0
-60 101 144 0
-74 278 -365 0
-45 92 -299 0
-49 -128 310 0
-42 150 289 0
263 -466 -497 0
-115 317 463 0
-5 88 476 0
169 -250 335 0
171 -282 327 0
-99 281 478 0
44 61 -185 0
277 356 449 0
-130 -408 459 0
-88 159 -361 0
-108 -370 382 0
24 -384 -408 0
14 66 -142 0
90 -219 452 0
102 269 300 0
199 280 298 0
-147 242 471 0
-58 105 -409 0
140 142 338 0
-120 -259 -356 0
-63 152 -357 0
286 292 -445 0
121 292 -454 0
399 450 -473 0
-41 -431 -448 0
241 -300 448 0
-201 227 301 0
-356 -400 -418 0
56 -212 252 0
-185 -197 -294 0
38 215 253 0
-221 326 -425 0
-76 -106 -409 0
-111 135 -217 0
-76 -199 391 0
-28 357 -467 0
198 -235 -304 0
-123 347 389 0
-80 -351 -440 0
167 357 -397 0
-268 -304 -345 0
-63 -98 -143 0
-108 239 408 0
-206 416 -469 0
-226 267 426 0
60 -408 424 0
229 -280 -334 0
47 -72 374 0
75 181 -452 0
384 -461 -497 0
-52 162 -387 0
-142 333 378 0
-334 -385 411 0
-130 401 495 0
-302 345 409 0
-149 -275 386 0
