p cnf 500 2129
60 -168 323 0
-118 -185 -344 0
45 86 94 0
-163 172 280 0
-62 240 -375 0
42 -121 -344 0
-69 -72 421 0
180 199 -399 0
82 287 -324 0
-147 -182 -239 0
161 239 328 0
107 345 -450 0
17 -223 393 0
131 -379 386 0
33 40 -275 0
-145 -163 -447 0
-2 -14 437 0
-7 -37 349 0
-210 257 -313 0
285 324 -404 0
252 -380 411 0
-141 -168 386 0
168 -266 433 0
-228 -264 450 0
10 330 -443 0
-96 151 -357 0
219 276 -470 0
124 -330 458 0
-203 -223 -280 0
211 481 -497 0
-120 -477 486 0
-260 374 -481 0
-129 264 328 0
75 99 -240 0
-19 -223 -344 0
-76 324 -368 0
-148 -292 328 0
284 316 341 0
-56 -173 -319 0
117 423 -476 0
29 -143 -415 0
-110 169 -477 0
347 -369 -386 0
14 -150 493 0
-6 59 441 0
-131 -198 237 0
-387 395 427 0
36 247 -380 0
-131 -135 434 0
311 -329 368 0
156 381 -462 0
-14 -18 266 0
-105 302 374 0
215 236 -475 0
59 -212 -261 0
-17 -323 471 0
55 64 -144 0
48 247 266 0
-175 -226 418 0
-222 -364 -497 0
-46 111 -238 0
-96 120 474 0
-126 -205 -314 0
-2 -70 498 0
-335 345 451 0
180 -204 424 0
-114 123 -239 0
-88 106 152 0
-51 107 -132 0
-236 276 -351 0
-125 -299 -407 0
-163 353 455 0
145 218 483 0
134 148 186 0
141 210 -455 0
9 -83 -271 0
-195 -272 -304 0
-235 429 -483 0
240 -324 437 0
39 243 -316 0
115 -348 387 0
-11 -187 313 0
40 -70 247 0
9 -32 329 0
-287 -387 -464 0
-60 281 363 0
-151 -221 -358 0
187 -342 446 0
-181 374 -427 0
-238 478 483 0
-56 69 -143 0
283 344 -453 0
280 -397 452 0
52 -288 -397 0
-337 342 -409 0
117 -336 395 0
236 -320 338 0
267 409 -444 0
50 -88 -148 0
8 -70 184 0
-242 -426 -453 0
17 120 384 0
55 93 397 0
73 274 -454 0
-61 -135 384 0
25 -164 -298 0
96 236 -303 0
6 61 74 0
-102 142 -352 0
-38 -176 347 0
176 -275 302 0
-35 66 149 0
252 -462 495 0
-122 -379 -395 0
-261 -298 -359 0
-176 -210 -455 0
234 345 394 0
-360 -423 481 0
-281 -286 -404 0
139 -283 -450 0
175 -205 -371 0
5 160 -209 0
-262 -368 476 0
102 -289 439 0
-124 -240 490 0
175 299 -406 0
258 -289 -299 0
105 314 -477 0
123 125 -366 0
32 337 353 0
-155 358 450 0
30 249 334 0
-5 194 247 0
-77 -218 -321 0
-87 286 398 0
-228 260 350 0
-29 306 491 0
-106 210 -491 0
344 -465 -479 0
58 83 -430 0
-139 -187 301 0
82 228 -251 0
50 428 -459 0
-19 247 -322 0
-43 -113 -498 0
-8 -294 -473 0
-85 -162 418 0
204 310 -420 0
154 -449 454 0
204 259 355 0
135 -206 -216 0
-64 224 298 0
-48 -347 -397 0
-328 468 487 0
-113 441 -445 0
-284 -300 330 0
367 459 -488 0
166 -219 224 0
-173 477 482 0
75 -179 -271 0
-101 -113 379 0
49 -135 -213 0
7 27 144 0
335 -367 -431 0
162 268 -487 0
65 -119 -203 0
-36 -82 281 0
58 441 -467 0
-257 -393 394 0
-45 423 452 0
-242 344 -475 0
-73 351 489 0
-18 -68 -477 0
-185 -225 271 0
-29 188 370 0
94 194 -254 0
-19 -73 478 0
30 275 -418 0
222 -411 -463 0
-133 -227 -263 0
-14 299 -361 0
-124 -174 331 0
74 -452 469 0
218 -324 -448 0
110 132 -242 0
237 415 -487 0
170 285 437 0
-200 -440 452 0
-391 392 -402 0
-95 107 -192 0
105 263 -477 0
-36 164 493 0
202 -293 312 0
-438 -450 -457 0
100 -101 312 0
-168 -293 -337 0
97 -324 -469 0
4 279 -320 0
-200 -288 -385 0
60 -262 -282 0
-221 -225 -326 0
122 150 -373 0
-147 257 -261 0
-113 231 -378 0
72 -135 -150 0
311 -378 -466 0
146 320 -460 0
-68 -159 -480 0
69 -151 -171 0
-3 -67 -296 0
-22 56 -432 0
81 -173 -391 0
249 -263 471 0
66 -372 416 0
-71 270 411 0
-73 -164 -289 0
219 336 -490 0
161 173 481 0
-56 105 373 0
190 -417 -491 0
29 -151 -394 0
31 32 -347 0
-35 418 496 0
-253 263 493 0
-97 -169 -264 0
-126 -207 -357 0
1 13 -92 0
279 -350 -487 0
-68 -166 -343 0
-169 226 -234 0
-171 252 401 0
139 145 357 0
57 247 430 0
330 391 393 0
221 256 320 0
20 -358 -447 0
143 -190 -212 0
-282 -448 -482 0
-23 -52 -319 0
-102 180 328 0
35 -117 213 0
-21 -149 234 0
-86 96 275 0
121 193 497 0
172 -245 -330 0
-54 -224 247 0
-171 271 -454 0
264 270 -289 0
-265 -368 -409 0
-282 -425 453 0
46 229 -462 0
4 -231 -358 0
-33 -214 -266 0
-21 -192 379 0
79 -184 -431 0
186 213 455 0
255 -301 373 0
30 418 -490 0
-94 -368 -430 0
6 -26 195 0
-135 -145 -349 0
-281 301 454 0
-108 -130 -240 0
-100 312 -328 0
-87 92 200 0
66 -68 341 0
185 -307 468 0
300 452 -462 0
127 -162 -239 0
-35 389 407 0
97 195 -341 0
-66 -258 -314 0
11 39 272 0
174 -267 328 0
105 -283 -460 0
44 89 408 0
-233 -342 494 0
245 251 -442 0
31 100 -257 0
-105 -312 -461 0
-87 215 466 0
-85 -94 172 0
-176 -342 -447 0
29 150 465 0
-79 215 378 0
68 102 -105 0
-120 -156 -434 0
2 297 -357 0
38 -138 -332 0
271 -361 372 0
-171 287 306 0
-109 312 382 0
280 -322 396 0
-87 169 -454 0
75 -252 256 0
40 -146 -335 0
-8 -66 -209 0
-116 123 215 0
-168 -217 -379 0
95 109 198 0
84 273 491 0
149 167 392 0
-225 -364 491 0
-243 -362 -470 0
11 -113 264 0
-56 59 411 0
-55 159 -306 0
-111 220 -249 0
-47 -463 492 0
-2 -67 -80 0
-223 276 -406 0
160 -184 308 0
58 -329 -453 0
-247 467 469 0
134 317 367 0
-31 -171 -199 0
-170 219 464 0
-109 -265 -301 0
-52 -187 -302 0
-169 -341 -428 0
170 -292 342 0
-60 -97 185 0
-48 270 -444 0
-99 441 489 0
-35 318 447 0
-72 -228 422 0
-133 255 -341 0
272 -335 -459 0
-4 -116 497 0
168 -181 269 0
50 81 -435 0
-6 86 -102 0
-37 128 -446 0
14 -275 441 0
194 252 -316 0
241 -380 -417 0
387 425 -461 0
-124 224 313 0
347 418 486 0
-295 445 453 0
48 -186 -416 0
140 266 -437 0
-75 -314 -421 0
9 321 -415 0
-63 164 -288 0
4 384 -461 0
-317 345 454 0
-43 153 -486 0
88 464 479 0
43 -180 237 0
128 -199 -367 0
-145 218 450 0
96 220 298 0
-200 -392 411 0
-32 -74 -348 0
300 -436 -457 0
60 155 327 0
94 374 459 0
-134 144 460 0
83 -185 -438 0
-139 -206 482 0
170 -237 -388 0
-109 418 451 0
22 -163 -286 0
80 261 330 0
192 -344 -442 0
-131 354 410 0
-146 231 494 0
197 412 480 0
300 -393 -498 0
-43 312 451 0
59 97 330 0
-126 151 -448 0
-77 -193 -302 0
-68 -85 222 0
-258 -355 -491 0
203 230 -355 0
-101 244 497 0
-49 69 -466 0
-42 290 449 0
146 340 -353 0
-308 363 -457 0
74 138 -382 0
-188 342 -360 0
77 221 430 0
-21 95 -194 0
-37 124 357 0
-12 -158 -162 0
-128 -154 453 0
1 56 258 0
94 -401 428 0
-244 262 294 0
146 -379 -451 0
182 199 218 0
-118 250 -398 0
-268 323 394 0
255 338 461 0
-7 -277 368 0
-153 470 -474 0
-4 -38 73 0
217 -365 428 0
270 -410 499 0
12 36 476 0
-52 -416 -418 0
98 305 -473 0
107 400 415 0
14 -49 209 0
-170 -215 224 0
-223 325 -467 0
72 -237 309 0
8 -170 -313 0
27 319 495 0
135 205 -313 0
-62 105 -252 0
140 -303 -439 0
116 248 -278 0
-29 260 305 0
-103 -207 -497 0
-297 373 -380 0
-347 404 -483 0
-384 393 -404 0
-30 63 -112 0
-347 -419 -487 0
-226 269 276 0
-45 -434 -465 0
-87 -137 -471 0
-64 -174 -476 0
128 -278 306 0
177 279 -333 0
143 229 234 0
7 -32 109 0
-69 -303 -450 0
-151 -217 -261 0
-237 -398 -489 0
-185 230 -236 0
-51 -228 445 0
-86 155 276 0
-26 176 -401 0
30 85 194 0
272 434 -438 0
9 -239 461 0
-263 309 -476 0
-15 -81 487 0
-18 135 325 0
-218 -386 -482 0
86 152 -359 0
-154 -305 -392 0
-79 -128 153 0
-53 -143 -394 0
82 102 198 0
137 348 -428 0
-181 186 230 0
150 265 315 0
-56 -99 173 0
-344 407 442 0
349 480 -489 0
151 300 -321 0
152 -166 -290 0
207 -274 315 0
-33 381 -395 0
-18 339 421 0
-59 -201 -232 0
79 -171 217 0
122 -240 455 0
36 -72 446 0
264 391 -486 0
-106 -254 -336 0
83 -383 395 0
-27 152 -454 0
-212 391 436 0
-324 391 439 0
-32 -53 -414 0
-153 -327 -386 0
171 -195 -207 0
129 -199 430 0
-85 -381 -473 0
101 162 349 0
-17 -38 403 0
17 -236 349 0
-125 -173 415 0
-68 270 -446 0
-112 228 -298 0
-73 239 -460 0
-373 -425 440 0
111 446 447 0
-326 442 451 0
88 -318 -442 0
-80 108 -450 0
223 329 439 0
-152 169 463 0
203 433 466 0
117 121 162 0
108 -394 -454 0
-158 -386 -444 0
322 407 -448 0
57 -127 -417 0
-106 273 -431 0
-134 246 -358 0
162 179 -444 0
199 256 467 0
191 -381 -447 0
-53 -210 312 0
76 117 -267 0
-311 -358 437 0
-117 174 304 0
-364 385 498 0
-142 -252 -452 0
-189 -229 385 0
-173 219 -445 0
80 264 -275 0
-174 -198 -303 0
69 158 360 0
32 42 59 0
54 62 418 0
110 276 280 0
-81 -191 494 0
-125 199 375 0
-11 179 272 0
-24 -80 449 0
33 -401 -406 0
78 -140 345 0
-74 -270 363 0
-11 -206 453 0
-32 -155 -303 0
180 205 -470 0
-32 -116 -381 0
2 -53 470 0
154 156 -423 0
88 -170 348 0
262 -266 411 0
-35 -82 -244 0
7 -272 -300 0
-269 -327 -486 0
-255 -314 -450 0
-43 119 -200 0
348 403 -426 0
-103 -150 310 0
84 -166 410 0
-52 -95 -321 0
-304 -435 491 0
-240 -427 -461 0
-200 350 384 0
140 397 -434 0
-375 388 -448 0
54 252 409 0
111 351 467 0
61 210 457 0
-80 319 -456 0
-12 -233 -479 0
-77 255 402 0
-100 -330 -408 0
-105 -231 355 0
-133 234 -288 0
343 441 -453 0
-191 -440 463 0
34 490 -493 0
-46 -221 -385 0
-136 337 -480 0
32 -188 -192 0
103 289 -468 0
-20 211 -345 0
-31 55 -259 0
-40 -121 -429 0
-74 -126 452 0
-16 -346 -433 0
-42 -88 470 0
19 76 461 0
153 238 240 0
-75 -326 -481 0
-377 -409 461 0
-27 139 345 0
76 314 359 0
41 171 173 0
1 -35 -254 0
94 128 -149 0
-45 -87 420 0
36 -269 441 0
94 -247 -329 0
-167 192 377 0
52 -96 -387 0
-59 229 351 0
150 -184 291 0
-167 453 -454 0
205 212 326 0
127 263 -344 0
93 -241 -413 0
-217 225 368 0
96 -140 -410 0
48 -59 326 0
-171 180 262 0
-240 -380 -479 0
39 -325 -423 0
102 -201 -304 0
23 -121 -242 0
48 -86 255 0
-111 114 -187 0
189 -204 421 0
-2 185 -390 0
-34 -55 96 0
10 -182 316 0
-157 244 -276 0
249 -269 -390 0
37 191 -479 0
27 -126 368 0
-12 71 342 0
-39 -123 -305 0
122 -248 -378 0
86 -121 455 0
-346 -403 439 0
102 -117 -360 0
70 -317 -321 0
-11 317 -368 0
237 315 -424 0
331 350 -416 0
-189 419 423 0
93 -414 -455 0
50 -98 -155 0
-203 -313 -424 0
28 114 259 0
116 -309 -392 0
116 -303 340 0
205 241 397 0
144 -324 333 0
-42 304 392 0
-135 376 392 0
89 -191 405 0
32 72 287 0
74 116 -377 0
-39 -116 -451 0
-193 196 -313 0
-271 -317 417 0
-76 -160 301 0
-165 323 449 0
-123 -285 419 0
71 72 390 0
-86 -184 -274 0
-200 -289 -365 0
-73 -434 -484 0
117 -265 276 0
90 318 375 0
261 -318 -440 0
46 -212 340 0
90 -383 405 0
-156 -157 216 0
10 85 -347 0
-69 104 -311 0
426 429 -432 0
46 -139 -149 0
-244 249 497 0
101 360 -473 0
75 207 -375 0
-193 205 -302 0
280 292 319 0
13 -74 146 0
65 186 221 0
47 -364 -477 0
174 -475 476 0
265 371 -494 0
-29 77 -356 0
33 190 -452 0
-207 -282 -411 0
-157 363 432 0
-24 -134 -254 0
143 -324 381 0
119 134 243 0
-109 221 -296 0
310 387 430 0
-1 -72 -262 0
197 217 284 0
11 161 -471 0
16 -305 -452 0
46 -83 -400 0
50 -55 -214 0
-398 431 435 0
-38 197 398 0
-88 115 387 0
-116 328 487 0
21 78 182 0
84 -150 171 0
105 -205 -295 0
-112 416 468 0
-246 -265 -313 0
75 -194 -424 0
-152 -325 -428 0
-281 361 435 0
-251 292 478 0
-117 303 -457 0
-134 -137 266 0
-122 326 -482 0
95 99 268 0
154 -178 -193 0
117 134 327 0
74 -144 282 0
222 -244 -246 0
45 171 -266 0
-184 -196 -373 0
-54 393 -428 0
-25 47 107 0
134 -396 -438 0
-66 -219 434 0
-214 -350 -490 0
-190 282 -315 0
118 -300 -412 0
-285 -309 -471 0
136 -268 276 0
-50 -197 271 0
-190 208 337 0
227 232 -470 0
-126 185 208 0
85 179 300 0
265 486 -497 0
-20 -88 419 0
-235 -389 419 0
38 344 436 0
-42 224 -478 0
49 141 -451 0
-196 260 341 0
-68 281 -341 0
-5 50 -473 0
83 -116 269 0
-215 258 418 0
129 -258 291 0
-227 -333 -445 0
104 117 118 0
413 -429 455 0
290 -356 420 0
-68 -94 -306 0
-176 -245 -327 0
-30 214 -227 0
160 252 407 0
-17 179 341 0
53 -217 446 0
35 -123 149 0
-87 -176 365 0
-344 -353 446 0
-89 111 -315 0
216 345 -454 0
-346 -356 -373 0
-149 278 -372 0
64 407 499 0
-248 343 -460 0
38 361 -422 0
-202 -246 -434 0
370 379 459 0
86 -218 -490 0
-38 43 -464 0
4 -175 392 0
119 165 -283 0
-19 -259 411 0
146 -160 -225 0
325 -470 473 0
-10 90 297 0
-112 -289 373 0
101 205 -393 0
-166 270 289 0
96 109 226 0
210 -327 -434 0
-327 -396 -432 0
182 436 -451 0
-277 401 496 0
-8 81 -258 0
118 280 309 0
-348 400 487 0
-376 -417 -456 0
138 296 -381 0
84 -369 466 0
256 260 -419 0
-49 -274 -428 0
41 270 291 0
15 49 -383 0
97 207 -259 0
-125 -265 469 0
242 275 -307 0
-140 -335 350 0
104 -367 410 0
122 188 443 0
-169 -278 383 0
156 416 -479 0
10 137 264 0
144 224 401 0
262 370 -399 0
317 370 -497 0
14 339 458 0
53 -72 -261 0
-209 258 -464 0
-13 115 -498 0
110 417 495 0
-287 349 362 0
-30 75 385 0
10 -279 412 0
-236 269 336 0
271 286 306 0
-96 -331 -454 0
-73 -119 354 0
322 396 431 0
54 -285 482 0
-44 -111 485 0
-71 -140 459 0
-131 -155 -352 0
135 395 -406 0
-120 325 -471 0
12 -275 -308 0
192 -226 376 0
-213 240 257 0
-57 203 228 0
-25 123 278 0
-213 314 -342 0
-59 190 216 0
114 -171 -383 0
244 -418 -497 0
109 -206 416 0
-89 -208 -477 0
327 -428 -480 0
-267 -304 494 0
35 -190 315 0
60 -426 455 0
62 186 360 0
188 261 -285 0
9 164 468 0
40 -168 -222 0
-82 -90 -207 0
-4 -126 351 0
114 -178 -439 0
136 -484 494 0
-52 185 -454 0
77 100 -148 0
-127 362 -405 0
275 420 435 0
36 235 407 0
-52 236 391 0
55 219 263 0
-79 -259 -303 0
20 -138 -480 0
-106 296 402 0
-82 137 224 0
-171 433 463 0
194 -405 -421 0
-95 172 -282 0
-84 212 -402 0
-222 261 288 0
-233 369 -447 0
173 305 476 0
-85 -181 -464 0
148 -233 -307 0
-91 447 497 0
39 280 481 0
237 -263 -322 0
-8 286 336 0
-74 -219 297 0
164 358 -454 0
165 167 -275 0
-141 -237 -375 0
137 255 -497 0
197 403 -495 0
-51 297 -384 0
-121 -167 434 0
-32 125 -301 0
-43 -188 432 0
-132 286 378 0
-277 342 -460 0
396 420 -429 0
-217 243 -485 0
-267 -348 482 0
19 -265 -473 0
-79 224 -285 0
370 462 486 0
-198 -413 -418 0
140 -265 -390 0
69 143 -391 0
16 -141 355 0
275 -363 -452 0
162 -177 -211 0
111 -256 349 0
-314 397 443 0
93 365 430 0
-428 456 -499 0
113 -129 421 0
80 -116 -280 0
-19 257 -421 0
164 271 473 0
107 260 -277 0
-161 -209 -259 0
-12 58 -451 0
-245 395 441 0
-114 -437 -450 0
-143 -149 -233 0
-115 318 495 0
-226 -233 416 0
185 -282 292 0
-48 53 -404 0
-227 -396 461 0
-182 -318 450 0
30 -157 -285 0
249 -273 -427 0
-146 -183 209 0
-28 217 -417 0
-11 280 -408 0
1 -22 -350 0
85 425 447 0
-203 204 394 0
134 -157 -272 0
81 244 -269 0
-38 -91 -155 0
42 156 -441 0
172 435 -466 0
-89 -226 -246 0
-176 317 -479 0
261 306 -374 0
77 197 -254 0
106 -440 485 0
-23 -42 461 0
7 76 300 0
-21 -36 -86 0
-29 -235 -389 0
190 -224 -276 0
283 307 -318 0
-49 339 -417 0
69 231 283 0
121 -281 -290 0
-72 474 -493 0
-63 -305 -499 0
-149 228 -327 0
30 267 365 0
-80 346 385 0
-58 -318 493 0
6 -17 22 0
-19 89 -433 0
305 373 -453 0
-142 -164 -480 0
149 -452 460 0
8 -262 -449 0
-52 165 -391 0
42 142 431 0
38 202 -391 0
170 199 436 0
33 69 268 0
-39 -67 -456 0
300 -474 -476 0
-213 -262 312 0
146 274 484 0
-100 -222 -270 0
-119 -206 -250 0
46 -304 -332 0
-52 208 226 0
-220 236 -252 0
-289 379 415 0
-38 -301 -376 0
141 -152 -454 0
-148 475 -492 0
-36 261 -423 0
-137 -270 -307 0
25 315 -463 0
51 -62 177 0
91 296 489 0
34 196 441 0
93 -284 376 0
56 -389 500 0
155 -364 460 0
24 -79 486 0
-349 358 360 0
-78 -210 -221 0
118 144 -393 0
39 -264 412 0
-28 131 342 0
348 -450 483 0
-22 -171 -493 0
-158 233 482 0
-68 -155 268 0
274 -400 425 0
71 -155 500 0
-12 -43 -204 0
128 -224 279 0
-264 400 411 0
-141 277 -369 0
-137 -393 417 0
-11 -333 -343 0
-63 -343 -459 0
20 -75 -248 0
54 -216 -343 0
163 255 -496 0
-288 -332 -407 0
-27 -443 -446 0
-148 278 -469 0
-14 171 305 0
181 -447 -485 0
24 303 -343 0
211 257 -400 0
145 -242 -468 0
252 267 -423 0
-98 -107 230 0
144 402 -484 0
2 -341 -493 0
-11 -134 218 0
-126 354 -414 0
8 240 -393 0
21 -291 428 0
-1 -260 -330 0
4 -84 -232 0
26 304 -447 0
363 377 -456 0
-91 -106 206 0
214 395 -462 0
-283 -320 339 0
142 -173 247 0
-14 -63 270 0
50 118 470 0
-17 -236 -300 0
-148 -269 -463 0
78 -167 -371 0
-169 -233 295 0
4 457 500 0
-78 -86 -270 0
-55 -213 -404 0
107 242 246 0
-180 -292 406 0
-291 -332 431 0
180 403 -436 0
-74 -134 -337 0
-76 -210 442 0
139 -163 -284 0
167 -234 -373 0
93 289 428 0
90 138 -145 0
-140 303 -383 0
153 227 -364 0
-189 -383 458 0
60 67 -306 0
96 -290 -468 0
-298 354 375 0
46 -191 329 0
-42 -311 316 0
323 372 432 0
-96 193 249 0
223 -282 -481 0
-119 214 -304 0
-137 265 442 0
42 -172 -348 0
122 -366 499 0
-127 -226 402 0
-67 -138 -264 0
-95 -149 -205 0
-72 362 447 0
-342 357 -418 0
-4 105 -391 0
-375 -428 491 0
-381 -416 478 0
118 132 -178 0
148 -276 -453 0
195 -405 -416 0
-37 -56 76 0
-25 -99 332 0
-28 358 -382 0
165 -214 -395 0
-16 -82 405 0
-325 453 466 0
174 -247 -442 0
-2 45 379 0
-19 -281 -486 0
-54 -282 -431 0
-59 -191 497 0
-57 -90 455 0
56 263 -434 0
-18 112 277 0
47 -375 401 0
88 137 303 0
-57 203 -441 0
374 463 -498 0
154 -302 -422 0
-205 371 476 0
-29 265 -269 0
9 189 219 0
34 86 -133 0
-74 -116 -141 0
-221 -287 -346 0
-122 159 -314 0
-26 -307 -387 0
-90 98 435 0
-197 435 -496 0
103 -180 259 0
-75 -105 -441 0
-5 277 -475 0
312 438 480 0
180 -360 361 0
28 -98 285 0
-9 21 123 0
279 359 -384 0
-407 421 458 0
-273 333 -399 0
19 60 162 0
-17 -112 121 0
-91 343 -481 0
-82 -86 158 0
93 201 -383 0
-96 -361 -427 0
23 127 -369 0
337 -340 -384 0
-97 -297 417 0
-75 -321 -372 0
-72 -442 -500 0
-33 191 -225 0
35 136 291 0
119 -158 261 0
37 -280 399 0
-28 -156 188 0
79 129 179 0
-6 258 464 0
-60 -154 -365 0
-317 -343 -470 0
-82 173 -204 0
187 306 -478 0
337 -358 -438 0
384 -396 404 0
226 -287 -342 0
-21 -22 -312 0
-245 -316 -488 0
-16 -352 -479 0
-71 -263 347 0
341 409 439 0
-205 -395 483 0
170 214 -231 0
24 -323 -383 0
-133 227 243 0
-186 239 -462 0
243 398 -416 0
141 -368 476 0
46 -297 -423 0
-2 158 340 0
11 -128 393 0
-18 -375 477 0
75 377 454 0
198 -343 402 0
113 229 -330 0
83 -298 440 0
371 456 463 0
-81 -362 442 0
-136 -162 254 0
-162 -249 397 0
78 365 -388 0
-34 193 -217 0
-70 229 400 0
-303 307 -494 0
129 -260 -322 0
-147 -183 -323 0
147 151 -457 0
144 399 -418 0
73 -211 -369 0
141 -323 484 0
129 259 -346 0
-87 -123 -448 0
63 -338 445 0
255 348 421 0
215 243 406 0
271 -355 427 0
-16 -330 352 0
215 -252 312 0
11 -34 -267 0
-63 -79 -250 0
-49 -272 439 0
-36 308 -351 0
-185 267 333 0
174 194 413 0
204 -294 431 0
-45 54 -246 0
-73 -202 329 0
251 -445 -468 0
124 -338 -391 0
1 89 -108 0
5 -369 436 0
263 310 351 0
-57 184 -312 0
42 -141 239 0
-303 354 -491 0
30 -258 284 0
-4 251 475 0
-107 154 366 0
-159 -167 -476 0
-5 151 -447 0
286 -403 -423 0
201 236 289 0
-129 337 -386 0
205 -247 347 0
122 264 -374 0
417 439 -443 0
-293 -333 484 0
101 -448 483 0
279 -331 -459 0
25 -97 196 0
153 272 285 0
-122 -395 456 0
95 -260 326 0
-13 314 -488 0
48 -211 -238 0
144 211 345 0
-45 320 -456 0
-155 -165 -365 0
-184 295 346 0
-15 -319 413 0
-4 80 270 0
36 -347 382 0
-38 151 -224 0
-52 -238 -498 0
101 259 487 0
120 172 496 0
-373 -408 483 0
-9 245 -344 0
-53 338 439 0
110 272 -373 0
36 -54 229 0
-81 -124 -386 0
37 98 -193 0
185 -213 -494 0
-152 381 454 0
-18 -251 488 0
85 -257 312 0
166 261 -401 0
60 143 151 0
216 380 467 0
132 298 476 0
-246 326 444 0
96 -179 479 0
-142 -343 -446 0
80 302 496 0
313 -331 359 0
117 150 -440 0
355 370 489 0
-241 378 432 0
-172 -367 450 0
27 43 46 0
-181 -205 -436 0
-86 150 406 0
52 -372 447 0
63 246 356 0
-10 -334 -426 0
-107 169 -390 0
3 175 178 0
-96 231 344 0
-257 262 347 0
-24 103 346 0
22 309 429 0
-98 -120 -493 0
129 233 235 0
113 319 -333 0
-162 -205 -338 0
3 118 282 0
170 -286 338 0
5 -418 433 0
-108 421 471 0
-6 87 -240 0
-31 -76 -478 0
43 -330 389 0
14 -82 286 0
-166 -359 385 0
34 -144 -157 0
-75 -168 442 0
-7 64 -314 0
-9 -109 215 0
101 -354 363 0
-226 269 328 0
41 213 246 0
21 179 491 0
117 -158 468 0
-69 -259 286 0
-201 -250 -366 0
-206 406 -450 0
178 220 -301 0
-92 147 212 0
-35 404 -422 0
-362 417 475 0
87 114 167 0
93 328 383 0
-107 265 481 0
92 -188 -305 0
-120 218 278 0
53 -205 -407 0
22 179 -344 0
-62 -135 -484 0
103 -119 216 0
6 149 -461 0
51 -134 -409 0
11 208 -345 0
-387 -437 465 0
215 -420 466 0
299 422 -441 0
292 353 438 0
-53 117 -326 0
-152 -292 -341 0
25 -178 370 0
19 -130 404 0
45 408 -492 0
212 246 -464 0
-155 172 -393 0
-2 -85 308 0
83 311 445 0
146 -367 -450 0
-64 87 -227 0
-149 270 -466 0
-65 -81 220 0
-56 -304 -344 0
-133 -418 -452 0
81 125 -477 0
-268 -315 434 0
38 -483 495 0
40 107 -309 0
444 -456 -491 0
-147 -170 -406 0
-43 97 -250 0
-185 -435 -480 0
293 315 -439 0
53 -209 216 0
253 352 -455 0
115 -183 272 0
-63 75 447 0
-13 243 275 0
36 -330 -471 0
41 299 -360 0
117 -323 -408 0
100 -213 -320 0
195 254 335 0
55 223 371 0
130 258 -424 0
-316 387 452 0
128 -131 -333 0
156 193 -269 0
118 131 135 0
155 -186 -311 0
348 -464 475 0
-126 332 410 0
155 -172 176 0
-139 349 436 0
250 370 -374 0
-193 -224 -451 0
-110 -322 -331 0
-15 -176 -326 0
-99 131 211 0
-139 -335 -338 0
-176 -272 -480 0
-113 269 -443 0
15 -98 175 0
119 196 346 0
103 430 -475 0
279 436 467 0
365 373 390 0
111 -177 -486 0
270 -452 461 0
-142 -213 -484 0
-213 -286 -421 0
55 232 484 0
-12 -143 364 0
35 -323 453 0
-298 377 -482 0
-18 123 223 0
31 341 388 0
-74 330 368 0
159 -355 -421 0
-128 152 -437 0
-34 -119 -135 0
154 289 -305 0
-43 -189 456 0
283 -367 421 0
-217 -297 500 0
153 -238 -360 0
14 376 -447 0
103 -115 -360 0
198 231 -248 0
184 186 224 0
-81 -164 -378 0
82 -293 -438 0
-5 159 170 0
34 -171 385 0
61 -64 -321 0
49 -228 -358 0
-143 231 390 0
-57 -248 -433 0
156 -163 234 0
322 374 -399 0
95 -104 -219 0
-120 197 275 0
98 180 -471 0
94 125 -326 0
-66 -96 417 0
5 -78 -439 0
218 258 336 0
-28 47 -139 0
86 418 492 0
100 -400 491 0
62 -155 -299 0
-321 420 492 0
-10 -200 -490 0
-125 -361 450 0
-110 393 486 0
63 79 322 0
-191 225 280 0
75 164 -424 0
350 361 420 0
-248 310 382 0
-62 124 -480 0
35 98 150 0
79 253 -289 0
6 232 -456 0
41 -111 190 0
99 -180 -438 0
102 164 228 0
-110 -134 -200 0
-128 291 -405 0
-59 101 395 0
76 382 -455 0
-287 354 -457 0
93 -262 -377 0
43 -395 486 0
-61 -77 424 0
280 427 492 0
113 372 429 0
-205 -252 465 0
-87 106 452 0
-130 -153 186 0
274 -339 461 0
-300 -367 452 0
87 -177 283 0
78 -243 -329 0
-187 -200 379 0
-147 -440 489 0
65 200 444 0
54 284 318 0
5 -244 -480 0
205 -333 -382 0
52 -209 -351 0
-131 283 484 0
-200 242 -289 0
-64 221 370 0
187 350 390 0
105 290 -363 0
364 390 -401 0
122 295 -428 0
-77 231 434 0
-157 158 -420 0
31 49 294 0
-27 106 -321 0
-48 -167 -320 0
17 -443 -459 0
126 285 338 0
-343 386 432 0
295 -362 -379 0
32 72 342 0
148 -199 352 0
5 -39 344 0
111 -124 -389 0
-166 -191 311 0
17 324 -474 0
39 -269 -395 0
-12 149 -376 0
104 130 302 0
-7 -97 -459 0
-39 107 -341 0
-24 -320 -457 0
149 155 -161 0
-122 -156 389 0
368 408 470 0
-293 -356 -401 0
-71 113 303 0
20 -209 -227 0
41 144 -467 0
13 -58 -310 0
-28 33 121 0
-31 -132 226 0
-13 -180 -261 0
80 -238 471 0
260 -322 -447 0
-172 -192 373 0
-384 -406 -457 0
-152 467 -486 0
159 -268 -494 0
313 324 -476 0
-81 476 -496 0
196 -299 442 0
265 356 452 0
-118 218 482 0
-8 -175 -428 0
-336 353 -380 0
-14 40 274 0
-141 -307 -418 0
148 200 -243 0
-6 277 -422 0
340 -344 -371 0
32 -168 384 0
-135 -182 461 0
22 -243 433 0
129 -294 -439 0
-198 216 345 0
210 241 279 0
-121 -246 -254 0
38 367 461 0
-57 -210 470 0
-92 486 491 0
-152 225 330 0
-207 376 471 0
-109 -253 317 0
-23 52 68 0
-27 64 171 0
2 132 214 0
-77 304 -487 0
-214 318 -347 0
-133 312 -418 0
-357 -430 437 0
187 338 458 0
-95 -209 222 0
51 -67 -294 0
-247 318 336 0
-152 309 406 0
-36 112 347 0
-153 -242 324 0
75 -120 -267 0
147 -294 419 0
-412 -429 472 0
79 376 -431 0
30 -188 452 0
31 -86 220 0
-5 -121 -181 0
-161 231 -243 0
23 288 354 0
-251 -318 -334 0
-32 -343 -372 0
-68 136 161 0
-53 251 -312 0
-116 195 387 0
-50 -94 -318 0
15 162 287 0
99 -285 346 0
-2 -451 -452 0
62 107 -156 0
105 -117 481 0
-144 146 312 0
-262 396 -428 0
-19 -220 254 0
-68 78 -401 0
65 409 -469 0
112 204 231 0
96 -263 -353 0
-148 -293 -408 0
-22 399 -467 0
-26 -86 -210 0
-105 108 486 0
-148 -358 -424 0
-111 -242 394 0
-245 -333 -407 0
189 -367 460 0
179 -326 331 0
250 304 386 0
-128 -331 -443 0
-191 -320 377 0
-53 166 281 0
30 -403 -480 0
157 183 -253 0
-236 -284 -416 0
-251 454 459 0
-93 -167 450 0
120 -139 -294 0
-421 -424 -427 0
190 -307 465 0
-94 345 -350 0
-158 252 312 0
-163 168 -204 0
-18 59 -219 0
104 315 439 0
-201 -329 467 0
-297 -491 492 0
-336 417 -498 0
167 -250 -454 0
6 121 130 0
267 361 -492 0
282 377 -454 0
111 234 380 0
329 -419 431 0
75 135 -303 0
309 -369 -465 0
-37 -291 -394 0
9 -342 -364 0
125 382 -395 0
-7 -385 386 0
-77 174 -411 0
-72 -217 434 0
126 360 -385 0
-122 -218 -421 0
-226 250 435 0
112 190 461 0
35 199 458 0
141 -300 -446 0
-38 -165 178 0
-198 236 -279 0
-150 -397 453 0
27 94 -152 0
-150 423 -446 0
291 299 359 0
233 260 423 0
-352 479 481 0
42 -63 -353 0
283 -367 -497 0
-14 -63 -295 0
77 338 384 0
-20 103 318 0
-55 63 149 0
-149 -355 465 0
61 200 439 0
98 187 -233 0
78 318 -410 0
71 489 -493 0
-37 40 -240 0
96 98 -322 0
-70 212 -456 0
-154 375 422 0
37 -176 -280 0
-10 -19 -242 0
-48 69 -72 0
173 -282 -482 0
62 -227 -429 0
-299 -323 -340 0
-213 267 400 0
-12 -343 450 0
21 315 489 0
118 -134 -198 0
-89 252 266 0
-75 -272 -413 0
13 105 223 0
-150 279 285 0
-234 -341 -430 0
-91 283 376 0
65 99 208 0
45 80 -279 0
76 287 -393 0
-21 130 203 0
239 313 -340 0
-219 -268 -340 0
63 -339 -442 0
-173 356 -477 0
-53 457 461 0
101 343 -456 0
-101 444 481 0
-21 -128 -173 0
-32 298 -370 0
30 103 -192 0
62 -88 355 0
-10 -143 376 0
65 328 -364 0
-266 -362 387 0
-81 108 -145 0
-153 -216 451 0
-277 -384 396 0
64 -271 297 0
119 -229 346 0
-23 -420 493 0
233 -322 342 0
180 -214 -243 0
417 428 -478 0
-207 -273 -390 0
33 -375 -380 0
-171 -209 232 0
46 131 -469 0
157 184 198 0
90 -247 410 0
-50 130 384 0
-267 -310 -428 0
173 -239 -441 0
79 395 444 0
-100 157 226 0
249 288 329 0
-232 292 485 0
197 -204 405 0
155 321 340 0
-171 206 -364 0
154 382 -487 0
205 312 -422 0
-329 371 -375 0
-128 -307 376 0
-264 -302 328 0
-9 -64 -317 0
98 -100 -315 0
-172 222 332 0
-10 -413 430 0
10 -208 -367 0
254 -433 -475 0
34 62 172 0
-267 338 495 0
-146 256 441 0
-92 -320 -455 0
3 -444 -491 0
2 -277 -458 0
243 378 -485 0
273 320 441 0
116 206 432 0
-198 318 411 0
21 213 450 0
-171 282 -314 0
13 -310 445 0
300 -330 -483 0
-19 87 423 0
108 -210 216 0
-91 129 484 0
-268 370 -427 0
-255 -388 -472 0
37 -98 -142 0
219 315 -481 0
250 -290 -402 0
35 350 -481 0
141 299 -473 0
-74 156 265 0
285 315 -450 0
-8 -343 -390 0
143 -249 500 0
34 278 -478 0
215 -394 483 0
-193 350 -353 0
9 88 -224 0
-39 -130 483 0
-9 217 -362 0
59 99 294 0
10 44 432 0
156 -399 -477 0
171 -398 -407 0
149 448 -469 0
-207 -224 486 0
181 396 -472 0
-233 243 -386 0
66 115 182 0
43 246 397 0
328 -342 428 0
30 -94 -265 0
51 112 -143 0
-430 -449 -464 0
223 352 -470 0
66 -213 339 0
-140 -191 -308 0
-5 155 -366 0
109 -218 -361 0
-84 108 -149 0
16 371 -483 0
-126 134 -302 0
-92 102 -105 0
137 -181 -447 0
4 -60 -184 0
11 -63 -387 0
-225 -387 -486 0
47 135 -401 0
64 225 495 0
-23 -50 442 0
23 267 -454 0
73 -215 458 0
187 239 -324 0
-294 -476 479 0
-116 133 -205 0
-150 -366 -448 0
145 -202 -306 0
33 42 173 0
-95 -171 366 0
208 -247 -261 0
-30 52 54 0
-228 236 334 0
353 -359 376 0
167 -210 295 0
-75 148 -379 0
5 -133 -441 0
12 53 285 0
91 241 464 0
91 -178 398 0
47 68 -473 0
-282 365 486 0
71 -348 352 0
53 81 -331 0
144 220 452 0
271 311 -373 0
-39 -161 -477 0
54 314 -420 0
-224 226 -474 0
37 130 -178 0
334 -364 -398 0
231 365 432 0
-5 -236 -405 0
-2 -120 -484 0
-93 -279 -397 0
46 -167 -183 0
-100 -119 189 0
-117 161 283 0
-358 479 -497 0
116 309 -320 0
33 -42 -273 0
171 -307 420 0
127 440 479 0
37 -288 486 0
238 -390 418 0
-169 -213 394 0
-37 75 218 0
-108 -190 378 0
22 25 -447 0
-50 167 168 0
-27 103 -356 0
193 283 -486 0
-43 201 405 0
-145 300 -479 0
-21 -23 -40 0
76 115 377 0
-36 -286 -466 0
41 -44 487 0
203 313 500 0
45 -235 366 0
46 -352 -406 0
49 452 481 0
-97 153 -370 0
89 -144 175 0
168 -378 409 0
25 87 96 0
456 469 490 0
175 -226 477 0
-88 267 -424 0
-58 -309 373 0
-164 -219 459 0
81 -85 -191 0
-18 88 -329 0
102 373 -417 0
29 -388 447 0
7 -230 239 0
17 -65 -452 0
-202 310 344 0
-61 -129 151 0
-7 -156 -329 0
7 -172 -443 0
151 362 480 0
109 443 457 0
-134 -392 417 0
-308 -322 483 0
103 -265 -461 0
71 391 396 0
239 298 449 0
-14 -329 -375 0
50 302 -320 0
-61 67 -287 0
-39 112 350 0
85 -105 -428 0
-95 -226 449 0
50 80 -145 0
-293 -305 -403 0
-29 48 339 0
91 -116 -233 0
-57 -183 462 0
-129 363 401 0
-275 320 -436 0
-41 -139 467 0
-271 396 426 0
-16 47 -48 0
67 -71 -156 0
65 -182 -449 0
90 228 -387 0
148 -200 -214 0
364 437 -486 0
-204 248 -278 0
10 334 -442 0
210 211 326 0
139 -346 -439 0
361 -433 487 0
51 313 424 0
-94 -230 332 0
76 101 -188 0
157 183 -425 0
16 -308 -491 0
76 -208 -282 0
-47 317 334 0
-49 -59 432 0
-329 -336 438 0
-60 -149 205 0
-65 421 446 0
66 295 424 0
326 367 -433 0
-80 161 285 0
-105 112 -149 0
92 -293 -411 0
117 121 127 0
-274 392 441 0
-242 277 -490 0
-128 -357 430 0
122 281 324 0
80 -195 401 0
33 -81 392 0
-7 25 197 0
42 126 254 0
-157 -198 203 0
-87 -118 -283 0
-90 371 -433 0
-155 221 -222 0
3 -55 394 0
272 360 439 0
-160 -248 -379 0
-121 -183 427 0
102 135 142 0
-368 -432 -454 0
36 -74 -272 0
-112 127 312 0
-115 -449 485 0
-33 45 -226 0
48 213 -241 0
-75 -147 441 0
329 381 -398 0
-124 355 372 0
-89 351 433 0
-326 380 -456 0
334 422 424 0
-140 193 -309 0
59 99 286 0
-46 265 -392 0
76 78 -488 0
83 114 240 0
-134 -418 -463 0
-36 -371 -427 0
302 -431 489 0
-73 -84 309 0
110 -261 -376 0
54 -91 -439 0
-391 439 -451 0
-184 -330 451 0
-174 211 242 0
-92 93 351 0
286 327 333 0
-136 -157 -268 0
118 283 -375 0
310 479 497 0
72 233 237 0
-69 -71 336 0
-445 -452 -473 0
-285 371 454 0
-349 -373 401 0
80 -211 -216 0
32 -72 -331 0
243 -246 -388 0
-1 204 217 0
-111 -135 176 0
-11 -57 -190 0
-8 -81 477 0
39 170 181 0
171 379 -482 0
98 290 437 0
284 -316 -417 0
70 -79 -404 0
-421 -472 -475 0
12 213 -496 0
-16 116 240 0
-91 169 -302 0
83 359 394 0
-153 -474 491 0
69 137 -498 0
10 -180 343 0
-18 -291 466 0
-50 -187 283 0
199 422 485 0
20 -79 263 0
-37 -181 -426 0
11 71 -98 0
10 -222 -323 0
349 -378 -471 0
-150 243 255 0
-307 -328 481 0
-26 -69 -118 0
183 287 424 0
180 392 -430 0
-136 283 436 0
-14 311 472 0
-212 337 367 0
-39 -253 276 0
98 368 -409 0
-353 -461 498 0
-147 241 -281 0
-113 231 -270 0
14 64 394 0
-36 144 209 0
77 -482 485 0
-123 329 -437 0
-197 217 226 0
-70 90 396 0
221 300 414 0
103 -249 328 0
-103 -273 445 0
98 -156 -438 0
102 -183 296 0
-32 381 493 0
-120 -387 -446 0
-137 226 -496 0
215 -330 -346 0
-58 -166 381 0
66 227 -459 0
14 369 496 0
-143 -145 352 0
100 -169 368 0
-244 267 -290 0
10 155 -175 0
359 -393 485 0
134 -310 -481 0
-119 -164 299 0
124 -196 -272 0
-21 -245 476 0
-106 113 -167 0
-82 124 151 0
-50 -157 -323 0
173 226 -436 0
206 -242 -487 0
39 -230 -391 0
149 291 461 0
-50 -147 -263 0
-271 -320 469 0
-369 -393 -430 0
-26 -194 -382 0
-36 -83 398 0
-406 452 455 0
-3 324 -382 0
-156 -214 -423 0
19 210 -226 0
288 -326 352 0
-121 325 419 0
358 -368 -480 0
56 -179 357 0
127 232 440 0
-52 59 60 0
-9 254 -471 0
77 154 324 0
-125 -388 -418 0
-225 -362 -431 0
118 141 -254 0
-18 -270 -408 0
39 -301 -491 0
-82 106 -413 0
275 440 -474 0
110 227 -456 0
185 -188 411 0
317 -376 452 0
-14 -259 426 0
265 364 -417 0
-287 336 -374 0
-76 -296 -427 0
18 277 -390 0
235 302 -397 0
-149 -241 -341 0
-66 148 324 0
95 -392 -472 0
-164 227 460 0
-85 -354 -377 0
8 249 450 0
-41 -219 483 0
218 -238 -478 0
-129 -148 -245 0
-16 -18 -211 0
-182 -200 -285 0
178 395 426 0
47 -451 -452 0
49 -376 -463 0
-12 -23 418 0
-266 -460 -470 0
-115 -426 461 0
-143 -167 -368 0
54 -221 406 0
28 -124 480 0
-391 -396 -437 0
254 -382 482 0
-48 77 -463 0
-77 247 -362 0
155 -262 -452 0
-179 213 381 0
310 -328 435 0
-156 336 -379 0
83 -93 490 0
103 -245 320 0
-81 -112 -307 0
-157 205 -425 0
-208 -415 -487 0
317 380 -482 0
20 237 396 0
-92 238 415 0
-71 280 495 0
79 -147 339 0
-179 -233 -407 0
-147 480 -482 0
135 -251 -334 0
-136 -427 457 0
233 -409 -452 0
-187 235 422 0
-240 248 432 0
2 -256 -336 0
29 -45 -123 0
42 -413 -457 0
21 -50 -381 0
-175 271 -354 0
-4 -217 449 0
-224 404 466 0
76 -391 398 0
-231 372 441 0
6 71 254 0
-190 -307 471 0
92 212 -287 0
-101 -345 -441 0
156 -343 -409 0
12 -264 358 0
77 -82 330 0
-98 -362 -479 0
171 -317 -454 0
-182 -467 469 0
-151 191 -278 0
-26 -233 473 0
-24 334 360 0
-92 105 -281 0
-62 -287 -441 0
-138 -203 465 0
92 -152 166 0
-25 74 119 0
11 -176 -229 0
-82 -151 359 0
-11 -209 -346 0
-52 -141 354 0
71 -177 -369 0
-63 -220 -285 0
157 -452 472 0
47 372 409 0
-227 -367 497 0
8 171 180 0
189 200 -393 0
-20 -347 409 0
74 457 470 0
32 -48 489 0
-95 -108 -332 0
-105 -113 -227 0
103 -243 -463 0
190 201 -260 0
52 -356 -421 0
60 206 -224 0
17 -25 -267 0
-143 -316 -336 0
-56 85 168 0
