p cnf 500 2129
352 -371 464 0
168 294 -447 0
39 -53 -209 0
-231 298 487 0
-163 -321 -466 0
-48 -266 322 0
106 125 294 0
-43 -98 -130 0
61 -84 320 0
113 431 440 0
-317 -331 410 0
-172 332 -356 0
222 285 -427 0
362 442 -476 0
60 115 -177 0
42 -89 430 0
-334 -409 -415 0
272 388 391 0
-234 286 481 0
56 -294 -383 0
-44 330 490 0
100 113 263 0
342 -382 474 0
-56 141 215 0
102 123 -440 0
65 200 -285 0
2 -92 -250 0
-49 434 -483 0
74 153 -319 0
-32 -199 -450 0
237 429 -462 0
109 470 -494 0
-8 -92 366 0
2 -22 109 0
-185 -299 434 0
-71 -336 -415 0
-2 131 -410 0
118 -164 -397 0
173 195 -455 0
-47 70 384 0
123 -245 278 0
-72 187 349 0
-118 222 -270 0
-199 -275 354 0
-138 253 -335 0
338 -377 437 0
-182 437 464 0
138 331 -383 0
-110 -201 280 0
70 -464 481 0
291 343 -467 0
-126 141 399 0
50 -133 136 0
21 -254 -259 0
201 365 -446 0
215 -258 -282 0
-351 399 461 0
98 104 -149 0
-35 206 240 0
370 -424 461 0
-148 224 -260 0
126 -266 -384 0
-6 78 -172 0
263 447 470 0
259 305 -422 0
214 289 -449 0
209 228 479 0
-49 -414 423 0
125 141 494 0
-275 -282 -355 0
122 278 -402 0
-13 46 -260 0
-135 -184 394 0
187 347 444 0
81 -118 -328 0
1 -22 -428 0
-48 -147 -391 0
54 97 229 0
96 181 440 0
1 64 -150 0
-260 -312 -326 0
307 -330 400 0
-6 48 439 0
-108 281 421 0
150 391 -453 0
105 239 418 0
14 -317 -487 0
187 -384 490 0
-1 -164 -229 0
27 160 401 0
-11 -261 -435 0
-236 320 -470 0
37 -362 444 0
8 133 -378 0
-53 254 -369 0
14 265 376 0
-118 320 -450 0
36 191 288 0
-129 -423 -431 0
-21 23 462 0
81 298 461 0
21 -123 -147 0
-161 -376 471 0
154 -311 471 0
146 394 438 0
403 -443 448 0
18 266 398 0
-55 235 244 0
-128 -223 -491 0
-126 179 252 0
-105 -112 -454 0
-77 234 339 0
74 243 -387 0
2 -132 367 0
61 116 340 0
115 -199 477 0
-132 -329 371 0
-117 362 -449 0
277 335 -490 0
-168 174 216 0
203 -243 320 0
39 493 498 0
61 117 384 0
-23 123 170 0
-368 432 -486 0
130 413 -427 0
-37 -202 -220 0
64 282 -476 0
49 451 455 0
258 -444 455 0
-403 -423 445 0
-78 -119 -134 0
38 -53 168 0
8 -147 471 0
-47 -107 -420 0
-258 319 421 0
45 -266 -486 0
299 -351 452 0
48 165 -197 0
21 67 112 0
16 -56 -352 0
-221 285 -289 0
96 398 465 0
-58 -265 -468 0
168 -371 -419 0
197 388 -425 0
-36 93 489 0
-163 315 382 0
23 -180 -455 0
-310 368 433 0
28 200 -256 0
-306 328 -403 0
-41 -366 406 0
-259 345 -499 0
46 310 -456 0
-75 203 -377 0
-341 -402 410 0
-175 190 222 0
-3 -60 171 0
174 -242 -471 0
-113 -172 293 0
80 -134 448 0
-42 -251 425 0
44 195 -473 0
17 -80 141 0
129 -324 -426 0
23 253 347 0
283 461 493 0
142 198 322 0
87 470 -482 0
76 -146 -264 0
53 61 115 0
-210 358 363 0
181 203 205 0
-130 412 -441 0
-230 -249 348 0
61 370 -430 0
-48 -120 -476 0
125 -159 350 0
43 -148 -156 0
218 423 -441 0
119 242 -402 0
145 -182 -345 0
-111 -231 -466 0
-5 184 -193 0
-13 -258 -453 0
-227 -299 -316 0
-181 384 415 0
-300 335 413 0
-245 259 -323 0
73 92 426 0
-129 -251 -324 0
-69 -79 111 0
-43 -319 -432 0
345 -411 412 0
283 -361 -498 0
-293 352 372 0
-51 -92 -230 0
104 167 333 0
-374 422 436 0
77 169 -251 0
214 241 -439 0
202 -236 269 0
173 -362 437 0
-157 -350 -353 0
-136 -214 465 0
-452 462 484 0
-202 256 -314 0
-140 -153 -218 0
101 316 -446 0
-29 404 466 0
57 371 448 0
16 -60 225 0
-26 -108 -295 0
-7 337 -457 0
-68 222 264 0
-185 -191 -397 0
-149 293 -473 0
-215 256 405 0
13 -87 -481 0
-329 331 423 0
-108 323 -480 0
58 -133 -325 0
-60 124 350 0
-264 -451 -464 0
-215 429 490 0
27 62 238 0
201 299 356 0
126 205 -433 0
2 349 -463 0
-77 256 -333 0
22 -72 -303 0
-92 186 -455 0
189 339 363 0
133 -263 317 0
27 109 149 0
-113 -369 480 0
-169 219 258 0
57 -159 345 0
48 -441 -477 0
-14 -39 -160 0
80 81 268 0
-239 -418 -475 0
195 -377 443 0
-333 360 466 0
269 283 363 0
-119 200 -471 0
-4 -120 310 0
156 -439 450 0
90 -118 -147 0
-250 -361 427 0
-201 -293 -458 0
49 -145 406 0
36 75 -218 0
-178 -321 496 0
290 -310 -359 0
41 -70 -383 0
-283 -375 -388 0
54 318 -347 0
-187 315 472 0
-323 435 474 0
14 -155 263 0
-23 -46 204 0
157 -220 485 0
-198 251 -388 0
62 -134 -384 0
1 -281 441 0
55 458 485 0
-15 151 -188 0
-86 -343 350 0
15 116 -185 0
-14 30 -121 0
43 -57 65 0
219 -245 277 0
32 113 291 0
424 -451 489 0
134 -249 -283 0
-54 184 223 0
-268 -345 -467 0
-340 427 -477 0
168 215 -401 0
30 88 -164 0
-64 303 -429 0
-255 -444 -469 0
-283 -293 -419 0
-138 259 -419 0
60 -62 -413 0
130 240 -259 0
2 331 -333 0
-175 192 216 0
249 296 402 0
-368 -379 -401 0
-40 152 492 0
84 -120 406 0
153 255 -269 0
1 410 412 0
-110 -294 -305 0
-124 251 256 0
344 -378 -430 0
-127 -269 -346 0
60 321 434 0
-108 252 -367 0
117 -253 339 0
-294 -300 426 0
14 331 488 0
224 359 -483 0
9 14 -305 0
9 78 -143 0
397 452 -492 0
-9 -362 439 0
4 -40 76 0
-109 -276 389 0
-27 42 -367 0
147 -154 298 0
-77 108 -366 0
-272 353 356 0
-203 -279 -307 0
335 412 442 0
-29 -72 258 0
-93 -241 -374 0
324 461 -475 0
1 203 476 0
145 -404 420 0
54 -168 373 0
193 -227 236 0
168 -238 306 0
102 -224 -373 0
-24 -204 265 0
-183 -405 436 0
-279 -401 419 0
-429 -436 467 0
-89 -353 359 0
9 -38 268 0
161 416 -479 0
6 -190 -439 0
138 -220 -252 0
-5 -127 -140 0
312 -327 354 0
-374 404 439 0
-2 60 170 0
-82 262 -315 0
16 100 287 0
-2 93 -456 0
76 -166 347 0
-123 177 210 0
176 240 259 0
4 -426 -476 0
-254 335 -447 0
-386 -392 -466 0
39 -256 363 0
157 -315 454 0
-46 -143 173 0
255 381 -453 0
57 -164 401 0
-42 400 438 0
24 -165 487 0
-28 129 136 0
-13 335 -363 0
-115 -347 488 0
75 -321 457 0
-288 -299 318 0
-79 161 358 0
13 112 182 0
-155 -211 -422 0
26 -114 297 0
10 -139 404 0
138 334 -464 0
-37 408 474 0
-331 -334 -418 0
-115 -293 -407 0
156 258 366 0
117 158 159 0
57 -124 218 0
-68 87 393 0
-196 -463 497 0
146 -188 -429 0
129 -141 249 0
80 127 195 0
52 -113 215 0
5 61 145 0
-256 329 408 0
-15 -323 461 0
52 -361 -475 0
-108 -307 320 0
-127 -148 -421 0
-146 -170 -234 0
382 434 -440 0
76 142 345 0
-26 -287 -298 0
134 -308 -378 0
-282 -414 -490 0
-215 -280 327 0
6 -76 228 0
-30 76 -193 0
32 374 425 0
94 -165 -298 0
165 172 -391 0
-361 -434 -497 0
159 292 485 0
46 144 235 0
-15 -26 332 0
34 -249 336 0
-27 -271 401 0
103 243 -264 0
22 237 -426 0
85 102 -395 0
176 198 305 0
-12 -309 356 0
-361 -390 410 0
-38 -338 -478 0
-38 -130 137 0
4 81 -347 0
-65 -379 -457 0
6 242 481 0
-20 61 242 0
-111 139 -246 0
-355 445 -473 0
47 189 -228 0
-272 -303 352 0
87 403 478 0
238 -288 452 0
61 -267 -418 0
-158 -456 -475 0
150 275 481 0
-90 198 297 0
68 111 -223 0
-86 278 -375 0
358 377 -416 0
6 -408 452 0
65 -80 349 0
-234 249 -489 0
-412 462 -495 0
167 390 -412 0
37 -384 458 0
32 139 168 0
-337 -338 -434 0
-32 35 -480 0
-73 -243 251 0
-268 -444 -470 0
-61 -68 -463 0
-209 -309 466 0
-148 -246 257 0
-159 -405 454 0
-13 -265 366 0
150 -224 403 0
-155 376 -484 0
-56 307 -332 0
49 -389 475 0
-314 -375 378 0
19 -100 208 0
172 -418 432 0
78 119 -457 0
290 -319 392 0
31 244 -499 0
-69 -262 371 0
-55 204 -438 0
-147 264 286 0
75 -280 305 0
151 166 -195 0
-224 232 476 0
-27 -175 -346 0
264 268 282 0
-230 -290 411 0
104 312 354 0
29 175 -181 0
-8 -392 405 0
-20 -459 -468 0
32 -138 -285 0
13 176 202 0
-46 -147 -224 0
-196 -201 -407 0
-326 327 382 0
-24 34 315 0
-100 151 -481 0
-36 -53 -103 0
50 338 480 0
-214 338 460 0
-72 230 475 0
15 -26 233 0
89 -203 405 0
-161 312 -410 0
-217 283 446 0
247 -249 385 0
11 26 440 0
63 -200 -434 0
34 226 290 0
109 135 449 0
12 -43 326 0
-37 79 432 0
152 -397 489 0
7 -281 466 0
-336 -461 463 0
162 279 357 0
-114 132 395 0
-37 -195 250 0
-238 447 475 0
198 -210 -446 0
71 -232 -309 0
-64 136 -476 0
70 73 -157 0
-100 140 167 0
97 -299 -354 0
-351 354 -416 0
-123 255 332 0
-20 22 -334 0
-167 345 -368 0
196 -241 390 0
56 -247 -468 0
225 -462 -484 0
38 -86 -466 0
236 -376 -480 0
209 256 371 0
-146 255 -275 0
68 -136 -166 0
-190 -400 -424 0
245 -449 -492 0
-92 97 165 0
338 358 396 0
-163 328 458 0
-91 245 -404 0
-165 -191 -291 0
-128 -351 -423 0
-68 -70 337 0
-146 -227 461 0
-158 -251 -498 0
276 337 398 0
-132 -242 -336 0
-67 126 -141 0
-289 290 377 0
129 371 -477 0
57 402 -454 0
-37 -377 -454 0
-97 210 -304 0
-294 -339 -469 0
173 219 235 0
-78 -362 -413 0
55 323 -415 0
-1 -249 -372 0
-38 -99 227 0
316 -336 393 0
10 -233 -388 0
273 274 403 0
-39 218 -474 0
-55 -105 282 0
164 -233 417 0
235 416 447 0
-118 345 348 0
261 302 -440 0
160 472 -499 0
-194 -283 337 0
8 -94 411 0
-209 227 325 0
112 -183 413 0
-334 361 -377 0
-184 293 304 0
146 315 -486 0
-151 206 448 0
278 303 459 0
37 132 291 0
188 216 -371 0
-39 -110 170 0
-231 246 495 0
-110 123 -488 0
8 -178 -202 0
-262 301 424 0
-390 391 431 0
-121 240 288 0
-49 172 334 0
13 155 233 0
-125 -304 -341 0
-55 239 -380 0
-3 -4 -254 0
250 -392 -426 0
-329 374 395 0
209 229 462 0
-8 -351 455 0
-33 165 242 0
-61 -348 -365 0
-42 187 201 0
66 198 308 0
-169 236 -239 0
-7 -142 -204 0
143 -352 -388 0
-385 453 496 0
130 225 461 0
19 -63 145 0
36 -241 353 0
-45 -137 -264 0
14 290 332 0
3 -15 275 0
-225 251 -485 0
196 -426 491 0
138 -167 -386 0
123 228 -330 0
261 275 362 0
-55 376 377 0
-26 -213 417 0
128 187 -355 0
6 308 409 0
-26 160 -260 0
-89 -325 -362 0
-222 294 454 0
142 284 409 0
89 -153 470 0
27 28 -42 0
57 -357 -498 0
-171 274 -443 0
350 367 369 0
15 -325 -380 0
-62 458 489 0
-37 -82 307 0
-62 68 -469 0
-189 234 -243 0
89 -300 -431 0
-203 224 -464 0
-205 -278 344 0
13 172 -235 0
-82 263 -473 0
-45 69 488 0
130 -190 -378 0
108 -271 -476 0
-26 217 -430 0
319 456 492 0
129 282 -386 0
155 -318 -488 0
321 -376 -442 0
199 -211 488 0
-91 -155 -192 0
68 -99 -134 0
-11 -399 444 0
135 -197 -380 0
-27 -132 159 0
-61 -117 -236 0
102 160 -375 0
38 -110 -255 0
87 117 246 0
177 -235 351 0
3 274 -373 0
-243 -290 301 0
174 201 250 0
-15 291 -406 0
-258 -429 -481 0
59 -133 -178 0
309 -473 -480 0
-393 -469 -471 0
169 294 -353 0
36 -311 -428 0
65 -195 492 0
-127 289 299 0
140 -379 498 0
126 327 -383 0
104 286 398 0
-120 -142 184 0
56 -118 -293 0
-27 63 -322 0
-42 51 -231 0
140 169 456 0
113 -161 331 0
-148 226 446 0
13 264 296 0
289 441 -474 0
230 356 455 0
-103 186 -327 0
-147 169 300 0
45 291 448 0
-181 -320 -410 0
65 241 -387 0
208 232 -460 0
-63 374 440 0
169 -172 -197 0
-141 -312 -432 0
-94 271 -411 0
217 -441 449 0
-15 44 331 0
104 109 -364 0
-280 297 -389 0
-369 383 486 0
31 440 -493 0
41 -52 -453 0
169 249 428 0
-106 142 220 0
-195 -360 481 0
-153 -174 -260 0
172 -300 426 0
-210 280 421 0
67 -250 -412 0
117 -251 -432 0
82 -310 -360 0
94 251 -384 0
230 -391 436 0
182 272 379 0
-34 168 403 0
6 -78 423 0
-6 -323 349 0
-137 -259 -315 0
143 -464 499 0
6 153 406 0
-142 358 368 0
-25 142 -151 0
-32 -104 -270 0
-71 -166 482 0
-255 280 491 0
36 -176 374 0
188 -286 -453 0
113 341 381 0
-53 -301 414 0
270 488 498 0
-104 -233 343 0
-47 150 233 0
-263 271 -477 0
-104 154 290 0
-149 158 -369 0
-6 -31 358 0
203 352 -410 0
150 416 -497 0
-121 -215 231 0
178 -383 393 0
-200 277 494 0
-43 -384 451 0
61 84 328 0
-250 -346 -468 0
10 111 -363 0
120 -227 -251 0
-150 180 432 0
-70 348 409 0
-262 321 -446 0
-131 253 343 0
191 201 455 0
-199 276 350 0
-6 -115 -248 0
44 65 -500 0
252 -301 -340 0
-47 -247 -455 0
199 322 -418 0
-214 -398 408 0
84 -252 420 0
-139 -340 -413 0
-47 -74 -399 0
-68 -82 -308 0
161 178 -295 0
-127 333 418 0
8 -16 -345 0
132 -187 -258 0
199 370 -437 0
120 -182 417 0
-258 305 -344 0
117 215 321 0
134 -271 420 0
125 -339 430 0
-228 260 -482 0
174 275 417 0
-158 186 -270 0
310 -323 -392 0
109 224 -242 0
-216 -470 -479 0
-169 -284 -399 0
285 315 427 0
22 -249 -409 0
-175 -307 409 0
-216 217 -317 0
-81 -131 -325 0
8 -431 -462 0
-335 392 -426 0
42 -283 -284 0
-174 272 465 0
-67 286 -419 0
189 311 -315 0
-182 291 -312 0
-146 -149 202 0
-115 214 -390 0
89 184 478 0
-53 59 118 0
-269 -404 -443 0
27 -204 310 0
-206 208 -338 0
-60 300 -314 0
12 60 121 0
-78 234 319 0
73 378 439 0
252 354 -367 0
22 207 234 0
93 -221 -360 0
94 -119 173 0
207 -347 -413 0
175 225 -289 0
-136 -287 -357 0
-9 -159 -238 0
21 -71 370 0
-5 414 493 0
16 -313 -400 0
214 312 376 0
124 -401 -472 0
392 419 -496 0
36 -413 416 0
296 -313 -408 0
239 -387 414 0
-79 174 283 0
-85 -311 -399 0
168 -445 -499 0
414 426 430 0
-61 96 421 0
31 196 317 0
-199 -276 -302 0
80 209 -278 0
-109 160 223 0
-211 -219 409 0
15 -60 -356 0
-32 198 220 0
31 43 417 0
62 -225 257 0
282 304 373 0
203 -320 -345 0
253 423 -472 0
273 -361 364 0
-159 315 -328 0
231 -377 -473 0
-18 -265 -440 0
238 -459 499 0
89 343 -381 0
-42 293 395 0
58 -206 -284 0
196 262 408 0
42 -70 -455 0
138 322 -392 0
-127 -171 -286 0
115 272 -354 0
-98 264 -456 0
-195 201 355 0
85 -160 233 0
314 -391 496 0
-36 -494 -498 0
-62 -80 133 0
15 236 -411 0
190 206 -300 0
117 -368 -471 0
-87 -378 -466 0
183 -370 388 0
139 211 321 0
-67 301 326 0
140 -175 424 0
93 -151 300 0
-75 -214 -244 0
32 -76 253 0
44 -213 359 0
127 -370 -447 0
8 -68 -356 0
243 -288 366 0
-84 -337 -400 0
58 132 -460 0
-74 -182 434 0
-131 264 467 0
236 -410 -483 0
311 -414 -438 0
213 339 -352 0
-321 -346 451 0
118 -183 478 0
-288 -305 -500 0
214 217 -321 0
166 216 294 0
-156 189 -228 0
-224 278 -441 0
-15 -215 469 0
165 -449 474 0
34 -127 293 0
-73 275 -369 0
25 82 266 0
-73 -399 488 0
-22 58 -347 0
31 117 -431 0
60 -412 -428 0
171 -186 -453 0
206 243 -280 0
177 279 394 0
113 -216 453 0
167 205 421 0
79 135 -415 0
102 -328 464 0
230 325 -337 0
70 155 -185 0
-43 -61 271 0
233 372 -419 0
60 -300 -370 0
-106 212 288 0
-91 357 482 0
74 138 -167 0
-112 271 330 0
103 -304 494 0
-8 132 -439 0
-31 -141 373 0
22 -346 438 0
119 -341 -469 0
-73 127 236 0
-7 -265 320 0
173 437 446 0
147 -344 -426 0
-78 -209 421 0
225 -244 426 0
109 -267 -476 0
207 436 -474 0
209 212 323 0
40 53 -157 0
59 351 -358 0
7 224 -490 0
-1 -153 266 0
229 318 -386 0
20 -27 -104 0
100 117 -191 0
-12 -71 111 0
154 -242 352 0
121 251 -319 0
-292 435 -474 0
-221 268 406 0
-2 -489 499 0
182 268 383 0
-75 318 -382 0
-30 -119 409 0
-166 -169 -422 0
36 -251 275 0
89 -315 379 0
115 293 -485 0
-123 360 -376 0
291 314 -495 0
37 -136 289 0
316 -361 377 0
-57 -228 345 0
-106 385 -472 0
109 -265 405 0
-258 310 -434 0
92 165 -327 0
128 -407 473 0
155 416 424 0
-217 318 410 0
-126 -259 309 0
77 -153 498 0
-118 -183 -370 0
-36 87 -368 0
-97 -113 185 0
73 -339 357 0
-25 27 371 0
70 425 -428 0
210 217 260 0
369 374 495 0
100 -255 298 0
57 153 392 0
-138 416 457 0
-19 96 121 0
-280 333 384 0
-69 271 385 0
86 143 -318 0
-172 -372 -493 0
8 88 -112 0
90 128 -233 0
-42 -287 341 0
-144 -148 -183 0
45 -236 -433 0
210 -396 -421 0
263 381 474 0
135 150 -178 0
-127 -308 -379 0
-22 237 349 0
62 176 -195 0
277 315 390 0
303 -448 465 0
79 -111 -408 0
-93 158 336 0
-147 239 -476 0
-42 201 344 0
305 480 485 0
-65 -291 381 0
-29 -39 -280 0
141 -259 348 0
-64 96 103 0
61 -197 212 0
-224 337 390 0
235 -260 -406 0
294 -460 -499 0
-341 -342 388 0
-157 -234 -449 0
-24 -64 376 0
179 186 474 0
-386 -437 -487 0
180 -354 -459 0
-5 98 -452 0
-28 147 486 0
38 121 233 0
-227 -295 -492 0
-84 194 304 0
102 -149 -223 0
-34 -196 -393 0
96 -362 -490 0
14 -20 -168 0
-185 215 -329 0
29 -76 -190 0
181 312 475 0
-35 256 -340 0
181 222 -353 0
148 -202 -387 0
72 258 412 0
-92 -142 346 0
49 423 -457 0
-51 152 -184 0
-129 315 370 0
31 295 -433 0
-292 299 -415 0
202 227 -327 0
1 155 -492 0
-2 121 -396 0
-178 -387 433 0
-131 -239 487 0
-141 228 437 0
-181 259 -416 0
151 286 406 0
-163 338 -342 0
-71 291 446 0
28 -350 -370 0
248 281 365 0
44 -242 -453 0
-410 -474 -482 0
21 -201 -359 0
-18 -304 485 0
-106 -316 395 0
125 341 425 0
51 -100 417 0
49 -123 -488 0
238 -352 451 0
326 -355 375 0
215 259 439 0
47 264 -442 0
176 -223 340 0
-32 -199 492 0
-72 233 -472 0
37 296 455 0
197 -448 486 0
29 -288 -364 0
288 384 454 0
-18 327 -474 0
-322 -431 470 0
-335 365 437 0
243 -438 456 0
33 -134 -337 0
8 294 -376 0
421 -426 -464 0
-111 -181 493 0
257 404 470 0
-107 -361 -453 0
107 -270 439 0
-281 -282 -374 0
134 -414 -440 0
-67 -89 -276 0
70 -344 486 0
-174 189 -301 0
-81 212 -374 0
-137 -241 355 0
-296 -333 403 0
28 -223 264 0
112 303 -363 0
113 267 365 0
-61 -197 231 0
-157 -200 -213 0
137 -262 -378 0
157 -470 481 0
129 -288 -307 0
-176 -210 -212 0
-57 413 475 0
-21 -345 373 0
-198 -270 467 0
-80 300 362 0
238 -380 -447 0
-267 -366 -422 0
-16 -47 140 0
39 -105 -381 0
229 261 -477 0
227 -297 -478 0
-149 291 -446 0
309 -434 -485 0
341 357 490 0
-140 460 462 0
-75 99 -490 0
138 293 498 0
-1 -50 -166 0
-208 278 354 0
-50 -315 474 0
74 90 -350 0
91 -307 445 0
15 130 -481 0
60 -122 -351 0
-3 -287 -441 0
100 -349 395 0
-82 260 476 0
-4 303 353 0
184 234 343 0
379 -401 430 0
-186 -432 459 0
-155 -284 368 0
289 -336 403 0
-215 339 -452 0
-28 -356 380 0
88 -363 -443 0
-256 416 481 0
252 398 -459 0
96 -211 -467 0
-49 -306 -354 0
-293 479 -494 0
-186 -311 334 0
24 50 486 0
-91 150 201 0
63 412 -480 0
62 177 321 0
84 108 -335 0
-123 266 -335 0
-130 -329 -420 0
-42 211 -466 0
-66 284 -372 0
-36 115 443 0
31 127 -363 0
19 -393 -454 0
-116 -213 -412 0
100 132 -353 0
80 253 298 0
17 -53 -66 0
-81 197 -199 0
-4 -37 -455 0
218 421 -430 0
114 134 217 0
-94 414 -450 0
-12 39 60 0
-41 -322 -395 0
80 251 -431 0
-118 168 -403 0
-78 215 469 0
-43 111 -363 0
9 265 -438 0
209 -334 473 0
-102 -399 475 0
-50 -181 -233 0
379 406 -409 0
-66 435 452 0
-65 250 451 0
-44 95 -421 0
61 304 476 0
264 -287 296 0
-92 315 -405 0
-30 -194 278 0
201 -328 403 0
101 -169 -478 0
75 -179 355 0
-220 297 -317 0
205 -282 499 0
3 486 -488 0
-217 -407 454 0
91 257 -275 0
-182 249 -311 0
37 289 382 0
299 -373 388 0
52 110 -303 0
267 -323 -467 0
-78 162 207 0
-214 369 -398 0
137 -156 331 0
181 -299 383 0
98 104 243 0
-111 -390 -466 0
-326 -401 500 0
34 138 -272 0
161 244 325 0
-87 128 -443 0
-173 -356 415 0
81 -259 326 0
321 -399 -463 0
-156 -157 -313 0
-280 -433 453 0
7 123 -339 0
21 -309 451 0
-66 -91 -260 0
-99 -236 442 0
-42 186 353 0
371 -453 474 0
-294 319 -474 0
166 198 428 0
67 123 487 0
-226 -336 -367 0
33 490 -496 0
325 -339 394 0
-61 235 -266 0
-120 -268 -388 0
47 192 -287 0
62 285 -449 0
65 126 -154 0
113 -212 369 0
10 171 438 0
-129 209 393 0
335 401 468 0
31 48 207 0
-73 313 450 0
-85 -283 381 0
38 444 -452 0
16 422 -434 0
285 291 -305 0
191 315 -346 0
-309 315 337 0
6 44 -446 0
200 -203 -265 0
-183 -284 -357 0
-39 -118 486 0
67 146 304 0
-144 -329 397 0
48 124 457 0
182 193 -471 0
-64 104 122 0
111 122 -262 0
-5 85 361 0
-59 -264 -310 0
-32 330 -408 0
171 402 -421 0
-244 295 478 0
302 -473 489 0
-121 -228 431 0
-136 -145 201 0
-44 -310 -346 0
361 381 -455 0
50 -130 190 0
141 343 -489 0
40 -131 -241 0
62 -382 -423 0
7 210 -276 0
239 397 -414 0
-107 -286 -369 0
-7 -121 327 0
-8 -43 105 0
-91 -115 445 0
72 406 450 0
-344 409 -480 0
84 -165 233 0
42 87 -122 0
-294 -387 -398 0
-66 302 -340 0
-66 -198 355 0
-223 301 -342 0
231 -398 -457 0
-50 -161 -281 0
123 -267 -376 0
192 -222 483 0
-62 -374 -418 0
70 261 432 0
249 380 -396 0
294 443 493 0
168 176 -389 0
105 -163 -397 0
158 351 428 0
114 -161 260 0
112 -281 372 0
-13 -234 -303 0
41 -261 -489 0
92 -332 -448 0
16 -20 -356 0
-218 -327 388 0
245 256 297 0
-57 456 498 0
120 255 -282 0
41 350 398 0
67 -312 365 0
-115 -272 -364 0
-200 214 -354 0
280 299 310 0
-10 -210 -410 0
331 366 384 0
-45 84 -388 0
176 413 -492 0
-18 -303 -446 0
52 242 -389 0
109 -243 415 0
15 179 -425 0
141 241 -457 0
28 60 -306 0
80 -203 338 0
-60 255 324 0
64 -224 -405 0
174 -244 436 0
137 -443 489 0
-171 -338 463 0
96 111 366 0
-4 206 -396 0
-273 -287 -373 0
103 -161 341 0
27 -45 99 0
1 -310 -345 0
-157 -256 409 0
160 339 -491 0
-329 -404 -467 0
115 289 -464 0
-1 387 498 0
201 -241 422 0
-27 135 -216 0
-56 -250 453 0
14 -127 -412 0
-12 72 -237 0
-27 216 280 0
124 334 388 0
180 249 387 0
141 271 -461 0
152 -185 -268 0
-16 -356 486 0
120 201 -222 0
72 270 450 0
-159 170 -438 0
130 286 -306 0
-125 277 -492 0
-214 -232 398 0
45 -273 -442 0
106 131 -220 0
304 -322 366 0
-6 -360 -371 0
86 -124 -161 0
16 -216 426 0
38 -81 117 0
-81 214 -380 0
70 111 117 0
3 41 -76 0
364 -406 -498 0
214 317 -435 0
67 -166 -322 0
-179 -350 494 0
88 -324 -350 0
120 127 -290 0
-69 -379 398 0
-56 -85 -338 0
66 317 -379 0
95 -156 378 0
270 -333 -486 0
67 -236 264 0
-98 -290 -383 0
-70 -154 319 0
208 290 -461 0
134 135 274 0
14 148 -272 0
-172 -242 462 0
7 238 -260 0
230 -359 -496 0
-51 -66 -110 0
-22 -31 311 0
1 210 306 0
312 430 -477 0
385 -398 -487 0
-47 -163 455 0
204 -241 -325 0
-213 -324 433 0
-12 57 -301 0
134 300 -469 0
12 -205 412 0
347 -464 470 0
118 -363 424 0
61 -183 385 0
-46 -369 -413 0
184 241 -398 0
-146 -294 339 0
-115 150 -213 0
207 243 452 0
-43 189 466 0
87 -247 -324 0
81 194 -327 0
296 -373 -407 0
-255 -327 -384 0
9 152 -180 0
-12 -196 -361 0
-21 -167 -453 0
-141 236 -392 0
-341 -343 -359 0
57 412 500 0
-86 -105 -355 0
263 452 478 0
45 61 -467 0
112 199 -269 0
-198 217 283 0
75 291 -382 0
-10 -214 -458 0
-280 -307 394 0
-1 49 90 0
-63 -92 306 0
38 292 463 0
153 202 412 0
231 -288 441 0
-204 390 -489 0
264 -376 396 0
7 58 -251 0
219 345 466 0
12 99 -388 0
228 356 -483 0
-127 298 -451 0
-56 -349 404 0
-241 -294 302 0
-349 -363 471 0
-337 -356 -497 0
-227 -228 323 0
-3 217 276 0
-24 -143 -280 0
-39 -257 -468 0
-52 117 424 0
207 256 376 0
133 391 414 0
283 -319 -322 0
442 449 470 0
64 -386 487 0
133 -208 305 0
214 -422 -438 0
-202 -306 315 0
181 182 -422 0
79 160 351 0
4 -26 136 0
-75 -443 495 0
85 365 398 0
142 -207 -376 0
-151 196 -449 0
126 194 453 0
-106 430 -432 0
111 262 367 0
-161 223 242 0
72 140 352 0
-32 67 -212 0
24 307 435 0
248 390 491 0
193 -237 -323 0
-143 -250 -413 0
-106 143 -169 0
-72 -118 354 0
94 -167 -490 0
19 -133 240 0
96 311 -454 0
84 136 -434 0
208 230 295 0
-357 358 -412 0
-9 22 -32 0
206 -287 312 0
-100 -257 334 0
-4 294 -427 0
242 388 475 0
-126 -165 418 0
-45 257 -434 0
-143 -172 -296 0
-114 153 236 0
-117 -154 -297 0
-8 15 178 0
292 -342 -394 0
71 -222 444 0
438 -465 -468 0
333 -346 374 0
22 241 386 0
131 215 -317 0
46 180 425 0
10 -115 262 0
187 -335 344 0
-89 206 -313 0
-44 -396 -455 0
-222 -309 -489 0
452 453 -482 0
40 110 478 0
348 -416 -484 0
-136 -361 421 0
21 -235 305 0
21 -68 224 0
-135 342 433 0
108 -308 -362 0
129 429 -468 0
-61 -153 -175 0
-141 177 390 0
-132 147 222 0
-97 152 -406 0
-130 274 -377 0
-96 393 473 0
-182 -420 423 0
49 -321 333 0
-27 -113 366 0
-49 -393 478 0
69 179 -476 0
63 -318 471 0
14 -39 269 0
11 -159 -455 0
78 -88 288 0
46 124 153 0
8 328 345 0
60 404 429 0
313 -421 -469 0
-47 -191 -465 0
26 -30 -330 0
-36 214 -257 0
-146 420 -445 0
29 -162 274 0
18 -159 244 0
-56 368 -498 0
376 427 462 0
-45 -377 -394 0
-44 276 -485 0
47 92 122 0
-20 50 -271 0
-280 -447 -499 0
-291 347 475 0
-55 -283 472 0
-116 -304 368 0
95 373 -391 0
54 -55 -112 0
124 -156 167 0
8 -384 385 0
232 238 -386 0
-71 -94 447 0
49 130 -364 0
-6 -125 256 0
45 90 424 0
287 -379 411 0
60 135 422 0
-24 -271 488 0
-270 375 -430 0
-154 -200 -205 0
96 -325 -459 0
-415 -420 -443 0
47 212 411 0
-182 -215 310 0
88 352 354 0
147 -219 -461 0
90 -93 -498 0
36 -237 -370 0
262 406 415 0
-106 -256 361 0
-12 95 -445 0
-224 -349 357 0
40 -145 -332 0
-41 192 -272 0
-124 -205 -462 0
118 221 433 0
114 198 471 0
28 -68 -170 0
343 -442 490 0
-124 297 -415 0
71 -363 472 0
-18 -212 361 0
-19 152 -404 0
233 361 379 0
194 -351 423 0
95 -414 450 0
57 -168 248 0
-16 325 -415 0
21 -64 361 0
-84 315 475 0
-67 -287 304 0
-7 102 -153 0
21 -271 -300 0
228 -342 -483 0
160 -266 337 0
-108 -367 -456 0
-75 -337 387 0
-258 376 379 0
-217 -312 419 0
126 -188 484 0
38 -108 -277 0
118 -238 -340 0
-280 -294 -381 0
-98 164 -300 0
134 -247 -372 0
51 -367 382 0
-44 -168 383 0
-295 376 -481 0
-223 -344 492 0
89 -169 -426 0
27 -112 -469 0
-179 345 -427 0
-201 -237 477 0
117 367 461 0
265 329 -398 0
-105 -203 -399 0
-76 337 338 0
-102 265 -488 0
-206 -327 408 0
146 149 324 0
230 -343 -344 0
110 -281 298 0
-169 -232 -274 0
212 -385 446 0
-434 -462 469 0
-5 -80 333 0
-43 103 -312 0
-278 -284 336 0
-14 158 -500 0
46 -311 -362 0
102 279 431 0
243 -304 -466 0
-75 -343 -447 0
-263 472 -489 0
34 260 411 0
-160 201 -497 0
11 -227 -327 0
-213 -253 -453 0
133 261 -265 0
305 -478 490 0
-41 67 141 0
167 257 345 0
146 358 -403 0
81 391 -455 0
188 -206 498 0
182 345 -413 0
-179 284 321 0
-179 308 387 0
284 311 460 0
-152 246 254 0
13 -159 430 0
-133 198 -447 0
-217 -336 -392 0
-15 80 -304 0
61 -442 482 0
24 -227 -261 0
237 -250 456 0
-118 370 399 0
126 -144 310 0
317 389 -469 0
144 425 -454 0
269 286 343 0
-218 -277 -436 0
-98 -420 450 0
-182 -185 219 0
-16 130 488 0
35 -81 -113 0
72 -163 229 0
-13 82 306 0
4 350 -483 0
9 -52 -121 0
-17 -34 -101 0
-61 -155 -259 0
-80 -96 327 0
108 -471 477 0
-159 -208 293 0
-192 206 226 0
-19 91 253 0
-392 -422 471 0
156 -201 289 0
202 -322 449 0
39 -345 -467 0
116 -154 483 0
283 -323 476 0
-18 -145 247 0
-81 -108 408 0
3 121 -166 0
-150 -161 185 0
162 -167 384 0
-210 299 464 0
134 -213 -318 0
253 282 284 0
37 -290 -359 0
165 180 -497 0
-127 -419 495 0
-418 448 463 0
-216 353 410 0
196 219 286 0
-4 292 362 0
-61 -292 376 0
-276 356 393 0
-95 389 416 0
11 284 -461 0
150 411 461 0
-260 -339 -462 0
-28 121 -465 0
-114 163 -426 0
-254 -295 397 0
-80 -184 -419 0
296 324 -443 0
2 -169 -355 0
61 215 233 0
-189 -243 483 0
33 -273 450 0
121 145 405 0
240 446 -468 0
153 202 -225 0
-144 326 -360 0
12 -104 365 0
-259 377 387 0
-136 209 459 0
76 251 492 0
24 40 201 0
80 195 247 0
262 -471 -481 0
-104 -170 -317 0
77 -339 426 0
33 -87 270 0
-119 256 347 0
-94 -200 305 0
-209 -454 -463 0
5 367 -474 0
-152 191 -338 0
-124 309 -496 0
-85 -112 271 0
79 -323 422 0
199 -355 -437 0
-362 -411 -421 0
-33 -276 394 0
160 334 414 0
89 -179 -356 0
118 -307 -473 0
-1 -150 435 0
-124 306 -344 0
-69 391 -395 0
112 -121 -248 0
-157 238 -333 0
15 27 48 0
113 250 487 0
126 -140 192 0
-271 424 -427 0
-8 132 399 0
12 -202 -490 0
216 235 354 0
156 -220 -482 0
-37 -314 325 0
-54 -128 -404 0
41 129 -139 0
-103 263 334 0
-85 -117 -300 0
-335 367 498 0
-19 219 -369 0
100 141 -432 0
196 405 -471 0
-230 -245 -301 0
-59 -140 -325 0
334 451 479 0
-131 -298 -461 0
58 314 413 0
140 176 316 0
-31 78 -272 0
-94 111 -303 0
73 295 -307 0
194 -198 442 0
16 -134 -331 0
227 228 -261 0
-374 -442 492 0
-29 44 -348 0
-113 289 413 0
82 109 -271 0
39 191 -228 0
-2 -98 -261 0
64 245 347 0
83 -240 -311 0
80 127 381 0
-34 277 371 0
-159 197 198 0
80 -345 485 0
6 225 -386 0
-105 342 490 0
353 357 448 0
-124 170 465 0
184 -306 370 0
-64 319 432 0
277 -309 500 0
-73 233 307 0
241 -458 -488 0
68 82 488 0
164 -226 -445 0
-32 -163 183 0
4 136 226 0
53 -427 474 0
-148 375 461 0
-41 -248 449 0
-121 -368 -388 0
-97 -161 492 0
35 78 -241 0
-117 -219 -387 0
-166 244 -436 0
34 206 -492 0
-124 285 465 0
-159 -167 -176 0
8 -149 241 0
208 -386 427 0
15 -71 -315 0
-130 -375 -411 0
120 155 465 0
36 -391 -467 0
175 193 -197 0
149 -429 -443 0
358 456 -459 0
178 437 -465 0
-277 -313 346 0
-111 356 448 0
-216 259 344 0
72 -78 -153 0
-115 171 -375 0
332 -357 416 0
-40 -67 215 0
97 214 -467 0
224 -259 -365 0
237 -387 470 0
151 180 476 0
-65 129 -464 0
-128 -163 -200 0
260 299 395 0
-250 340 -376 0
-36 -45 -441 0
39 -455 476 0
-181 293 464 0
230 -304 -444 0
377 395 -408 0
184 -317 -386 0
97 246 -294 0
-125 218 247 0
-209 -231 -462 0
-332 -368 423 0
56 96 -373 0
25 44 -415 0
-57 -64 -132 0
-7 -11 405 0
-114 240 -359 0
108 -354 462 0
-44 194 -372 0
262 -371 447 0
-86 -309 -377 0
-93 -148 -457 0
-14 -344 -406 0
-50 237 280 0
-60 68 -416 0
-9 -123 -312 0
-45 -226 -457 0
118 393 417 0
-143 384 469 0
98 302 -442 0
-8 25 444 0
-16 -426 485 0
-101 294 374 0
151 171 285 0
-152 -410 -420 0
8 -393 -497 0
-34 -173 457 0
69 303 -396 0
31 81 236 0
151 348 428 0
158 363 433 0
84 117 -393 0
18 324 414 0
-14 73 418 0
49 295 433 0
-59 -446 -493 0
-188 366 413 0
-60 177 -379 0
-92 152 -409 0
-329 -341 -477 0
300 -357 424 0
-3 -4 -114 0
-132 -136 323 0
348 402 479 0
161 -233 317 0
-118 122 488 0
67 475 -496 0
201 244 436 0
38 -46 347 0
43 -83 250 0
44 -165 -371 0
-132 364 371 0
44 -113 -419 0
245 -257 474 0
158 -208 405 0
-261 -264 423 0
-102 -216 -238 0
-228 404 -435 0
-183 311 -434 0
256 292 -370 0
304 408 416 0
15 253 -286 0
-152 -323 381 0
44 53 282 0
-78 -148 183 0
-372 431 493 0
-388 -395 409 0
-9 165 187 0
-160 297 311 0
-368 -411 455 0
37 -147 -166 0
-101 -181 192 0
142 -372 500 0
-201 -218 282 0
211 -336 -352 0
206 -240 -341 0
192 370 -416 0
31 217 287 0
-66 -131 195 0
70 -72 267 0
-44 -214 434 0
-151 401 485 0
-20 -337 374 0
-145 304 427 0
318 347 441 0
-150 -170 264 0
-128 -402 467 0
176 436 456 0
-37 -162 -295 0
130 322 370 0
3 110 233 0
-62 137 -228 0
-22 119 -357 0
266 393 -413 0
9 117 -130 0
-88 -213 430 0
345 -398 466 0
334 -423 -473 0
30 360 495 0
19 -21 141 0
43 -353 478 0
-14 222 252 0
123 251 -309 0
77 241 -461 0
-208 -270 328 0
-162 350 435 0
18 -70 328 0
5 77 -154 0
-276 -321 443 0
83 126 146 0
11 330 -397 0
124 -156 455 0
-121 209 -301 0
-378 -430 486 0
-236 -269 346 0
34 -154 198 0
15 264 -428 0
314 -332 400 0
-49 54 -389 0
242 285 413 0
116 189 429 0
-28 -97 260 0
-193 254 416 0
15 68 324 0
-245 327 -479 0
58 301 499 0
25 258 -383 0
-4 182 -356 0
402 403 480 0
186 -364 -488 0
-67 144 -397 0
12 168 -280 0
61 136 391 0
-133 316 440 0
-294 -303 -385 0
100 400 457 0
-218 -335 394 0
194 -326 -460 0
48 -206 -235 0
-7 26 -288 0
-348 -435 466 0
2 353 -439 0
-147 154 -198 0
10 -377 -396 0
390 428 494 0
-24 34 -65 0
10 -48 486 0
142 -272 -286 0
-37 -80 496 0
-294 -316 469 0
162 351 -419 0
-64 -368 463 0
17 254 -299 0
36 290 317 0
262 369 -444 0
29 298 -475 0
41 63 -276 0
204 -309 403 0
-62 -214 -320 0
96 190 -410 0
304 441 -492 0
98 169 -357 0
68 228 439 0
127 306 -398 0
-159 181 -425 0
-242 301 -460 0
130 315 333 0
44 -60 442 0
-111 -175 271 0
-39 -181 -374 0
-14 -173 386 0
-56 297 -376 0
133 -323 -382 0
-2 204 -417 0
-75 163 -352 0
-429 -452 489 0
-243 -283 -468 0
-49 220 289 0
138 387 -396 0
-206 240 -461 0
-39 -437 438 0
26 -53 144 0
205 -291 392 0
128 136 -412 0
179 339 -446 0
228 270 340 0
-73 322 407 0
-116 -469 474 0
-124 233 392 0
11 227 351 0
147 -154 -267 0
27 -322 413 0
-71 128 326 0
-109 232 309 0
-193 -271 415 0
77 -332 460 0
-115 162 229 0
100 147 421 0
-109 260 -337 0
328 -344 420 0
70 -267 -295 0
-17 -30 -393 0
-2 119 142 0
121 218 258 0
166 205 478 0
228 -232 -472 0
18 32 385 0
155 395 446 0
165 351 494 0
41 -84 -288 0
146 284 454 0
-151 -231 -290 0
187 -247 421 0
-170 -192 -435 0
95 396 451 0
113 -179 -433 0
38 -73 -173 0
-198 395 -484 0
-81 -161 -436 0
-85 152 -281 0
1 337 441 0
18 128 367 0
-75 88 -111 0
261 326 -376 0
10 -399 -419 0
-186 -306 368 0
-117 -257 475 0
110 -175 362 0
22 337 387 0
-42 -174 182 0
-2 103 -155 0
-41 73 -481 0
-148 -166 261 0
-143 449 461 0
35 -236 -436 0
-417 -469 -493 0
198 310 381 0
75 -289 342 0
127 -406 465 0
-66 192 -272 0
122 -171 -288 0
-42 -147 221 0
-270 -289 408 0
-113 407 -438 0
-27 37 -365 0
-12 -45 -124 0
102 -110 385 0
-280 -300 -319 0
29 -223 -240 0
88 -222 -265 0
-37 -168 365 0
-138 -265 379 0
-203 -298 368 0
65 175 -325 0
-62 153 -232 0
304 383 437 0
98 -184 -364 0
-99 199 230 0
-51 407 468 0
49 95 266 0
-286 314 -329 0
42 81 204 0
213 -383 418 0
265 -347 -465 0
-6 425 -436 0
-144 -179 -273 0
299 -377 -416 0
43 46 120 0
121 232 -317 0
183 420 -482 0
-122 -209 495 0
-111 112 375 0
60 -176 488 0
-23 -304 -474 0
130 -170 -500 0
289 -309 392 0
91 228 -405 0
81 208 -403 0
102 -158 246 0
-67 89 141 0
-167 292 298 0
-159 245 292 0
-149 161 434 0
-20 -142 477 0
-164 311 389 0
85 104 342 0
-23 86 112 0
-41 -145 -190 0
-74 337 -424 0
344 -391 -456 0
13 -294 -382 0
-76 247 -255 0
63 242 -407 0
-90 296 364 0
104 -281 284 0
-248 -264 477 0
-11 -108 -321 0
21 -388 -433 0
116 -148 -413 0
-218 448 455 0
-122 -339 426 0
-138 203 452 0
-168 232 401 0
220 223 -351 0
-269 -348 437 0
-16 -153 460 0
11 -322 463 0
233 365 489 0
18 -100 201 0
19 107 375 0
92 -145 378 0
-60 348 -369 0
-50 266 448 0
-29 92 121 0
-263 -323 413 0
21 294 340 0
16 93 -316 0
96 -109 -213 0
-33 50 -466 0
-80 -288 388 0
73 -186 -392 0
-83 373 -391 0
-160 324 -444 0
100 251 273 0
121 -124 -477 0
267 -338 -358 0
-140 259 -448 0
30 -52 378 0
-64 -401 442 0
-305 -314 -470 0
41 53 438 0
94 135 -263 0
-27 82 154 0
