p cnf 500 2129
73 -150 419 0
-66 -122 -427 0
-83 -228 462 0
98 -216 -242 0
118 -347 -440 0
-254 310 -488 0
68 229 460 0
-2 -244 -449 0
100 186 -498 0
-321 -456 466 0
-93 -247 484 0
-9 -146 328 0
270 -299 -433 0
-47 194 447 0
12 63 448 0
-140 -286 476 0
-275 313 469 0
-270 -296 -447 0
15 -42 -133 0
67 -160 375 0
116 326 -362 0
-250 342 -360 0
129 -183 229 0
-95 -210 244 0
-179 189 413 0
-121 -139 -291 0
93 318 451 0
-113 357 -414 0
76 364 -447 0
-366 -382 -465 0
61 429 460 0
-137 321 444 0
-277 -317 -331 0
157 -225 -450 0
-122 169 307 0
-185 263 417 0
27 64 -284 0
-85 108 -397 0
-122 137 -367 0
104 453 -489 0
-164 -269 328 0
-236 -460 -464 0
46 279 316 0
-116 178 416 0
-35 92 245 0
3 -181 -244 0
-25 -265 286 0
-82 -319 469 0
224 -326 -341 0
224 -304 -329 0
188 -195 204 0
151 -309 370 0
-204 306 480 0
52 120 -219 0
80 -182 -249 0
178 220 -369 0
-123 364 497 0
-88 377 -422 0
295 303 -368 0
-287 -290 418 0
69 -116 -355 0
34 370 431 0
-38 -121 425 0
24 -91 -113 0
-394 454 -497 0
154 -259 -310 0
84 -219 448 0
-17 309 458 0
162 -195 333 0
226 402 -440 0
-298 -365 396 0
-35 -52 254 0
-148 179 366 0
414 470 472 0
71 -155 -221 0
68 -301 497 0
-50 -131 427 0
-25 -28 -441 0
-53 -407 -422 0
-90 -386 399 0
-79 271 -280 0
-111 159 -263 0
-275 -394 -491 0
-41 -310 -338 0
167 447 465 0
200 -460 -488 0
-95 -212 260 0
29 -406 492 0
-17 -201 254 0
-39 -195 370 0
243 433 457 0
21 -491 498 0
-230 -325 -444 0
-61 -277 -286 0
-81 -118 -409 0
-190 -214 -389 0
-314 -463 471 0
305 359 431 0
7 -111 478 0
-95 421 -470 0
79 260 277 0
-114 -363 388 0
118 -316 -408 0
85 -112 325 0
-49 -153 387 0
43 -137 392 0
18 -88 -241 0
34 159 364 0
-61 147 486 0
-79 106 -446 0
-84 228 -355 0
141 -203 424 0
-360 -433 442 0
-137 -359 467 0
10 -116 268 0
103 235 -339 0
76 -192 329 0
49 199 439 0
323 -430 497 0
51 140 -303 0
-284 350 -414 0
-145 -319 -433 0
-47 252 -386 0
170 221 -319 0
83 -284 356 0
37 -81 318 0
30 414 444 0
-165 -235 416 0
24 -115 198 0
293 424 433 0
308 353 394 0
-260 -379 464 0
160 249 -352 0
-232 -468 -480 0
68 146 -168 0
-93 100 -425 0
-78 -127 450 0
190 -358 495 0
-37 -44 267 0
-64 -70 415 0
354 -433 447 0
81 -250 -322 0
61 145 417 0
40 -140 -414 0
-70 -216 -395 0
-194 305 338 0
-34 -240 -263 0
-265 -282 500 0
-70 -378 -423 0
50 193 -382 0
198 252 -295 0
-60 323 -474 0
89 -229 338 0
-69 -174 -442 0
170 -212 332 0
66 291 -419 0
-196 -337 -342 0
-5 48 -438 0
-71 211 -291 0
-122 -181 276 0
284 -312 449 0
-193 -288 -305 0
28 252 380 0
-232 -241 347 0
62 236 -366 0
52 -79 498 0
126 230 347 0
-21 29 -143 0
-345 -362 387 0
118 165 485 0
-36 166 -417 0
-248 -249 -441 0
102 -456 485 0
-146 -210 -372 0
53 241 249 0
276 383 -462 0
213 294 387 0
16 -86 452 0
-179 295 -403 0
165 -169 -246 0
13 -31 -128 0
-19 216 -400 0
158 239 495 0
212 -263 -328 0
-40 60 -81 0
172 277 353 0
108 264 309 0
16 175 -366 0
-11 -72 -93 0
50 -169 -265 0
36 -37 -414 0
-125 304 -385 0
-7 -362 482 0
-87 -99 -404 0
-110 350 -456 0
117 216 -244 0
93 -130 327 0
-190 -299 331 0
-80 -164 -208 0
-55 145 -292 0
-42 -198 328 0
97 276 -444 0
278 413 -474 0
14 24 315 0
-6 99 423 0
-287 -290 -360 0
-24 -86 215 0
-91 372 389 0
37 291 -474 0
101 267 324 0
149 360 -478 0
123 163 -212 0
-80 94 -163 0
-93 212 389 0
-5 11 -484 0
45 -367 -441 0
125 373 -494 0
-65 340 408 0
234 -344 -500 0
-323 386 407 0
300 438 440 0
-15 224 -260 0
78 243 -381 0
153 -229 429 0
240 -446 -480 0
91 118 -455 0
312 -366 -424 0
-123 -290 481 0
144 225 -239 0
8 152 193 0
203 -210 363 0
67 121 -258 0
42 190 277 0
-153 -338 380 0
189 -381 438 0
-9 277 383 0
-4 48 135 0
-41 -239 306 0
13 214 -284 0
33 162 202 0
346 376 443 0
353 -432 -467 0
354 -399 -405 0
-126 -204 464 0
197 -312 -464 0
-95 397 487 0
52 334 -351 0
-240 341 490 0
83 -102 -105 0
92 -309 334 0
288 -349 -357 0
164 -272 279 0
336 -399 -451 0
169 -365 436 0
19 212 -370 0
154 -345 -463 0
-324 -357 477 0
-227 -278 284 0
-250 370 -385 0
140 208 -409 0
137 -192 197 0
-145 -242 328 0
122 -219 437 0
-50 205 -491 0
47 -130 384 0
-232 369 -471 0
197 260 490 0
-131 -410 487 0
316 371 -434 0
223 318 -403 0
-290 301 -408 0
99 214 416 0
-50 212 -242 0
-90 -141 180 0
19 221 -316 0
150 -252 -272 0
248 -443 477 0
80 -255 -329 0
-89 -126 -426 0
219 -341 -424 0
67 83 385 0
59 -320 358 0
319 364 391 0
-262 -314 396 0
-217 -316 -400 0
-23 -51 461 0
-27 -47 464 0
238 -408 435 0
139 -161 485 0
213 277 -409 0
166 339 -380 0
-18 26 243 0
247 291 453 0
116 128 -227 0
-81 -102 -181 0
81 -103 123 0
-376 -449 481 0
37 257 416 0
30 384 386 0
134 -258 -364 0
-150 269 317 0
75 134 -378 0
224 -239 -470 0
-277 442 486 0
-41 186 -225 0
-170 -177 310 0
-120 144 208 0
-192 -212 -343 0
198 -205 -482 0
222 -290 -322 0
-175 180 -305 0
188 231 -493 0
109 -125 -282 0
185 -195 -244 0
-21 -309 310 0
-55 267 -425 0
11 -90 169 0
209 -327 -368 0
52 285 402 0
202 214 -279 0
111 -346 477 0
117 351 -368 0
4 -52 -448 0
1 -19 362 0
86 -117 499 0
-65 289 -372 0
148 292 -332 0
41 130 468 0
-67 -173 228 0
15 51 215 0
205 250 -420 0
-128 243 305 0
-4 -112 -476 0
-193 -197 402 0
-122 268 -401 0
-105 276 315 0
-359 395 462 0
241 -295 420 0
70 -182 323 0
-1 342 438 0
-100 -232 -426 0
-360 382 -395 0
4 -67 -356 0
-71 109 294 0
118 227 -337 0
128 -209 -288 0
-39 309 352 0
173 -256 -419 0
86 -101 419 0
31 237 407 0
302 -314 -376 0
66 204 338 0
44 244 398 0
-81 289 340 0
-215 -373 374 0
-33 174 -197 0
-30 -304 365 0
-11 -59 467 0
30 -47 117 0
283 -358 432 0
-121 -246 -415 0
-39 -88 256 0
244 316 368 0
-87 -209 371 0
9 -10 -71 0
-40 -86 138 0
194 -248 384 0
26 -243 424 0
66 -227 338 0
-47 -87 -234 0
239 265 -309 0
14 -28 -278 0
31 -222 346 0
-305 -384 408 0
28 -59 97 0
65 283 -493 0
247 -378 406 0
117 -192 343 0
163 341 -399 0
91 -119 455 0
51 -109 -390 0
2 -314 -390 0
-161 -310 -407 0
129 146 -457 0
96 -186 225 0
53 -225 -476 0
23 337 -448 0
-238 270 445 0
1 10 -250 0
-42 -161 -396 0
179 377 -462 0
64 339 494 0
-14 110 -143 0
67 -76 -330 0
136 236 -333 0
-188 415 -417 0
303 467 490 0
265 -385 485 0
-15 -113 -409 0
77 -109 -173 0
-257 462 470 0
188 -254 -415 0
-239 -357 -482 0
244 336 -428 0
141 -337 418 0
147 148 344 0
-183 -201 435 0
-238 439 466 0
-136 -194 469 0
-49 69 -222 0
56 83 -489 0
-116 -157 -231 0
-147 -157 -237 0
425 438 -450 0
48 279 326 0
-24 211 345 0
-92 105 207 0
-5 -16 -472 0
57 -174 -421 0
-217 -266 318 0
132 -249 -397 0
-184 222 477 0
-39 -40 459 0
-24 69 -403 0
288 443 455 0
79 191 416 0
-68 -130 288 0
194 -271 -315 0
62 -176 490 0
-326 340 442 0
369 -388 -451 0
56 93 443 0
-80 100 111 0
-50 -117 -204 0
86 263 -380 0
32 178 -230 0
261 279 485 0
-110 268 450 0
21 26 -160 0
-61 -163 402 0
-150 -191 -232 0
141 -312 -409 0
166 203 -223 0
-19 141 -290 0
351 403 406 0
49 -417 479 0
-206 231 283 0
186 -203 -482 0
-190 205 398 0
-315 -358 459 0
-100 203 -240 0
-143 -390 -471 0
129 -407 481 0
-57 354 -390 0
-143 228 -313 0
-227 -285 -289 0
-137 -187 429 0
-277 -370 -403 0
-177 230 -251 0
-179 -253 -399 0
-37 -116 -164 0
-174 -257 371 0
242 250 282 0
15 46 -56 0
-4 57 328 0
176 -205 -425 0
311 -368 -484 0
177 -488 492 0
-142 -288 498 0
37 297 425 0
2 475 -485 0
189 232 343 0
197 341 459 0
-172 178 -462 0
-246 -305 -336 0
-12 291 -359 0
145 -413 500 0
-127 178 219 0
-120 207 304 0
140 289 461 0
33 66 -75 0
85 -423 -441 0
-256 260 299 0
37 -242 -358 0
-97 111 434 0
-55 -345 -464 0
-9 -231 248 0
42 -198 -420 0
-165 381 -433 0
10 -145 -241 0
-123 398 490 0
-55 -303 -356 0
41 -221 -397 0
-82 -167 282 0
-42 131 292 0
-264 275 368 0
54 243 -459 0
197 -273 398 0
213 -370 396 0
154 215 261 0
-94 -410 413 0
129 262 -372 0
80 -260 -325 0
58 -84 263 0
-146 -369 482 0
-121 -363 399 0
420 -465 475 0
242 -369 -396 0
39 216 -269 0
77 283 496 0
-104 140 456 0
133 -184 -361 0
-85 140 423 0
63 -229 293 0
57 -316 410 0
-209 -379 496 0
-125 221 -256 0
23 -50 263 0
417 -418 -457 0
67 -212 -231 0
-154 175 -453 0
-202 370 373 0
80 -277 462 0
80 317 396 0
-205 363 -370 0
15 121 421 0
-28 -369 -422 0
-250 -306 382 0
-122 301 441 0
338 347 -399 0
48 239 285 0
160 -261 -380 0
-48 -150 -186 0
-59 -252 494 0
-189 225 452 0
318 -407 -448 0
-164 -428 -489 0
-57 197 -388 0
-56 178 -219 0
289 -329 -401 0
-212 -355 479 0
16 67 -372 0
138 369 -494 0
-22 -312 -445 0
-60 123 -309 0
-303 314 458 0
217 332 339 0
-43 -260 -352 0
192 315 427 0
-280 307 344 0
48 53 -215 0
-92 -224 -388 0
341 353 457 0
-64 82 411 0
165 -245 -276 0
-67 186 -190 0
139 283 498 0
115 180 -273 0
-101 -210 -437 0
-122 -287 289 0
-29 113 444 0
-90 -145 -222 0
-35 135 258 0
-133 -209 400 0
-4 21 49 0
-6 68 176 0
-128 -158 254 0
-167 -315 -403 0
70 -350 417 0
58 321 495 0
-8 -178 -485 0
150 329 405 0
-241 473 -481 0
-136 282 301 0
13 -218 -263 0
209 447 -494 0
-121 297 -437 0
-191 -353 -373 0
18 -385 -455 0
-23 247 326 0
-141 -178 -472 0
-100 -335 -343 0
-20 269 305 0
259 263 -482 0
187 398 -444 0
-98 -115 -265 0
37 -64 381 0
68 -177 -309 0
-73 -236 275 0
46 204 230 0
-231 -336 -338 0
-84 290 -437 0
-39 365 368 0
120 122 -190 0
79 -128 138 0
-30 -234 421 0
226 -359 394 0
200 217 256 0
107 -313 415 0
69 -88 -422 0
-61 -154 474 0
40 -170 -285 0
-153 -331 359 0
52 160 -402 0
99 264 -346 0
-26 -227 -279 0
309 316 478 0
-50 69 337 0
-49 74 418 0
-296 454 -499 0
-40 72 152 0
193 -340 433 0
-232 335 409 0
-25 462 -487 0
35 -316 464 0
-80 294 436 0
60 83 407 0
40 -148 -246 0
144 -204 -342 0
-325 430 492 0
53 76 -172 0
148 239 433 0
3 446 457 0
-13 28 -233 0
-220 329 411 0
205 220 234 0
-123 382 493 0
61 -276 495 0
59 -198 251 0
152 223 -389 0
-115 194 -490 0
-134 -139 -425 0
15 -47 -199 0
345 -379 394 0
-24 -231 420 0
-239 298 -447 0
-259 441 464 0
79 272 -383 0
-134 229 -337 0
-255 325 -405 0
-267 -328 428 0
180 275 374 0
76 -170 -235 0
2 -368 -498 0
-63 92 -475 0
37 -67 -243 0
-50 252 418 0
120 -340 -370 0
185 -191 353 0
-126 -354 381 0
-36 323 415 0
195 365 473 0
4 -327 429 0
320 405 -412 0
-75 142 -384 0
-133 134 151 0
215 324 382 0
-316 340 -460 0
100 -378 476 0
321 395 -400 0
69 -298 -450 0
365 -415 -485 0
95 189 -265 0
222 -256 407 0
-78 -317 495 0
-118 -463 480 0
-131 -176 448 0
161 -191 346 0
-167 291 -473 0
230 449 -462 0
255 -365 464 0
-108 307 325 0
-198 -244 -360 0
119 155 -357 0
-412 450 459 0
-146 -180 -225 0
-17 161 368 0
333 385 454 0
11 180 -287 0
-126 -420 434 0
4 194 -427 0
-293 313 -474 0
-53 393 403 0
108 117 482 0
56 71 293 0
-63 -166 -180 0
6 246 447 0
-113 345 -491 0
-83 -148 330 0
-81 163 -213 0
15 -221 373 0
-95 -232 -323 0
-102 134 314 0
133 191 370 0
42 -101 -339 0
146 196 431 0
78 -284 -485 0
-118 -286 -450 0
-18 -379 394 0
14 92 -222 0
28 236 359 0
-154 284 427 0
-64 -206 -488 0
142 -406 -480 0
56 -191 482 0
190 293 304 0
19 332 467 0
-126 143 -500 0
27 -353 -455 0
-73 109 -457 0
-135 -190 492 0
189 -312 357 0
-37 215 -418 0
-170 335 493 0
134 276 482 0
337 356 483 0
-58 -89 -393 0
214 -273 -347 0
178 354 368 0
178 268 399 0
-126 280 -313 0
167 -215 235 0
-230 -356 370 0
-92 356 479 0
-88 -255 335 0
20 -298 437 0
189 -215 -387 0
-88 -152 -406 0
-75 148 431 0
387 420 -479 0
57 203 -225 0
40 65 198 0
30 -128 360 0
112 186 -261 0
293 -441 -482 0
-18 233 -371 0
-82 241 -292 0
-32 181 304 0
16 66 163 0
300 -304 331 0
-5 -41 -441 0
276 -409 -461 0
44 282 327 0
217 -366 473 0
-68 69 -339 0
-275 455 -489 0
-251 -323 408 0
-202 313 -497 0
-235 322 324 0
-44 191 365 0
92 -230 427 0
-201 -249 -309 0
195 255 371 0
192 319 -365 0
-9 149 -193 0
-29 -145 -170 0
103 -195 -307 0
291 325 -395 0
-187 -349 -368 0
-123 -269 -498 0
-202 -275 490 0
-228 314 403 0
238 -318 384 0
37 -175 -213 0
259 -277 481 0
356 -376 -428 0
-46 -50 216 0
353 -423 -465 0
30 -63 -248 0
89 -117 -350 0
-3 -311 489 0
69 -125 170 0
-243 384 -417 0
-123 -157 400 0
-47 -218 468 0
-1 253 372 0
-64 398 478 0
74 211 279 0
-27 -182 344 0
301 328 -453 0
-117 -240 -479 0
-138 351 -467 0
-55 -191 401 0
-171 321 340 0
260 289 -466 0
400 -488 497 0
3 -49 -177 0
-40 154 -453 0
-50 195 -480 0
-266 467 491 0
-162 291 410 0
-32 -263 -339 0
-103 374 -450 0
37 330 450 0
190 318 -334 0
149 354 -369 0
-19 356 468 0
39 -94 375 0
22 172 210 0
-52 461 498 0
-102 -294 494 0
-222 418 496 0
-39 -327 330 0
220 308 -352 0
-230 314 357 0
18 126 177 0
-174 -175 -384 0
329 -447 -484 0
-179 -268 495 0
-302 -319 -399 0
-47 103 -439 0
20 -226 287 0
256 334 -424 0
70 199 -415 0
-171 320 438 0
67 311 346 0
66 -227 -347 0
-28 271 421 0
-177 178 -481 0
180 217 421 0
137 -356 -450 0
-123 181 462 0
-26 -349 371 0
-91 362 -488 0
-68 438 470 0
-157 425 463 0
328 -410 456 0
-43 -160 465 0
-52 -237 -251 0
-119 -280 -438 0
70 115 291 0
-29 376 481 0
-4 41 498 0
-45 -173 348 0
53 -200 -291 0
139 -205 463 0
88 -251 -328 0
-18 -206 -379 0
302 -322 -478 0
-31 -106 -385 0
32 -137 -226 0
266 -286 300 0
67 -253 -343 0
-42 216 -257 0
91 160 -250 0
-57 -276 -460 0
162 266 -362 0
286 323 385 0
-141 362 -487 0
-232 -234 -484 0
-26 -335 -442 0
268 -328 402 0
218 263 416 0
-58 243 -440 0
-20 288 -480 0
3 411 -414 0
-261 416 488 0
3 18 -359 0
43 -242 379 0
-17 -88 202 0
-352 -369 -388 0
93 181 -334 0
-19 199 -496 0
157 -234 -238 0
-381 -413 -415 0
90 108 413 0
126 199 -400 0
-147 -240 -452 0
292 -327 -428 0
-126 146 -403 0
-25 173 431 0
218 -224 335 0
168 333 368 0
177 -368 -460 0
281 335 418 0
-281 286 -353 0
-86 316 389 0
-141 246 493 0
-109 -158 292 0
238 437 -486 0
224 229 446 0
-174 -360 -489 0
316 -360 389 0
-30 245 269 0
50 -359 468 0
-106 234 330 0
52 -481 -485 0
-13 -336 -444 0
100 -327 421 0
64 -257 -267 0
38 103 -394 0
-137 -233 -271 0
-16 75 -317 0
-344 -350 473 0
138 207 212 0
-121 143 459 0
-62 -191 354 0
-235 -345 421 0
107 -111 473 0
-36 100 362 0
-239 343 370 0
183 349 400 0
7 198 344 0
-22 -178 359 0
177 -313 -422 0
215 262 -347 0
-68 -82 -469 0
118 -237 -300 0
-254 -315 317 0
-22 219 -239 0
-396 472 -490 0
70 -118 493 0
-93 -259 280 0
-286 355 -457 0
265 -282 -375 0
8 -249 253 0
-152 279 -437 0
-244 -340 -488 0
112 140 -228 0
136 323 410 0
-104 414 465 0
-104 134 -462 0
-79 -192 -344 0
244 279 -407 0
2 218 -354 0
-162 272 313 0
32 214 -273 0
-82 93 293 0
140 -292 -321 0
9 -19 40 0
-130 236 -433 0
215 339 -481 0
-239 -293 -329 0
-163 319 363 0
68 -185 487 0
37 104 -406 0
31 -34 424 0
67 -394 408 0
-92 482 487 0
123 384 491 0
79 -160 -268 0
-109 -128 142 0
-11 -186 462 0
52 238 398 0
64 83 166 0
-159 -257 416 0
12 273 461 0
-154 227 385 0
315 375 390 0
83 -419 -453 0
-247 305 477 0
325 414 -491 0
-80 333 -415 0
390 461 475 0
-1 -156 252 0
259 -317 491 0
165 -219 -371 0
300 -317 -382 0
124 144 291 0
-39 148 254 0
-340 342 358 0
-14 255 -375 0
44 -201 296 0
-7 -150 -348 0
75 85 433 0
212 -320 -366 0
139 -283 -313 0
130 324 486 0
-184 303 -313 0
-20 -182 -349 0
38 -138 457 0
102 -207 -416 0
-113 -297 446 0
-94 -128 489 0
-225 264 -446 0
-92 -281 -353 0
245 285 345 0
155 -261 -376 0
154 -198 325 0
87 -296 -422 0
64 -175 -486 0
-29 290 -447 0
160 288 323 0
86 -174 -436 0
-37 55 -417 0
-108 331 -459 0
188 214 241 0
244 -354 -462 0
-105 -329 -393 0
212 307 -460 0
132 -176 -464 0
123 -326 355 0
59 292 379 0
-275 -282 -399 0
-190 -290 -399 0
7 26 164 0
248 -281 -411 0
65 476 -495 0
238 335 410 0
-86 139 237 0
-111 -239 -356 0
256 341 446 0
67 272 443 0
-10 -117 211 0
-35 419 423 0
-52 -167 -346 0
244 291 -472 0
141 -238 390 0
-141 -277 461 0
-181 -336 -421 0
-118 304 314 0
114 -185 -285 0
-143 155 -394 0
115 -408 461 0
-167 -196 328 0
179 -201 -248 0
-194 332 -433 0
80 419 473 0
180 231 488 0
-15 -129 160 0
-102 -148 -379 0
-43 224 -245 0
-154 -291 -350 0
-91 158 373 0
74 -274 -416 0
8 -105 -299 0
-92 163 394 0
21 97 -171 0
-111 402 -496 0
64 -113 -119 0
-224 -249 -357 0
112 185 -323 0
64 207 222 0
173 398 458 0
-8 253 -500 0
-78 -305 495 0
-13 177 330 0
-12 -218 321 0
-41 -358 472 0
-91 92 -403 0
-106 152 -306 0
-9 -85 -117 0
30 -214 -230 0
150 394 -423 0
40 -297 -336 0
-184 197 -373 0
-216 244 -459 0
212 420 495 0
196 -343 -467 0
-297 304 -348 0
-94 248 -351 0
249 -283 432 0
-1 -67 200 0
-61 131 310 0
285 -364 455 0
87 -213 -367 0
-154 262 401 0
13 214 -426 0
96 -247 285 0
128 324 -371 0
280 -367 486 0
37 39 -372 0
65 -130 252 0
-112 227 -429 0
91 180 -288 0
-101 -346 355 0
219 -235 317 0
-125 -325 396 0
314 356 -388 0
148 -333 388 0
-22 -111 356 0
207 -337 379 0
-177 -238 441 0
20 -335 -455 0
-149 -372 -386 0
108 -223 -306 0
399 -401 484 0
-10 118 345 0
249 -393 402 0
91 180 181 0
9 219 -411 0
-75 257 391 0
-136 -332 394 0
-50 -213 -389 0
-341 373 433 0
-7 227 -455 0
7 110 -192 0
20 36 347 0
-10 -397 -467 0
228 -279 370 0
42 -325 477 0
-65 195 -331 0
2 164 -441 0
-197 232 478 0
-16 -133 461 0
169 207 385 0
-202 247 500 0
-92 -117 131 0
21 330 475 0
-54 328 -374 0
32 204 -327 0
55 -97 -474 0
-234 418 -485 0
-217 321 -489 0
11 -69 227 0
-292 -308 382 0
-308 -341 458 0
-321 420 483 0
-72 -207 -408 0
351 393 482 0
-131 154 -479 0
-293 -307 -358 0
-6 -92 499 0
-199 -304 -344 0
-334 -351 363 0
223 -234 -293 0
103 -374 -488 0
364 412 431 0
163 316 -368 0
128 292 -353 0
125 206 -283 0
-160 216 -398 0
58 136 -299 0
173 -245 -294 0
26 255 -422 0
-60 88 -452 0
57 -100 -155 0
-89 222 -495 0
-20 -23 -331 0
-83 331 -335 0
190 -295 -475 0
111 -196 305 0
229 -303 -455 0
-228 321 402 0
310 -348 373 0
-89 173 348 0
-365 -391 488 0
-194 -295 411 0
-294 -427 -469 0
271 -466 491 0
19 -231 -300 0
99 -196 205 0
66 -121 155 0
174 446 -449 0
-269 -342 368 0
-31 286 -375 0
85 -138 294 0
374 386 -454 0
-114 -165 347 0
223 -359 -414 0
-1 -197 238 0
-228 249 -365 0
283 327 -340 0
99 -229 -356 0
-67 -187 266 0
57 -291 -462 0
10 -32 -403 0
74 105 -200 0
16 132 345 0
322 343 405 0
259 -323 376 0
-99 226 -391 0
122 -146 -424 0
9 367 -485 0
201 288 291 0
146 234 -404 0
-206 259 -491 0
201 -318 398 0
372 -470 -492 0
43 205 -326 0
-101 384 490 0
108 -255 -437 0
-18 257 485 0
-26 -384 387 0
180 -249 -435 0
36 202 -347 0
88 -391 427 0
-5 -268 289 0
-124 -188 499 0
-112 -151 370 0
85 -282 489 0
-135 -224 -311 0
-173 -275 -459 0
-2 171 -337 0
-99 354 -471 0
-91 118 -411 0
-178 189 456 0
-179 -271 -363 0
-270 -272 -416 0
-82 139 -329 0
201 -215 -488 0
-271 -280 395 0
-18 -359 -498 0
200 -334 384 0
141 -261 344 0
-323 402 -469 0
-327 -389 419 0
-158 199 -423 0
317 421 484 0
22 -162 257 0
224 267 -287 0
-203 299 -319 0
-176 -225 353 0
-80 265 270 0
-152 -226 -362 0
134 -266 419 0
17 166 -457 0
227 391 -469 0
39 81 276 0
-195 -389 419 0
77 154 -348 0
75 -385 446 0
17 115 -265 0
-169 270 415 0
43 88 282 0
-54 -216 341 0
5 106 373 0
180 214 327 0
267 -283 -402 0
35 53 481 0
-94 195 -386 0
-189 -392 456 0
349 390 -495 0
33 98 196 0
-110 144 -413 0
319 -380 448 0
154 -358 447 0
162 274 -340 0
-20 -291 -310 0
-195 -290 319 0
-226 -365 428 0
-103 -214 233 0
-206 -353 471 0
41 51 98 0
-99 178 -451 0
173 216 -391 0
72 145 456 0
-35 193 210 0
-19 44 -185 0
81 -125 -403 0
-17 -88 453 0
-25 213 -217 0
-47 87 357 0
130 -349 -396 0
70 157 -226 0
129 173 -213 0
-23 153 163 0
236 -267 329 0
53 -82 344 0
-123 -197 493 0
-409 -429 -456 0
100 360 -472 0
23 104 -296 0
32 -278 381 0
208 311 -398 0
66 310 -487 0
-148 258 -405 0
166 326 467 0
286 -320 341 0
-248 -429 475 0
4 23 -373 0
52 -249 -296 0
173 -238 294 0
144 -399 427 0
127 -288 -323 0
-88 195 -298 0
-172 243 486 0
-12 235 281 0
75 -200 -243 0
80 -199 351 0
78 -134 -191 0
242 -401 467 0
-237 285 -365 0
29 -86 96 0
-110 168 201 0
-357 361 362 0
-210 218 317 0
-101 -224 -448 0
-202 -329 -344 0
52 -276 -461 0
111 -222 241 0
457 490 -494 0
125 145 -179 0
210 401 -451 0
-188 -322 -391 0
17 242 -286 0
48 -143 -273 0
408 -412 -495 0
-259 277 -301 0
-66 187 269 0
-93 123 335 0
40 -62 402 0
-67 -78 311 0
-80 -162 241 0
361 484 487 0
-184 263 -452 0
343 -350 481 0
-2 345 477 0
34 194 223 0
214 -271 -330 0
94 -343 395 0
-112 307 356 0
304 -390 -477 0
167 195 438 0
-155 -189 -271 0
302 -316 497 0
-18 249 488 0
100 -191 -418 0
-219 -313 -344 0
206 207 -398 0
86 -295 398 0
-192 -230 -438 0
-85 185 198 0
23 -334 -481 0
-163 223 363 0
101 146 251 0
38 52 -347 0
423 -446 486 0
39 -259 -422 0
163 -166 248 0
97 120 170 0
-316 380 -463 0
240 -284 -326 0
80 316 -395 0
66 450 -473 0
8 -325 -398 0
265 426 -469 0
-142 155 447 0
16 -169 -231 0
-411 466 -484 0
253 -312 -323 0
-123 -164 -275 0
-221 -241 426 0
348 366 454 0
216 249 -478 0
-24 91 500 0
64 122 498 0
91 125 -451 0
-105 341 -468 0
101 -114 -409 0
57 -303 307 0
-246 261 416 0
20 -24 -162 0
-78 403 431 0
-113 213 320 0
406 -426 446 0
206 217 482 0
-25 257 -495 0
-77 -318 465 0
-91 -191 -192 0
-123 -169 303 0
-49 182 349 0
-225 -252 449 0
-57 196 -215 0
-105 -187 234 0
-110 -405 470 0
-28 -410 -443 0
-215 232 240 0
-209 371 -448 0
27 -169 426 0
-85 129 478 0
-147 -321 -467 0
-119 127 316 0
281 -429 -460 0
14 233 -292 0
135 -222 310 0
-85 261 412 0
79 -307 409 0
-100 -274 307 0
-143 242 -429 0
249 367 -467 0
119 360 463 0
-33 103 143 0
221 418 -464 0
97 102 493 0
87 -137 -428 0
71 -130 -242 0
-53 -280 -388 0
102 -189 -476 0
388 405 445 0
-122 137 -376 0
-103 -106 453 0
-239 333 499 0
-227 -285 -350 0
178 286 299 0
-145 -177 -268 0
366 -464 -472 0
214 -305 -461 0
-89 -235 -283 0
-15 -59 407 0
241 -368 -470 0
33 -182 242 0
3 -251 -475 0
194 -277 -288 0
95 -212 -479 0
141 341 -401 0
149 -309 324 0
-89 165 344 0
382 456 477 0
44 -79 318 0
-24 -81 448 0
-353 -376 457 0
25 281 -495 0
6 65 355 0
438 448 -455 0
320 -341 391 0
-26 278 -462 0
-129 -164 356 0
157 -199 433 0
74 -307 309 0
75 -207 408 0
218 -251 -423 0
35 98 -434 0
-69 109 469 0
75 126 409 0
24 -394 469 0
49 -183 392 0
139 436 -497 0
-151 -302 398 0
48 330 -481 0
141 -190 461 0
243 327 361 0
-51 -207 265 0
12 132 443 0
242 -344 -370 0
237 -278 446 0
68 297 377 0
-112 261 -285 0
-418 447 -487 0
113 248 -388 0
-71 154 -363 0
41 -66 361 0
39 -282 437 0
-177 273 296 0
-26 96 167 0
88 444 500 0
-26 468 -471 0
225 -328 -440 0
61 -62 -133 0
-320 330 -398 0
-304 -327 -432 0
309 -411 443 0
289 -313 -465 0
160 189 267 0
15 199 -331 0
52 -397 412 0
95 308 -310 0
-6 -187 -285 0
-26 248 -480 0
148 328 -405 0
-7 303 -392 0
-214 275 -499 0
-218 -236 -323 0
396 -422 -471 0
176 230 371 0
-243 267 -427 0
91 -100 431 0
-114 -367 -434 0
-78 -187 258 0
-75 123 223 0
-400 431 464 0
108 -174 -332 0
-226 -320 444 0
106 287 369 0
-56 -173 -450 0
-164 185 251 0
-193 332 370 0
25 43 -391 0
-125 -155 -377 0
-177 -415 455 0
87 291 -316 0
-147 -185 230 0
47 57 -221 0
80 -127 214 0
55 146 -413 0
273 -308 386 0
15 490 493 0
173 -339 -474 0
277 290 -467 0
91 -164 -406 0
-10 333 -346 0
-46 -219 -230 0
-104 178 357 0
51 -268 347 0
-8 177 324 0
224 265 331 0
89 237 -370 0
100 444 484 0
33 -426 -449 0
223 -297 463 0
247 256 322 0
93 263 399 0
-285 -405 -417 0
-144 218 -468 0
-39 -280 297 0
73 -218 285 0
154 403 -413 0
-190 -374 -392 0
99 415 -465 0
-87 295 333 0
-130 177 329 0
100 -186 452 0
87 -269 388 0
-167 214 479 0
121 -483 487 0
138 -143 240 0
54 -320 434 0
-170 -190 -454 0
-57 -386 -451 0
-61 -76 336 0
22 -64 368 0
243 385 471 0
-35 56 -314 0
195 -298 -325 0
-215 -253 -450 0
250 342 477 0
265 -417 -475 0
241 -348 494 0
217 -240 260 0
29 -44 -169 0
-86 141 431 0
-74 -210 -338 0
-312 423 -486 0
184 -242 470 0
151 177 -280 0
108 246 396 0
-421 -424 499 0
-77 -333 432 0
210 242 -446 0
-141 -429 -459 0
-36 -153 -314 0
-143 -151 -189 0
-2 -193 215 0
1 -168 -316 0
7 -87 348 0
159 335 -369 0
15 -33 128 0
-121 165 -409 0
-254 257 -446 0
76 -148 -379 0
8 279 424 0
98 -195 -447 0
60 283 -408 0
-10 95 -300 0
-151 -290 -384 0
-135 383 -434 0
-88 126 279 0
159 -208 293 0
-173 -300 -423 0
-33 -317 -438 0
-268 -284 -329 0
-240 371 -383 0
-4 -232 439 0
152 -333 397 0
-32 236 -422 0
-16 -34 -237 0
144 -230 -427 0
-82 105 129 0
-77 103 189 0
-105 364 455 0
34 93 244 0
-113 161 -178 0
97 288 -393 0
-50 -198 -256 0
93 255 349 0
2 214 406 0
-68 156 -227 0
108 393 486 0
175 194 490 0
-158 369 -408 0
-56 161 444 0
-245 -285 496 0
-294 365 433 0
80 138 -177 0
432 -473 488 0
-3 -275 -434 0
-35 -36 -335 0
273 404 -497 0
-222 252 -314 0
-34 297 -306 0
50 -137 294 0
74 -157 311 0
-264 309 324 0
-217 -341 460 0
-179 229 472 0
-103 268 -326 0
212 -227 312 0
126 -242 -377 0
-274 -410 -478 0
175 -320 -338 0
-38 74 -211 0
-38 -63 -480 0
160 173 -243 0
-12 334 -445 0
-205 240 -481 0
161 -212 286 0
124 370 379 0
-149 -422 436 0
204 -309 -431 0
-106 171 -486 0
24 218 -467 0
198 297 -478 0
-10 64 466 0
40 -379 397 0
-105 183 -199 0
19 450 -485 0
-144 -290 299 0
257 333 -444 0
-3 408 480 0
-74 -216 456 0
-47 161 -237 0
-211 239 319 0
50 352 440 0
235 416 421 0
-91 103 298 0
132 377 -472 0
-251 -333 -398 0
-46 463 -496 0
-10 147 -270 0
-31 59 200 0
-107 -118 -454 0
-194 481 -486 0
358 -473 474 0
27 257 -274 0
-9 -72 -311 0
11 323 -496 0
-214 -274 334 0
114 -230 -355 0
-44 -284 -341 0
-3 -69 -325 0
-5 132 193 0
23 -427 -499 0
86 113 -201 0
-67 -297 -493 0
-10 -118 227 0
228 -405 -434 0
83 -233 373 0
-98 -99 273 0
179 208 -410 0
173 180 409 0
-82 233 -305 0
-199 265 273 0
69 78 -158 0
36 175 -225 0
-96 152 208 0
55 -281 -385 0
212 -380 390 0
-212 214 -300 0
21 93 -441 0
-127 179 -265 0
-68 -302 -386 0
-110 178 296 0
-44 -238 -296 0
159 -276 366 0
212 350 364 0
-160 -293 -367 0
-116 -216 -273 0
26 -215 -279 0
133 -227 -357 0
-22 198 387 0
-28 -312 -431 0
-319 -320 492 0
221 -297 -418 0
-112 271 493 0
-310 -325 468 0
-11 29 -401 0
-161 414 419 0
-148 -496 -499 0
-81 -82 416 0
-41 -309 357 0
-16 -296 372 0
111 -154 -172 0
227 -474 483 0
90 -118 -251 0
-52 -253 281 0
-110 -128 318 0
31 87 235 0
-78 170 -456 0
237 -277 492 0
-41 -63 93 0
-309 400 469 0
90 115 232 0
130 -200 -439 0
-86 -164 -446 0
343 -344 356 0
55 -115 -207 0
-15 -89 425 0
35 -87 130 0
81 -368 -419 0
28 67 256 0
-134 -420 -485 0
-354 -396 -483 0
18 119 327 0
-295 -314 492 0
77 -80 -473 0
-158 -250 -414 0
66 -162 -343 0
-301 -302 -366 0
-193 235 339 0
23 131 -462 0
-73 -156 181 0
444 -476 -488 0
-56 -219 443 0
-69 76 256 0
-137 200 -266 0
108 150 -490 0
-362 481 -499 0
265 -325 355 0
62 -458 -473 0
-224 -268 434 0
-156 -407 410 0
99 241 382 0
44 52 -442 0
-132 233 251 0
143 147 432 0
39 86 147 0
-198 -465 -476 0
-59 -202 303 0
-53 -110 -461 0
54 78 -288 0
-254 397 420 0
288 -370 413 0
14 -113 -288 0
9 122 -159 0
-99 -252 -488 0
325 -357 417 0
-23 -104 -302 0
142 -303 -380 0
86 -389 -454 0
-21 366 -434 0
78 -96 -247 0
-33 76 215 0
150 339 -419 0
-58 325 420 0
-167 -193 274 0
10 26 51 0
15 108 317 0
49 291 -396 0
-8 411 444 0
2 119 -251 0
-87 -364 -411 0
-158 -195 -360 0
-160 -325 -436 0
-214 245 260 0
24 160 -488 0
-177 262 -474 0
327 -419 -492 0
-23 463 466 0
-5 -73 -411 0
-139 186 -453 0
267 -282 343 0
171 -363 497 0
100 303 -474 0
-125 -258 -327 0
117 268 292 0
-21 -185 -263 0
-164 418 481 0
135 347 -467 0
49 -218 392 0
81 86 291 0
4 -262 -283 0
25 -56 210 0
238 -262 -347 0
171 263 294 0
-167 198 -293 0
281 320 388 0
43 -169 404 0
-47 424 493 0
39 -71 334 0
-182 -275 -497 0
123 136 -477 0
63 -402 -475 0
-81 -86 -269 0
-35 -128 408 0
-10 -407 -471 0
309 -337 423 0
121 -409 453 0
177 192 250 0
68 -450 -472 0
9 -237 -363 0
-47 215 -274 0
87 -301 383 0
-83 294 -352 0
142 -260 330 0
-7 -78 208 0
175 -181 268 0
-81 -434 484 0
26 105 -338 0
-85 -99 204 0
-100 232 365 0
-207 -377 483 0
2 -191 216 0
-143 -221 314 0
66 -93 -403 0
-33 -293 456 0
-68 219 391 0
33 138 424 0
-242 -405 469 0
-173 -315 372 0
-135 318 -342 0
-103 -418 474 0
62 330 -443 0
-9 -235 323 0
-69 -113 -402 0
-124 -129 443 0
-13 -228 -319 0
-50 83 125 0
294 380 471 0
-46 271 -309 0
-105 -251 -356 0
-49 134 -334 0
-202 -256 -330 0
329 -380 -416 0
-333 -441 457 0
-247 291 -334 0
-58 81 227 0
-57 395 428 0
-33 110 309 0
-43 -74 279 0
-271 -363 -490 0
-74 -328 462 0
-30 -203 -297 0
-104 -155 -478 0
369 -380 -484 0
-119 -176 373 0
-40 194 275 0
-28 -107 478 0
-102 -255 363 0
-163 -175 330 0
-65 85 86 0
119 156 442 0
24 -364 -381 0
90 354 -477 0
301 -489 498 0
175 -339 -486 0
236 -333 -405 0
-51 174 -217 0
-150 -326 -332 0
142 -177 471 0
19 252 -459 0
206 377 -430 0
-18 -287 426 0
86 -376 -461 0
103 -223 -369 0
-175 -195 -277 0
208 281 367 0
-24 -99 327 0
-140 196 -438 0
-97 -137 -479 0
-86 270 -367 0
-97 100 -309 0
-59 -184 -273 0
-86 -113 -364 0
244 -254 430 0
-116 246 378 0
-23 448 452 0
-119 -303 -444 0
53 -162 368 0
129 262 413 0
-139 -316 396 0
113 -257 373 0
-40 160 -217 0
169 394 466 0
-12 170 479 0
265 322 -332 0
-206 308 -428 0
-9 -104 -362 0
-9 149 173 0
22 -203 -469 0
207 249 -432 0
52 393 489 0
-43 -320 -325 0
72 148 200 0
17 114 487 0
-176 182 -326 0
-265 355 436 0
-109 253 -471 0
16 -197 465 0
234 -286 449 0
52 172 300 0
444 -468 499 0
-52 245 296 0
181 392 450 0
-129 -162 -406 0
-231 332 -376 0
61 -218 -469 0
24 118 194 0
-10 181 443 0
40 188 465 0
-148 -281 348 0
76 201 316 0
-17 130 -261 0
-13 -270 340 0
3 -69 172 0
-188 449 -452 0
-48 -272 -311 0
219 309 -386 0
-90 294 -435 0
-76 -90 236 0
289 401 494 0
-2 311 -370 0
-191 -244 498 0
62 288 494 0
361 409 449 0
-181 230 276 0
115 -471 482 0
104 353 -478 0
149 411 443 0
60 176 -268 0
-80 178 -294 0
63 98 175 0
-74 148 -450 0
-58 -114 243 0
349 -466 -498 0
-224 -294 350 0
-111 -170 277 0
233 -308 -465 0
6 -244 316 0
176 326 489 0
104 382 430 0
-82 339 452 0
-324 -361 -407 0
139 -191 -415 0
208 294 322 0
23 45 452 0
-73 -234 -282 0
180 -205 280 0
-243 -340 384 0
-42 -116 182 0
-147 -238 -489 0
169 -221 247 0
42 -320 393 0
-70 302 -443 0
-155 -188 -323 0
160 350 -392 0
-155 324 354 0
-416 -432 -459 0
-12 -141 -183 0
19 -27 421 0
-61 -189 217 0
-79 103 -144 0
108 -202 357 0
-173 253 -275 0
-160 203 406 0
66 153 -464 0
116 269 -327 0
120 206 -313 0
-122 260 401 0
-85 -93 157 0
3 103 -211 0
16 -213 -379 0
160 189 -427 0
-197 245 437 0
14 -180 450 0
175 434 454 0
220 240 -250 0
233 -387 -462 0
-12 348 409 0
-278 320 -369 0
123 -194 -495 0
152 -160 315 0
11 217 -241 0
210 398 -437 0
167 206 -327 0
-115 -183 -347 0
-15 314 422 0
109 -153 333 0
4 91 353 0
-235 313 464 0
3 -215 339 0
-185 374 -420 0
-29 -293 313 0
41 117 -475 0
244 300 -339 0
74 256 326 0
283 -300 467 0
32 180 -355 0
-37 -71 337 0
-155 171 -421 0
438 468 483 0
-18 238 257 0
340 411 491 0
-168 -178 -306 0
338 -361 -478 0
167 178 369 0
242 329 378 0
-147 165 -401 0
101 -235 384 0
89 271 357 0
-212 282 -399 0
-274 -427 490 0
319 428 491 0
-65 -351 486 0
275 -286 -303 0
196 254 288 0
157 -295 420 0
-75 236 404 0
-106 164 -340 0
-218 -225 -363 0
162 179 -493 0
-162 -278 -306 0
-59 344 -365 0
-146 166 -453 0
-71 -286 370 0
-41 64 498 0
-275 -325 -327 0
-116 -255 -405 0
-63 -404 452 0
452 -479 -487 0
-81 132 182 0
114 -367 -465 0
-176 -447 -450 0
-89 186 242 0
300 308 486 0
33 -44 -350 0
164 370 494 0
20 151 439 0
315 -416 462 0
-146 307 484 0
81 -131 328 0
-2 -410 451 0
358 433 436 0
-329 -345 -448 0
-200 -223 237 0
-254 256 -422 0
124 301 352 0
109 -142 280 0
-179 -401 411 0
115 -232 287 0
55 170 -402 0
135 -178 283 0
212 -313 474 0
26 61 381 0
65 321 -429 0
196 384 -449 0
168 -232 456 0
-212 282 -449 0
-259 -312 -331 0
-134 396 -476 0
-126 213 307 0
-320 327 -397 0
-159 -236 -322 0
157 202 244 0
240 397 -499 0
-143 -239 -450 0
-157 -279 314 0
-127 236 -473 0
139 -167 312 0
-123 -170 -202 0
-17 153 -409 0
-102 145 -298 0
-223 -268 298 0
-106 -309 431 0
146 282 455 0
-36 62 -493 0
78 198 269 0
-171 366 -445 0
-93 -99 -260 0
169 350 -361 0
-20 -229 348 0
-26 -262 344 0
-288 327 448 0
-17 -61 138 0
241 354 460 0
283 -342 -416 0
35 -479 -487 0
286 -317 -452 0
-9 -199 489 0
-184 278 -492 0
44 -84 409 0
-5 230 480 0
17 -488 494 0
-95 141 257 0
323 -361 406 0
69 186 -231 0
-303 330 -331 0
-50 -109 291 0
353 421 428 0
-272 404 446 0
-112 -359 -467 0
132 207 461 0
18 -166 -384 0
316 -325 451 0
-91 104 371 0
-151 -188 273 0
-37 62 -235 0
157 313 -485 0
-75 -298 492 0
-85 -252 427 0
-88 -328 -354 0
-96 250 369 0
-185 305 -466 0
-15 255 -337 0
110 236 -424 0
-123 154 276 0
-363 -365 -452 0
-207 -446 456 0
-32 210 453 0
-127 164 466 0
35 -133 -224 0
8 -343 495 0
-18 -123 -224 0
-57 -274 372 0
30 -154 225 0
-105 -300 308 0
215 351 -412 0
289 403 457 0
-269 -274 -445 0
244 -263 401 0
-128 -267 -394 0
100 340 416 0
-199 -227 -479 0
-62 -326 408 0
98 -464 480 0
-30 380 406 0
-122 -137 375 0
-150 293 -401 0
100 -116 342 0
70 -232 485 0
142 -244 -304 0
-57 60 87 0
85 119 274 0
-56 230 300 0
-163 200 -212 0
-308 -378 403 0
229 267 -292 0
224 375 -394 0
156 -438 451 0
154 422 470 0
