p cnf 500 2129
-110 -170 375 0
362 401 435 0
216 -353 439 0
310 -402 -438 0
89 273 -329 0
-114 267 364 0
31 -390 500 0
-5 -73 304 0
238 -255 402 0
59 -380 -472 0
-201 221 381 0
-41 -72 -113 0
179 -213 -332 0
-111 324 456 0
-188 -290 451 0
100 265 -309 0
-20 -23 70 0
-258 -329 387 0
50 333 -412 0
117 -312 -482 0
212 368 -383 0
71 89 -375 0
-64 274 446 0
-87 -258 -396 0
7 -118 -132 0
92 282 460 0
62 -269 480 0
-25 -37 57 0
1 19 -164 0
-162 -284 -398 0
-62 342 417 0
-10 458 -494 0
108 265 -296 0
251 306 -489 0
241 -360 494 0
-43 -73 -386 0
296 -411 455 0
-341 404 457 0
-226 360 438 0
46 -239 -397 0
-84 -183 -192 0
11 -214 359 0
-70 197 476 0
-133 156 -215 0
58 -294 403 0
3 105 -208 0
137 355 356 0
278 357 -474 0
118 269 -373 0
-138 316 445 0
237 -286 -352 0
47 -217 -344 0
7 73 291 0
-179 249 481 0
-105 163 -315 0
-247 289 470 0
-163 -376 448 0
308 -358 488 0
-92 -96 -170 0
-100 -242 492 0
-228 -265 334 0
24 194 -370 0
-252 286 311 0
71 -124 -481 0
-44 148 -154 0
127 285 -453 0
230 474 495 0
-76 -343 462 0
10 256 285 0
-32 327 406 0
165 200 320 0
42 206 265 0
30 -216 326 0
-171 -272 411 0
-90 243 326 0
341 450 463 0
156 -167 -397 0
-172 -246 484 0
-177 -398 424 0
-95 -105 140 0
-15 -51 126 0
179 -204 -271 0
-201 206 425 0
92 423 -488 0
-143 274 -326 0
89 -95 -384 0
-105 265 307 0
17 203 467 0
-18 -274 -360 0
51 -439 449 0
-107 -386 -460 0
150 -348 437 0
-18 101 399 0
-235 398 430 0
-179 200 337 0
453 -460 485 0
148 428 455 0
148 -386 -448 0
203 403 473 0
-269 314 453 0
-355 489 -500 0
174 177 -421 0
219 -228 450 0
-137 416 457 0
36 -443 468 0
11 30 324 0
134 162 -233 0
95 213 -347 0
-268 280 -329 0
251 277 -316 0
-40 267 -270 0
-336 -402 453 0
-13 -198 -256 0
196 -412 -435 0
141 -309 435 0
108 335 -481 0
-10 -120 184 0
264 265 414 0
-9 -32 -374 0
65 -286 458 0
229 339 -486 0
173 190 306 0
-389 394 -448 0
6 -204 -360 0
230 277 -278 0
191 436 452 0
-196 215 -293 0
-205 210 498 0
12 92 321 0
311 -327 -420 0
139 -142 -193 0
82 149 204 0
-82 119 339 0
37 -353 -439 0
62 436 -498 0
338 368 460 0
86 -319 486 0
7 -358 -407 0
194 286 -496 0
194 -290 292 0
88 -256 -285 0
124 -230 431 0
-185 -343 -410 0
126 311 495 0
101 -193 -252 0
137 200 -396 0
88 -109 -178 0
-42 -402 436 0
-280 -305 395 0
-32 -317 319 0
10 -309 -407 0
-118 383 452 0
277 -366 -390 0
-394 428 -455 0
157 -220 -313 0
-270 327 -352 0
62 -370 -372 0
135 -293 -295 0
-148 -323 339 0
-22 295 -323 0
-12 -317 446 0
6 91 -95 0
-104 -210 -443 0
-62 -158 -487 0
-54 315 374 0
66 105 -152 0
-114 -387 -442 0
58 -79 -360 0
-110 193 490 0
5 168 171 0
343 -353 377 0
-142 396 480 0
-245 260 -378 0
-327 482 489 0
-140 179 -359 0
-196 -300 -323 0
259 280 324 0
140 191 328 0
-11 -200 474 0
60 -77 143 0
-117 319 391 0
-52 188 208 0
111 412 -422 0
155 230 -369 0
-273 346 453 0
-80 266 312 0
-267 311 -490 0
196 -242 383 0
-281 315 -393 0
-45 87 -125 0
166 -291 -361 0
236 258 -279 0
12 315 -430 0
27 -56 -329 0
82 216 -303 0
227 280 488 0
-74 -194 -448 0
23 -116 319 0
244 250 -351 0
276 -279 450 0
40 104 451 0
46 328 385 0
19 -224 362 0
20 -353 -357 0
-16 -164 -403 0
7 156 337 0
112 316 411 0
78 233 -279 0
35 176 257 0
118 -182 -285 0
8 -434 496 0
-47 -79 -360 0
139 141 -436 0
-19 -351 -410 0
-9 37 -396 0
86 220 251 0
254 352 446 0
-6 -308 -475 0
-16 -62 -418 0
109 176 -196 0
189 310 -461 0
12 299 489 0
-116 145 271 0
85 -121 174 0
-26 -114 -128 0
-36 -125 452 0
-61 123 223 0
-52 216 -455 0
112 206 381 0
-146 -266 -377 0
-16 -104 -288 0
-173 -225 448 0
-59 -138 159 0
-12 -184 -476 0
79 -403 -424 0
10 19 -240 0
-74 134 -229 0
214 347 -494 0
148 149 -435 0
123 -339 480 0
-14 -152 -374 0
277 -278 284 0
19 -48 -114 0
-6 -159 -308 0
42 -117 225 0
50 -336 -404 0
88 338 408 0
-26 -69 80 0
-15 334 406 0
-86 361 -362 0
-384 -438 492 0
-148 384 -435 0
-125 270 400 0
-52 147 -492 0
-137 -158 -402 0
-73 356 463 0
-117 -142 -340 0
10 -315 -334 0
-35 -225 232 0
-11 -28 -50 0
235 241 270 0
-439 -459 496 0
288 -291 -438 0
-314 422 430 0
-71 245 -449 0
-76 -79 -282 0
22 379 391 0
216 284 -352 0
-103 -117 -383 0
-61 -225 -340 0
-205 -215 -282 0
139 -210 -436 0
16 120 465 0
190 -235 379 0
84 137 -302 0
-128 293 -500 0
370 385 440 0
23 -60 95 0
260 268 368 0
-17 -377 459 0
-57 -336 -461 0
-290 -320 -361 0
57 -151 427 0
-263 279 -351 0
129 156 377 0
167 360 404 0
-179 241 -487 0
-17 -169 378 0
202 396 473 0
-131 332 462 0
96 171 324 0
-230 262 -491 0
41 361 436 0
36 138 -147 0
171 -260 -461 0
-18 -144 490 0
-2 110 454 0
193 -389 392 0
-128 440 -466 0
-62 308 -410 0
-84 186 431 0
-27 106 -294 0
-55 151 -408 0
-92 -384 486 0
-58 -84 146 0
-176 284 440 0
-341 401 -474 0
-257 281 331 0
126 460 493 0
-2 -79 -336 0
12 -267 380 0
179 -227 234 0
-170 372 -474 0
41 -252 -341 0
29 -199 222 0
265 -395 -406 0
-150 -267 414 0
143 -269 375 0
32 -266 -379 0
118 234 -458 0
-147 -168 448 0
-23 -147 461 0
-23 60 83 0
-105 -252 425 0
-12 -283 -479 0
326 425 -429 0
21 -170 -189 0
32 -154 430 0
150 -344 415 0
-27 37 -461 0
95 108 470 0
-93 -102 -267 0
101 -125 144 0
24 -133 370 0
-114 336 400 0
-12 -113 -197 0
-108 -264 -424 0
-89 -257 348 0
-88 -129 -282 0
162 184 -251 0
-102 151 -263 0
46 304 368 0
-84 373 -493 0
-100 242 -334 0
23 286 299 0
-35 178 266 0
6 92 428 0
1 98 -185 0
35 128 276 0
12 -184 -487 0
-40 -265 387 0
181 233 -266 0
-282 -404 -483 0
435 437 -496 0
33 -262 403 0
-205 -227 360 0
-103 116 442 0
-235 -358 369 0
-24 135 -149 0
152 -234 327 0
243 289 -492 0
-203 247 402 0
97 -415 494 0
55 -147 278 0
-36 -175 212 0
-142 218 362 0
-155 -279 -417 0
-106 410 -467 0
45 -322 -379 0
48 116 268 0
183 -216 492 0
272 292 478 0
233 -265 424 0
40 -99 252 0
-52 114 127 0
71 226 -232 0
-130 -412 -485 0
-72 -284 -415 0
87 104 467 0
87 -158 301 0
-291 316 -484 0
437 458 -487 0
360 386 -418 0
28 -48 357 0
-137 -295 492 0
-126 -229 -396 0
-68 -207 -318 0
295 395 -497 0
214 -430 -466 0
-147 -316 360 0
-148 412 -481 0
-67 -267 -432 0
-75 -112 372 0
-117 234 -277 0
242 262 -312 0
112 -146 262 0
92 -265 -291 0
-161 283 284 0
324 399 455 0
-111 360 -451 0
-1 231 450 0
331 -384 459 0
29 443 497 0
-243 -342 455 0
-230 375 -451 0
20 168 -319 0
103 -221 -266 0
209 247 308 0
60 233 -413 0
-292 347 -371 0
3 -274 299 0
121 -159 -161 0
-49 -326 -390 0
40 319 426 0
-17 265 360 0
-115 -190 463 0
94 -405 444 0
193 -222 368 0
229 -308 447 0
-341 344 -412 0
-109 -138 175 0
-122 240 327 0
-18 26 -36 0
-270 -461 480 0
218 293 -393 0
47 -71 354 0
189 -301 -465 0
66 -152 -349 0
-77 220 -380 0
7 361 -444 0
-126 -297 462 0
-291 -308 -370 0
105 -265 -287 0
38 204 -475 0
-87 -311 -422 0
309 -325 454 0
-18 141 -360 0
-178 247 404 0
-112 126 -283 0
259 -307 -411 0
55 -179 -208 0
189 -220 -389 0
26 206 420 0
41 162 166 0
-216 -412 485 0
-282 348 477 0
-107 -311 -465 0
120 -203 -430 0
-284 -330 495 0
-67 -71 389 0
82 -104 -305 0
79 -166 414 0
-62 -98 -100 0
115 216 373 0
-139 306 -451 0
-153 -285 427 0
-92 -302 347 0
-36 -333 365 0
-162 361 -467 0
11 27 261 0
-107 -282 415 0
89 -217 498 0
-122 270 -485 0
109 -199 -469 0
-224 341 -493 0
-185 -266 -446 0
-34 159 367 0
-14 138 487 0
151 -446 -461 0
137 457 464 0
-187 -217 459 0
-31 -242 -474 0
-1 73 -214 0
103 -166 379 0
-33 242 435 0
2 143 -152 0
-51 169 -283 0
23 246 -476 0
-316 -357 457 0
-28 121 -301 0
158 281 -478 0
115 -116 -397 0
144 -284 432 0
124 -176 189 0
215 326 -406 0
191 -283 -398 0
-31 331 -368 0
-42 70 462 0
194 -226 -423 0
75 -131 387 0
325 370 -400 0
-23 184 356 0
136 -223 338 0
243 260 283 0
3 -160 361 0
-11 -34 295 0
96 252 -423 0
-153 335 -402 0
93 -164 429 0
-8 -64 -80 0
39 143 253 0
205 242 284 0
271 -285 -301 0
-84 439 -451 0
-272 -285 456 0
-169 174 -289 0
-17 -74 -449 0
163 -351 496 0
-195 -437 -470 0
-26 -148 -310 0
-35 192 442 0
412 -476 -481 0
60 250 -493 0
7 30 269 0
-22 -190 258 0
-166 -285 402 0
314 368 460 0
127 138 427 0
148 171 386 0
288 -448 -498 0
-53 -406 425 0
-19 435 -499 0
74 -141 460 0
187 387 465 0
278 352 461 0
-56 -161 -384 0
-43 66 -310 0
16 190 -231 0
-49 268 379 0
187 -263 363 0
363 -431 -491 0
-59 332 -485 0
-247 -331 339 0
-137 173 176 0
12 -63 -235 0
-41 -76 283 0
7 256 496 0
-34 -277 -459 0
106 -124 -128 0
36 199 422 0
62 -344 470 0
45 379 -500 0
-68 -106 233 0
136 447 498 0
29 120 493 0
431 -435 446 0
-47 -374 389 0
105 216 307 0
106 266 343 0
8 -121 353 0
-162 282 -483 0
205 -282 427 0
-1 -113 148 0
-89 238 -456 0
35 -198 -255 0
-3 -9 361 0
-61 113 -491 0
-51 -192 -215 0
-79 293 455 0
-303 -329 436 0
-8 -74 441 0
-360 -407 -440 0
-146 283 470 0
-60 87 -276 0
-33 167 -460 0
-84 -128 184 0
-65 -126 196 0
156 -239 -335 0
-71 196 -358 0
-121 -146 -479 0
-134 -312 -403 0
-53 -454 -493 0
-115 135 474 0
-285 300 -453 0
99 425 -455 0
111 145 389 0
322 456 462 0
55 -140 -477 0
147 -201 235 0
47 347 483 0
319 -360 -473 0
-68 -206 -241 0
-110 120 459 0
-87 -100 -403 0
-192 -247 252 0
-168 -235 -289 0
223 -338 349 0
2 72 191 0
-74 383 454 0
15 64 -80 0
-258 -316 385 0
-3 148 -334 0
13 59 -301 0
273 -301 -309 0
31 -165 481 0
-144 335 425 0
346 -355 -381 0
-69 79 264 0
10 76 -275 0
250 -275 278 0
-57 -62 356 0
-103 379 398 0
161 -346 404 0
-55 -267 327 0
139 262 374 0
220 244 -300 0
67 89 254 0
-44 408 -440 0
171 -332 346 0
94 110 -371 0
-222 261 -393 0
-122 297 -364 0
39 264 -319 0
-26 69 -192 0
-223 -392 480 0
-238 253 -331 0
-58 200 301 0
284 -402 -454 0
-53 138 484 0
161 -248 -500 0
35 -329 -456 0
111 208 -381 0
23 -228 -459 0
-188 -246 -266 0
-227 305 -326 0
-37 398 421 0
73 -149 476 0
-303 -333 -354 0
60 220 -279 0
292 439 487 0
-83 287 486 0
76 -256 -414 0
310 314 -443 0
-177 307 -346 0
24 -139 -194 0
95 -167 486 0
-24 -53 312 0
49 -170 311 0
182 401 -487 0
-350 384 489 0
-135 -153 -247 0
-147 163 -362 0
134 316 372 0
5 106 -188 0
-46 276 479 0
37 45 349 0
91 -292 -462 0
-110 275 426 0
70 -151 -461 0
-86 314 -428 0
-20 -44 -455 0
-93 -333 456 0
-58 131 390 0
-257 -385 495 0
126 143 279 0
-153 -200 -459 0
-64 206 -486 0
-116 167 -232 0
103 -262 -309 0
-379 -406 -491 0
213 -379 -387 0
-23 -122 299 0
5 -286 334 0
-78 -277 433 0
-25 -87 306 0
240 -243 385 0
-375 465 488 0
-206 293 339 0
111 -465 473 0
-151 -290 342 0
-106 -218 -430 0
120 -351 -394 0
127 -198 -357 0
63 392 -483 0
185 303 313 0
32 -286 -331 0
101 269 384 0
33 339 345 0
231 260 -480 0
-310 -422 434 0
-96 226 -418 0
-234 329 496 0
-69 127 -290 0
167 270 -333 0
-70 456 -458 0
-190 458 -482 0
150 -277 -498 0
-3 -348 424 0
141 286 477 0
202 -311 414 0
-80 -151 -430 0
-35 85 338 0
-86 -201 -410 0
-105 202 -247 0
53 -191 364 0
170 219 -322 0
121 -360 -376 0
-135 190 280 0
246 445 478 0
240 -415 478 0
386 -464 -470 0
214 -251 276 0
20 153 -156 0
238 321 -490 0
-103 -261 350 0
96 -153 267 0
-10 -26 224 0
118 -194 -400 0
7 -375 485 0
-110 318 489 0
26 -353 415 0
50 -185 -444 0
11 299 446 0
22 182 -189 0
135 -234 -342 0
88 258 -382 0
-28 -226 -282 0
150 378 -438 0
-189 -265 410 0
-192 224 -360 0
-10 302 487 0
96 -190 -202 0
154 -169 -352 0
-59 145 240 0
344 -355 381 0
120 -247 -496 0
119 -162 362 0
-46 -122 173 0
166 351 446 0
-230 -324 447 0
-133 185 -462 0
-363 -427 450 0
51 282 -313 0
-11 42 -353 0
-39 -103 299 0
354 -400 -470 0
115 -306 435 0
375 386 -462 0
-52 -58 -423 0
54 -152 -335 0
-63 81 -476 0
-2 44 69 0
210 248 386 0
-25 -208 490 0
133 442 -474 0
240 -318 -417 0
72 216 -266 0
269 -391 475 0
-155 -278 -460 0
-2 328 488 0
28 -269 -427 0
137 -294 -296 0
21 267 358 0
146 -377 -441 0
-53 387 465 0
140 -162 -243 0
344 -385 -466 0
-40 107 160 0
24 -133 281 0
137 -312 375 0
10 189 425 0
45 -121 373 0
-69 346 -464 0
249 -315 471 0
80 172 -416 0
193 355 375 0
-280 -374 439 0
-210 249 -446 0
-60 -269 385 0
-312 385 -481 0
167 357 393 0
52 287 -354 0
137 225 389 0
-156 -227 358 0
43 174 -194 0
94 173 272 0
-4 -128 172 0
-130 -205 275 0
-10 -95 -462 0
-139 374 402 0
-16 291 488 0
138 307 -399 0
-130 -231 417 0
-30 -302 354 0
-254 -456 483 0
251 386 -467 0
5 -219 -299 0
156 312 483 0
161 -203 -348 0
321 434 -489 0
25 242 -357 0
-259 300 346 0
167 -239 320 0
-45 -191 -294 0
-67 70 -389 0
53 108 -223 0
299 -355 498 0
124 150 -161 0
-38 -191 -414 0
-79 232 -312 0
74 -86 300 0
-159 232 404 0
-142 -160 -353 0
-230 302 373 0
-413 433 -496 0
-70 -113 368 0
268 -273 288 0
87 348 355 0
78 -144 -350 0
-147 235 494 0
243 290 -451 0
-32 -439 463 0
-251 -266 -381 0
27 -153 158 0
30 -212 439 0
-116 -277 462 0
-58 373 386 0
-30 250 -441 0
33 134 435 0
77 -263 -341 0
-188 -242 275 0
-44 213 252 0
88 -223 255 0
-114 -375 381 0
191 246 -422 0
43 190 -298 0
-101 238 264 0
57 -215 242 0
-144 147 388 0
-86 -362 373 0
-102 154 -479 0
-23 29 -311 0
8 345 -456 0
158 243 319 0
75 -99 420 0
24 -129 -360 0
93 -306 361 0
-98 108 364 0
153 -204 336 0
197 -205 -249 0
290 321 -462 0
-7 -173 -411 0
78 -93 -209 0
207 -225 398 0
149 160 495 0
36 298 446 0
180 -222 -479 0
-252 -257 409 0
83 158 -391 0
63 228 250 0
252 329 -443 0
67 -393 -409 0
-349 -376 439 0
34 -55 -99 0
-51 -84 -169 0
135 170 -473 0
125 165 260 0
-183 356 -439 0
-415 429 -497 0
85 199 252 0
82 -97 -459 0
-104 -143 -326 0
-120 249 500 0
84 -172 -436 0
-12 413 -443 0
-371 -472 490 0
58 111 -213 0
-255 -315 376 0
-170 -205 -398 0
74 106 323 0
209 -228 -490 0
30 281 -284 0
103 -169 222 0
-100 396 -443 0
-219 -255 -283 0
-55 -70 268 0
-5 7 273 0
61 131 -487 0
-221 -258 -335 0
191 271 401 0
236 348 401 0
131 -270 467 0
39 -78 -276 0
126 -453 460 0
-5 293 480 0
151 -391 -460 0
-186 -322 478 0
-13 -152 167 0
217 -239 -351 0
-52 -253 -313 0
28 239 -452 0
-224 232 248 0
-219 277 312 0
11 269 440 0
121 198 266 0
-143 -429 492 0
-13 -48 -210 0
184 -349 -420 0
-147 151 368 0
-245 399 418 0
10 -176 -394 0
-72 -355 372 0
171 -173 -259 0
266 386 -423 0
-174 -177 227 0
-68 172 -284 0
210 -382 -468 0
-40 108 -204 0
153 395 472 0
-175 -380 -433 0
-111 302 410 0
5 -48 234 0
253 -446 -494 0
83 200 -446 0
-28 300 461 0
-315 375 -459 0
-208 -340 429 0
-71 -174 -385 0
-74 109 244 0
-10 -38 -75 0
-46 -138 448 0
-124 -164 -278 0
-23 394 -469 0
174 -273 -477 0
-65 -101 -286 0
166 -272 -301 0
22 -157 354 0
-155 168 -217 0
7 -211 272 0
146 -443 -451 0
26 -334 382 0
-243 -327 464 0
139 468 -494 0
-161 294 411 0
-305 361 499 0
70 283 364 0
-76 194 268 0
281 -452 461 0
-64 -368 -371 0
-158 -274 441 0
-173 -200 376 0
-15 -116 270 0
36 209 -341 0
-261 372 -487 0
-9 -306 -426 0
10 327 427 0
235 -371 488 0
5 234 332 0
135 238 268 0
-294 326 -447 0
58 -61 267 0
180 364 484 0
78 79 88 0
205 325 -442 0
206 383 470 0
13 -113 -355 0
-21 -169 375 0
98 351 -402 0
44 -278 -462 0
21 -272 -297 0
98 305 492 0
-225 308 446 0
-22 -278 361 0
-58 193 -272 0
119 189 364 0
26 307 457 0
43 -56 475 0
-223 231 395 0
-221 -336 469 0
275 -443 449 0
-173 -385 -480 0
12 215 -304 0
83 237 477 0
-134 -150 -323 0
152 370 442 0
90 -358 376 0
93 -159 432 0
-7 -65 288 0
-297 -410 486 0
73 285 -339 0
316 -408 416 0
16 130 299 0
-164 -265 374 0
-120 238 -377 0
30 310 436 0
-257 -284 329 0
276 338 -345 0
-26 -212 -482 0
180 226 320 0
-84 122 440 0
-68 -341 400 0
-22 224 366 0
-100 -123 -375 0
-246 311 -342 0
192 -268 276 0
151 255 -396 0
-45 -60 -296 0
41 89 185 0
-130 -289 344 0
-202 -334 377 0
-58 71 -430 0
139 -157 424 0
-45 -275 -328 0
58 75 416 0
41 138 -342 0
15 -275 -387 0
-82 -216 -361 0
252 -352 -455 0
26 82 -331 0
304 -384 500 0
297 -428 -477 0
149 320 -380 0
-72 -182 429 0
-22 -283 -475 0
-155 247 496 0
-36 143 -427 0
134 -451 -467 0
-29 160 -286 0
187 379 425 0
102 -297 -397 0
45 -253 397 0
-170 -203 322 0
-21 -124 -295 0
-177 212 422 0
55 375 -429 0
170 266 354 0
87 230 443 0
111 359 471 0
-45 -185 -309 0
-40 -114 328 0
-70 230 -293 0
-106 -144 257 0
-217 -265 318 0
-40 -64 449 0
55 -493 -497 0
171 -220 -357 0
112 388 435 0
-204 349 425 0
354 -392 477 0
-66 289 469 0
-189 363 456 0
241 324 419 0
-5 -235 -351 0
15 -339 -495 0
225 259 449 0
-77 -192 334 0
108 -196 410 0
220 -390 424 0
-110 134 213 0
75 111 -333 0
6 -102 -145 0
60 -289 416 0
-109 131 -484 0
111 171 -235 0
-46 168 -317 0
38 376 433 0
-14 88 174 0
6 227 -326 0
-46 -167 201 0
198 213 -305 0
-17 212 433 0
76 150 361 0
-124 -320 455 0
140 306 -451 0
-9 44 336 0
8 -267 383 0
-67 -108 -192 0
-232 -372 -416 0
136 181 -440 0
-326 408 -454 0
11 134 364 0
-77 -305 -395 0
-90 190 -215 0
33 152 -435 0
-89 250 329 0
-259 -298 -316 0
-64 -143 -199 0
-417 -438 455 0
-6 -134 142 0
-147 -264 -406 0
137 311 337 0
-260 380 473 0
148 430 -488 0
-57 144 -441 0
172 315 -458 0
20 -193 420 0
-125 243 -325 0
45 -224 -382 0
-123 -183 401 0
137 -235 -398 0
-152 -439 491 0
-324 -394 459 0
144 185 402 0
88 326 397 0
-170 -202 -322 0
-123 258 -396 0
-310 382 -413 0
-257 -277 340 0
145 -215 -312 0
-125 -285 -348 0
35 -482 495 0
-52 -272 -406 0
317 -359 421 0
96 -371 404 0
-57 -134 255 0
-243 395 421 0
4 7 -271 0
58 -334 471 0
34 -118 238 0
65 -166 -483 0
-366 -398 479 0
128 461 496 0
352 357 429 0
-18 -161 -360 0
-325 -482 -489 0
110 -277 -373 0
199 -252 -393 0
39 162 -266 0
-224 302 423 0
186 -208 -391 0
-169 233 -256 0
253 -319 354 0
112 -262 -331 0
-34 80 -251 0
165 -382 -387 0
274 -413 463 0
-186 -198 257 0
17 106 423 0
86 228 -305 0
-302 -332 -361 0
-143 -295 400 0
334 353 431 0
76 206 237 0
306 -361 408 0
255 357 -494 0
210 -232 -269 0
68 -236 314 0
270 327 -454 0
-158 272 -405 0
-225 -331 341 0
-13 -109 408 0
107 -125 195 0
-31 -126 197 0
-61 -281 328 0
-137 253 -408 0
208 -470 494 0
21 -185 298 0
241 -416 -462 0
98 -101 374 0
54 -80 193 0
133 -438 -442 0
-101 -224 456 0
-40 59 -204 0
214 -382 -437 0
378 -461 481 0
-161 -277 465 0
-56 -239 -400 0
3 -202 420 0
101 -254 -284 0
184 -381 -390 0
49 279 302 0
73 267 377 0
-29 -70 -411 0
6 -349 378 0
-57 129 -424 0
164 -253 -384 0
42 -46 -339 0
274 -435 -442 0
262 -404 497 0
112 -285 322 0
66 238 -473 0
-34 73 103 0
13 -43 149 0
-7 -152 -279 0
124 -184 -335 0
143 -187 431 0
49 145 185 0
44 -162 -333 0
-173 -245 316 0
-184 -320 384 0
-34 122 373 0
52 320 442 0
-138 -273 391 0
-54 118 468 0
149 331 -382 0
-170 183 -334 0
-205 -466 494 0
122 -205 309 0
-98 267 362 0
-6 -17 -492 0
107 131 192 0
65 106 411 0
122 306 480 0
-260 305 -389 0
19 -56 335 0
206 -233 -296 0
339 -429 -495 0
254 -316 -482 0
-125 390 -436 0
125 -137 -167 0
-295 -329 444 0
-86 -149 380 0
-6 49 417 0
200 -246 -497 0
16 -234 -330 0
-175 -212 363 0
133 349 357 0
-46 -125 -420 0
-2 -114 -258 0
15 437 -439 0
-99 167 393 0
98 290 411 0
-19 -176 443 0
62 -484 -496 0
293 -446 -495 0
-51 148 333 0
19 -92 -295 0
74 152 354 0
-16 420 429 0
101 -141 -252 0
191 -352 377 0
44 -188 -460 0
-127 287 472 0
85 127 -498 0
-66 -330 452 0
138 -263 314 0
-300 304 -312 0
9 -45 -283 0
-76 237 -395 0
-87 -183 387 0
179 -324 382 0
-202 361 -393 0
90 397 428 0
-92 121 -395 0
57 -60 211 0
-64 -295 -481 0
-87 -106 402 0
75 -164 -416 0
331 -422 474 0
-32 -281 -388 0
-75 239 450 0
7 -310 330 0
94 199 -356 0
123 276 -386 0
-19 -144 -185 0
196 352 -468 0
-71 -391 -430 0
-66 -87 -441 0
-3 359 457 0
136 267 465 0
19 -134 -495 0
-238 -366 418 0
226 -290 391 0
-49 58 213 0
306 402 466 0
-33 -56 -499 0
3 -220 -257 0
-63 257 -336 0
-119 405 477 0
7 250 367 0
-48 -153 -394 0
-56 -250 -302 0
336 -374 -379 0
261 -277 357 0
-286 -298 -327 0
-277 314 436 0
175 -237 -451 0
-73 -79 -116 0
-108 -152 213 0
184 -209 -476 0
-414 427 -449 0
16 -264 382 0
-27 308 356 0
3 -83 -187 0
-312 -313 -362 0
92 -222 -377 0
177 -370 398 0
-238 -272 -318 0
26 -152 274 0
-121 163 346 0
146 178 480 0
-105 -442 -457 0
-99 399 -495 0
47 -114 -379 0
409 -423 475 0
-278 305 -377 0
-39 -201 320 0
-234 277 -355 0
252 -449 489 0
-65 94 -215 0
41 -344 -437 0
-136 -245 -361 0
-236 -433 -434 0
-10 -115 -362 0
-18 250 -477 0
-99 -162 -236 0
49 266 387 0
-290 340 357 0
99 211 -403 0
-74 288 -364 0
24 -175 -444 0
-228 -301 313 0
-73 -162 -452 0
27 297 -382 0
1 -369 413 0
-242 -275 -471 0
117 205 -269 0
228 -247 -462 0
-34 -89 387 0
-297 -305 457 0
-323 325 -362 0
-312 -456 -464 0
-152 -405 484 0
32 -70 496 0
158 231 -385 0
-26 -220 479 0
-34 -63 255 0
-19 -354 -453 0
-8 -151 -239 0
7 -139 -262 0
14 -313 -329 0
-51 -400 -418 0
-281 343 451 0
176 204 299 0
242 307 -362 0
26 301 -412 0
-267 355 443 0
-103 -227 -239 0
-133 146 490 0
36 462 488 0
172 -245 -444 0
94 202 -304 0
19 288 334 0
83 -249 -468 0
189 259 384 0
246 -326 376 0
-289 413 -440 0
120 -147 -288 0
-50 -54 345 0
84 -304 -470 0
82 -100 -196 0
-178 208 -299 0
146 366 490 0
82 121 469 0
26 -345 376 0
-246 361 -386 0
-10 14 141 0
-56 60 379 0
-29 -231 -445 0
325 410 -462 0
-59 137 394 0
-251 411 473 0
-117 -350 458 0
36 -190 -392 0
22 -231 405 0
-182 -370 453 0
173 411 491 0
291 392 -433 0
55 159 362 0
-266 422 431 0
-161 378 423 0
176 314 -376 0
-205 216 -245 0
134 -208 441 0
-72 101 -355 0
-260 283 399 0
-108 210 243 0
220 348 -351 0
39 -68 -248 0
52 332 344 0
-172 -275 384 0
-295 -330 461 0
-92 127 255 0
-74 184 462 0
330 -350 -444 0
-24 216 451 0
-109 231 -315 0
133 389 424 0
233 -253 -471 0
-36 -65 83 0
-161 -316 -491 0
-146 430 441 0
92 172 186 0
-13 -217 -473 0
-64 -80 347 0
152 -195 -429 0
-7 -12 211 0
159 -397 -487 0
71 -244 458 0
-6 -61 -198 0
27 -131 -186 0
128 -272 -313 0
-167 178 -365 0
-1 -35 118 0
209 442 472 0
-157 164 343 0
41 47 -219 0
-250 359 -390 0
414 426 -461 0
140 -238 -470 0
1 215 490 0
-113 144 -257 0
171 315 -406 0
-137 -325 422 0
100 426 429 0
-8 -163 -422 0
14 -148 -166 0
395 -431 -487 0
-127 -206 -222 0
-146 -384 -476 0
-170 -268 376 0
-8 30 289 0
-165 -238 -398 0
-64 -277 -283 0
145 171 -363 0
265 -266 361 0
107 -426 457 0
-129 303 381 0
37 152 182 0
-25 -156 358 0
188 -265 -289 0
226 334 357 0
-187 -200 -249 0
100 -195 -356 0
-88 -197 -277 0
-188 261 -489 0
-98 -140 -186 0
-163 337 -339 0
172 -176 210 0
34 137 290 0
-23 57 -185 0
199 -377 -382 0
-61 282 448 0
203 210 -397 0
68 236 312 0
67 159 -420 0
61 172 277 0
364 -395 -481 0
71 115 -348 0
3 -73 212 0
189 -333 437 0
219 -350 459 0
79 -128 -214 0
290 -320 360 0
-26 254 346 0
-24 372 -480 0
-427 -455 492 0
93 -304 -480 0
184 345 495 0
-80 232 -345 0
122 -244 326 0
-311 455 -469 0
-10 67 206 0
156 -236 261 0
-96 -196 342 0
-130 -389 487 0
60 -66 -463 0
142 201 405 0
-9 -61 284 0
49 230 381 0
-118 228 -404 0
31 195 -318 0
-63 -365 -457 0
43 -110 289 0
291 365 -463 0
-114 -302 393 0
322 384 -402 0
180 188 -308 0
-3 202 295 0
-240 353 498 0
280 315 -375 0
201 377 -406 0
-159 -194 280 0
36 -92 453 0
153 222 229 0
54 202 359 0
-151 -168 169 0
51 -69 -403 0
-279 355 -436 0
348 -363 -484 0
117 187 468 0
105 195 319 0
50 -145 -222 0
-6 -25 231 0
-90 295 490 0
-447 466 467 0
-131 144 228 0
187 341 -379 0
235 245 -304 0
124 -166 -429 0
-142 -198 -362 0
-12 -80 206 0
70 384 -425 0
92 117 285 0
-163 -194 255 0
57 140 165 0
247 -252 400 0
7 -161 -366 0
31 346 -457 0
346 -441 -488 0
-240 333 353 0
105 128 131 0
246 389 417 0
80 -371 -386 0
62 209 -362 0
134 263 460 0
103 -438 -468 0
-83 -145 314 0
29 174 -244 0
-37 -71 -380 0
-177 337 -440 0
27 247 442 0
153 194 318 0
156 304 -481 0
20 163 494 0
128 -438 498 0
131 -386 -463 0
-12 -109 411 0
40 -306 -494 0
17 184 -469 0
34 -450 -457 0
-237 274 -465 0
58 -76 366 0
144 -252 -294 0
-15 232 262 0
141 159 485 0
66 145 479 0
-89 -137 328 0
-292 -307 460 0
-134 413 -436 0
-118 265 -287 0
-78 -253 -409 0
-126 -286 344 0
-208 397 406 0
382 -389 -487 0
-143 145 -382 0
141 276 471 0
59 -343 -363 0
-2 40 375 0
-122 139 253 0
139 197 353 0
-340 -429 445 0
394 423 -459 0
338 -394 -433 0
-38 264 330 0
226 427 498 0
333 -334 414 0
35 -129 -224 0
47 -84 -372 0
155 -195 -375 0
-187 410 -412 0
287 -306 -331 0
-218 248 -296 0
215 -236 -322 0
-173 -315 -424 0
-33 102 -222 0
-165 193 468 0
-24 -209 492 0
17 65 279 0
351 360 366 0
-24 -167 320 0
-117 218 355 0
168 -207 472 0
92 -199 -225 0
356 407 -438 0
15 263 324 0
20 190 -462 0
-118 -131 425 0
-32 178 -245 0
-80 -347 -383 0
-77 -114 -410 0
-123 399 437 0
-9 -387 399 0
-129 197 208 0
142 -143 425 0
181 -216 329 0
-17 -380 425 0
394 -478 487 0
140 163 296 0
274 386 -453 0
-131 -341 -412 0
-43 -381 -443 0
-194 218 327 0
107 281 -317 0
59 64 -359 0
167 -187 -307 0
216 -324 -483 0
-2 -38 -497 0
-181 -246 298 0
-175 -372 471 0
-148 315 -412 0
214 376 -494 0
-253 -356 500 0
139 -197 -442 0
-38 171 -314 0
-205 459 -492 0
179 292 -425 0
-451 466 -489 0
44 -389 414 0
-136 228 327 0
-407 -413 418 0
-293 314 -468 0
129 210 309 0
-182 372 483 0
43 161 246 0
342 369 462 0
101 356 -456 0
240 360 -378 0
90 162 -203 0
-109 186 -374 0
111 -370 388 0
373 -418 -489 0
-182 244 328 0
-93 312 388 0
-5 -120 448 0
130 -312 425 0
203 -431 467 0
238 374 -419 0
130 166 -272 0
-7 -77 230 0
-35 -215 481 0
-91 -98 286 0
-33 -113 166 0
-65 -289 -398 0
-27 257 355 0
-13 81 -254 0
-8 84 219 0
11 220 345 0
72 341 -408 0
13 -184 -327 0
-85 449 498 0
-67 -186 367 0
-95 -316 403 0
222 312 431 0
-18 462 463 0
-198 -235 -251 0
47 -221 -488 0
246 252 459 0
-167 -348 464 0
25 297 331 0
-58 -63 -479 0
-253 288 423 0
-191 -251 384 0
-335 424 -485 0
-234 -250 -322 0
-283 -320 -459 0
258 -271 -414 0
-80 -162 -441 0
-93 -132 431 0
-415 416 440 0
54 132 212 0
-62 107 441 0
-165 201 -423 0
-47 -298 336 0
43 58 -75 0
-55 -305 -376 0
127 -404 -416 0
-55 -206 -258 0
57 -62 -450 0
-19 -276 -288 0
-48 -104 -489 0
26 213 -346 0
-44 109 -374 0
-32 -223 275 0
127 299 -455 0
79 342 -386 0
214 -310 311 0
-96 192 -393 0
184 -337 466 0
-78 213 -427 0
-256 -481 487 0
-149 -341 469 0
347 -371 -481 0
-17 -93 357 0
-134 -258 -495 0
230 311 406 0
-46 -473 -477 0
59 -140 -208 0
193 -234 -478 0
-23 -140 -276 0
77 -320 -407 0
-177 395 449 0
-98 256 431 0
78 213 -455 0
72 -280 -467 0
93 109 -186 0
11 89 -432 0
-23 48 154 0
25 102 208 0
-181 299 -444 0
-79 -311 467 0
194 -231 302 0
-17 -240 -272 0
243 260 -421 0
261 -294 -499 0
81 273 -384 0
8 -137 173 0
33 -269 -308 0
-144 177 237 0
13 -288 -488 0
-37 185 -304 0
-68 118 -491 0
-2 -291 -324 0
-96 -307 -450 0
-10 -66 -443 0
22 241 329 0
270 -305 411 0
-68 136 438 0
-121 129 476 0
-107 190 -495 0
126 241 -448 0
211 -446 -496 0
-81 139 176 0
-197 -295 -349 0
38 252 495 0
-14 -353 472 0
236 -262 -420 0
-288 -367 -410 0
47 309 359 0
253 272 -478 0
257 271 342 0
73 -360 -455 0
77 -88 -481 0
-38 -85 406 0
-158 -172 369 0
-294 427 433 0
76 -284 321 0
257 293 407 0
-279 -345 499 0
5 -109 -113 0
159 173 225 0
14 -272 -434 0
-108 -321 -387 0
-246 -273 331 0
-173 -348 493 0
-177 265 -379 0
6 147 -462 0
125 -137 -212 0
-33 267 -372 0
-102 -326 -368 0
-64 -95 -219 0
-252 -422 -455 0
30 118 481 0
73 -83 126 0
8 81 -199 0
-354 416 -496 0
84 -318 463 0
-11 -129 250 0
35 235 -295 0
-224 257 -460 0
-7 -216 -254 0
-100 -240 -485 0
-93 -246 434 0
-26 319 -471 0
28 220 245 0
92 -191 -377 0
54 -366 -386 0
-238 380 444 0
-131 329 402 0
-188 -355 -432 0
-239 391 -499 0
-274 333 365 0
-200 313 315 0
33 246 323 0
-85 -255 408 0
35 47 199 0
-35 288 -334 0
69 220 -270 0
-129 193 -373 0
256 289 500 0
270 -273 -385 0
-2 301 348 0
140 -169 -170 0
316 -325 -404 0
-42 -487 -500 0
-164 381 -474 0
3 -355 430 0
77 87 173 0
220 -240 310 0
70 -153 342 0
-300 -390 443 0
117 -159 366 0
-189 276 297 0
8 -9 101 0
50 122 277 0
-46 82 452 0
-19 331 -365 0
55 -215 238 0
61 -230 -469 0
-142 -233 -326 0
-168 371 455 0
-84 -189 305 0
39 -152 413 0
-116 -364 445 0
42 -161 413 0
-49 244 -289 0
220 -430 -462 0
149 -343 -500 0
-106 130 -239 0
86 391 451 0
119 149 -384 0
-33 129 -430 0
123 -198 -481 0
-127 -143 265 0
-37 169 401 0
309 -348 423 0
-26 -120 -192 0
147 405 -441 0
129 -213 245 0
-82 -264 -344 0
-17 124 458 0
49 -129 306 0
-76 193 207 0
-153 430 -462 0
4 212 -271 0
4 67 434 0
331 -385 422 0
-34 371 434 0
105 230 319 0
154 215 -421 0
64 -301 -481 0
-9 173 263 0
162 -287 -416 0
-112 225 -341 0
104 -166 401 0
-96 -290 -436 0
-87 -108 252 0
-130 -136 -486 0
-105 257 418 0
58 -124 -423 0
-15 200 306 0
-75 -189 232 0
42 -403 439 0
-156 -420 472 0
89 283 -342 0
-211 314 470 0
-64 102 -348 0
-114 -471 -483 0
-12 -303 -365 0
-23 -136 443 0
166 -385 -453 0
-127 -136 469 0
-79 186 353 0
-132 176 388 0
17 -485 -499 0
-80 92 452 0
13 186 346 0
23 -101 -343 0
-38 111 135 0
44 -45 -140 0
-84 331 -462 0
319 -464 496 0
164 -266 -493 0
-150 -295 -332 0
-177 -247 -355 0
-155 361 472 0
36 -348 367 0
187 229 430 0
-376 400 -457 0
-113 396 -459 0
-133 -430 480 0
174 -318 497 0
21 -79 230 0
255 -267 -371 0
-96 156 -355 0
56 -362 419 0
73 -88 263 0
173 289 382 0
-256 -363 -393 0
167 -280 413 0
67 78 333 0
22 -159 -251 0
-19 248 -491 0
19 -32 484 0
-123 213 -487 0
218 225 -258 0
284 -297 -478 0
39 -145 -203 0
316 422 -495 0
-127 218 -348 0
-26 38 -95 0
202 -286 -486 0
-65 191 -385 0
292 -361 408 0
-90 -97 -297 0
110 -251 473 0
-195 -229 -395 0
59 -228 -306 0
-138 -186 -414 0
-189 411 -442 0
150 -258 344 0
-153 436 -500 0
164 -224 -373 0
105 -328 338 0
-62 282 -371 0
10 -36 334 0
20 136 199 0
47 232 255 0
-100 -352 -353 0
-289 -304 -433 0
48 -209 -251 0
304 -347 437 0
-209 214 386 0
4 -95 -225 0
-47 -236 -488 0
-52 -174 231 0
411 -481 488 0
-24 -189 -359 0
40 -316 489 0
-145 371 391 0
-107 408 474 0
-96 106 -317 0
-239 308 -415 0
75 206 -487 0
-3 74 456 0
187 -289 -310 0
-181 -234 -296 0
-59 292 469 0
22 -75 163 0
-215 -288 -296 0
48 -189 -194 0
174 -437 -439 0
52 -73 -200 0
-14 -140 300 0
-2 239 -318 0
20 413 -486 0
-169 178 291 0
407 433 -492 0
-50 164 293 0
2 -59 186 0
-30 59 -439 0
-115 -204 442 0
29 -264 -346 0
206 277 -400 0
39 128 -465 0
3 92 -444 0
27 -31 -201 0
21 313 476 0
69 131 -436 0
-34 52 490 0
117 -288 418 0
-391 441 -482 0
-141 -398 405 0
-196 -290 -424 0
-28 227 -303 0
90 285 338 0
-89 334 445 0
-280 303 477 0
-48 -232 -234 0
172 -224 -251 0
-106 -326 400 0
75 -289 -323 0
-126 -140 460 0
240 344 500 0
184 -245 -410 0
171 -362 -387 0
-202 -383 425 0
42 -315 345 0
147 199 374 0
44 -233 389 0
52 -91 -195 0
142 291 -404 0
-62 -361 -420 0
296 349 -493 0
53 -84 -116 0
-31 97 -473 0
-98 -171 -459 0
4 -27 -419 0
-85 312 455 0
232 455 -463 0
1 -298 394 0
141 -159 -226 0
181 197 -404 0
14 -106 -224 0
-111 -211 -389 0
-158 -160 -322 0
146 -216 485 0
61 -319 -494 0
185 201 307 0
-38 48 -116 0
-53 -175 372 0
-5 -35 212 0
21 -241 497 0
-43 -64 -158 0
-36 -141 332 0
-141 -186 322 0
8 -266 -478 0
19 85 234 0
-42 -216 299 0
179 -452 -492 0
117 139 -207 0
213 298 -414 0
3 -238 395 0
-21 92 -328 0
-64 -364 487 0
30 150 -279 0
-115 143 -390 0
-1 -35 -170 0
49 82 463 0
40 279 -378 0
43 109 248 0
124 352 376 0
-70 -189 -214 0
8 195 324 0
224 -289 447 0
-103 244 -484 0
56 255 494 0
-209 -294 -376 0
70 143 227 0
-134 258 472 0
166 169 354 0
-39 -67 426 0
90 127 306 0
114 -225 275 0
59 -193 -457 0
-112 -272 466 0
-126 182 -464 0
355 -368 -445 0
-153 194 -313 0
64 235 445 0
-191 -193 234 0
-45 96 -402 0
-105 -302 449 0
-26 118 -165 0
80 223 -321 0
133 265 -438 0
-79 102 224 0
-117 -207 -448 0
-217 -354 413 0
-177 -268 -366 0
-77 -226 413 0
75 -228 -237 0
-340 402 499 0
87 233 -282 0
125 295 -433 0
-34 -152 -361 0
228 -260 431 0
51 127 -357 0
-123 302 -339 0
-359 -414 -471 0
-32 -170 449 0
186 288 -360 0
182 225 335 0
204 273 -331 0
201 -320 -404 0
14 -85 260 0
-9 -39 -138 0
-16 -42 375 0
-398 460 499 0
70 -86 231 0
-121 -145 -405 0
90 -304 -433 0
44 291 409 0
-101 -154 341 0
126 -201 -439 0
254 -323 450 0
137 -187 252 0
121 -198 -397 0
-126 389 445 0
51 71 292 0
-84 350 -365 0
92 126 -500 0
324 -377 -395 0
-262 388 397 0
19 -279 -422 0
-187 -333 -433 0
-46 -192 -251 0
346 369 463 0
115 281 -312 0
-170 192 -435 0
-98 246 461 0
-213 282 -437 0
105 123 320 0
-13 -350 429 0
201 315 327 0
-79 -112 172 0
253 316 337 0
-47 103 270 0
42 -159 -177 0
43 124 -126 0
81 208 314 0
23 -32 -142 0
31 -32 -38 0
-25 -56 406 0
48 468 476 0
144 -223 -341 0
32 -78 -438 0
263 278 370 0
-97 174 -354 0
-151 261 -467 0
-51 178 262 0
215 -479 484 0
-92 -358 -497 0
213 258 466 0
75 -83 -389 0
248 -301 -385 0
-354 -372 -445 0
132 269 496 0
51 -101 442 0
-62 -217 -468 0
38 -103 185 0
-57 -309 -424 0
-11 -218 -259 0
40 -70 210 0
29 165 458 0
109 127 -236 0
86 -243 264 0
289 -342 464 0
154 339 475 0
-89 -385 449 0
252 -344 -413 0
-63 304 379 0
-1 -160 -251 0
-126 -310 330 0
113 394 468 0
-103 254 499 0
51 -200 376 0
-68 263 446 0
200 -329 -360 0
-364 402 -459 0
-55 -234 359 0
-70 -181 481 0
-1 290 -464 0
2 -305 -367 0
-16 -198 314 0
-191 292 -312 0
-85 -103 -136 0
-188 198 -454 0
184 -266 -487 0
