p cnf 500 2129
-306 -458 -499 0
-302 388 454 0
-232 428 452 0
143 -212 393 0
206 230 -247 0
6 300 440 0
-313 495 -500 0
-98 354 417 0
-136 -139 436 0
-50 212 -352 0
-25 370 -488 0
-93 -422 -449 0
277 281 351 0
-3 178 -430 0
196 204 400 0
-86 188 436 0
92 -139 368 0
206 -387 -391 0
84 217 328 0
-188 -195 -475 0
-64 77 -444 0
-174 -197 299 0
140 322 -393 0
-88 104 498 0
96 238 -310 0
88 334 -372 0
109 255 -492 0
115 -352 -416 0
-99 -125 240 0
235 389 403 0
3 -112 -295 0
-74 305 376 0
-10 -116 -310 0
64 -65 -473 0
-120 -155 208 0
196 314 424 0
-176 402 417 0
245 -299 485 0
141 197 396 0
35 458 490 0
-277 -295 429 0
-189 208 -275 0
-17 -313 -339 0
-114 -228 -454 0
-292 385 425 0
-41 -67 -127 0
-253 -264 -283 0
-176 -358 -452 0
-62 216 -459 0
-75 243 -394 0
260 -293 308 0
-4 -57 106 0
138 436 444 0
-81 125 290 0
152 276 283 0
133 226 -364 0
-90 144 273 0
59 -270 -395 0
-79 -176 -387 0
200 349 -462 0
-134 249 398 0
-318 -329 -445 0
76 -432 -453 0
115 156 -259 0
-25 45 135 0
51 -433 473 0
66 -241 353 0
-79 116 170 0
211 271 -481 0
36 -51 341 0
185 191 246 0
-60 -161 -398 0
-159 278 -476 0
-228 233 -307 0
113 139 -321 0
-253 284 -323 0
-106 -111 449 0
121 -377 464 0
-150 312 328 0
20 236 -355 0
-104 -145 -394 0
32 251 256 0
107 382 -443 0
-53 377 408 0
157 330 -340 0
-40 57 -192 0
-155 422 440 0
42 -243 -264 0
215 -368 -388 0
-12 349 -350 0
203 358 -489 0
2 -12 164 0
-36 142 171 0
118 -246 -492 0
110 359 -370 0
-15 105 157 0
-82 97 -106 0
-15 -179 -211 0
-220 -352 -370 0
80 -140 176 0
-2 -295 433 0
-10 -97 149 0
159 -190 439 0
4 335 359 0
-59 65 -285 0
-177 -214 -376 0
-172 -252 449 0
430 468 480 0
10 85 123 0
191 193 378 0
-6 -148 -194 0
66 68 134 0
-223 268 -487 0
-216 393 -452 0
110 -303 -400 0
-20 -476 -483 0
-103 -142 306 0
-153 -154 412 0
152 -344 -418 0
140 -146 -429 0
-185 310 314 0
-172 309 470 0
-335 -363 -433 0
20 245 -381 0
-16 255 -393 0
-162 -365 -497 0
-236 287 -461 0
-23 175 254 0
138 -398 499 0
98 -177 -451 0
139 246 291 0
448 -488 496 0
180 -293 -432 0
-237 -291 330 0
-72 312 476 0
5 52 -404 0
25 -434 -446 0
-39 -116 202 0
-67 236 -382 0
182 238 484 0
-228 -327 -498 0
-122 -230 413 0
-24 130 -159 0
277 290 -449 0
-174 241 -281 0
-55 -297 494 0
147 212 -342 0
31 280 -480 0
28 -192 273 0
39 90 312 0
-154 -258 -420 0
-135 158 363 0
203 -386 -466 0
-300 -457 -490 0
212 -235 -382 0
55 -115 -186 0
-32 -262 -310 0
-34 123 -126 0
-85 176 -487 0
111 -347 421 0
22 -184 204 0
22 76 393 0
215 -228 -244 0
-182 274 438 0
458 474 485 0
107 187 347 0
-213 432 -463 0
-142 250 483 0
58 -449 492 0
-284 -403 -495 0
162 300 328 0
194 233 -327 0
381 -410 -453 0
-62 449 460 0
5 -270 391 0
195 360 388 0
-320 -376 445 0
-52 173 -467 0
-143 -267 -429 0
-79 258 307 0
35 -59 -340 0
-193 -381 -382 0
140 -248 311 0
-191 -244 253 0
-50 -122 -191 0
-119 -149 373 0
85 -132 269 0
102 -155 -388 0
383 391 451 0
-4 44 -203 0
126 -377 468 0
-6 221 -409 0
178 -421 482 0
47 200 -390 0
-71 102 -219 0
-101 185 -342 0
211 -425 -440 0
35 -165 -266 0
-39 329 -356 0
-72 -167 240 0
-155 -239 464 0
175 -237 374 0
-430 434 463 0
-372 435 -467 0
-46 -104 -300 0
-195 343 -431 0
72 209 224 0
72 286 -373 0
-331 -333 -482 0
114 120 -360 0
-172 -308 486 0
39 126 454 0
-127 189 -308 0
92 176 -212 0
68 98 134 0
171 178 490 0
43 -350 -385 0
93 -211 -399 0
63 105 -115 0
134 -175 176 0
-164 258 443 0
-137 249 -323 0
127 -299 -469 0
-51 -55 -299 0
241 441 492 0
31 -244 -425 0
130 -133 -147 0
-200 -362 442 0
284 -339 446 0
202 389 471 0
135 -150 340 0
41 -204 -500 0
-133 -260 -452 0
-62 -157 211 0
-331 -350 -406 0
91 96 -320 0
53 110 -392 0
359 -360 390 0
-10 -174 398 0
302 312 -339 0
-109 190 -305 0
-375 -391 440 0
-201 -386 482 0
121 419 432 0
-123 -260 -353 0
-65 336 475 0
-212 430 -439 0
12 -213 284 0
-154 -175 410 0
149 -297 491 0
163 206 441 0
365 381 463 0
-13 -38 -475 0
-178 -243 397 0
212 -421 439 0
-303 -399 -452 0
158 363 -394 0
18 -251 341 0
-95 160 415 0
-80 -156 393 0
-119 132 330 0
-274 -352 -425 0
-203 -312 -418 0
-182 307 413 0
28 346 -400 0
-302 397 -494 0
119 -393 -459 0
3 42 -485 0
92 333 -384 0
-92 125 -383 0
-8 64 226 0
-115 -254 -266 0
161 -178 -294 0
11 -37 77 0
-206 -239 -481 0
14 61 66 0
-112 -121 -287 0
49 175 401 0
-125 -194 -429 0
185 -230 453 0
121 -206 207 0
-163 -353 407 0
252 -327 336 0
-216 -297 -301 0
-241 -258 -470 0
-26 164 -469 0
46 181 421 0
77 201 -300 0
123 156 208 0
-37 -197 -250 0
169 -201 435 0
189 -387 -404 0
223 -284 -420 0
-26 -234 486 0
150 -251 -463 0
198 -221 277 0
319 467 -488 0
239 397 -494 0
138 -198 -392 0
23 28 -31 0
-12 383 397 0
51 -286 350 0
164 237 490 0
180 339 -435 0
302 358 479 0
-61 272 -374 0
85 205 -444 0
187 217 -282 0
253 344 361 0
98 -169 -191 0
-237 -281 480 0
112 235 -378 0
-48 -100 -259 0
124 -183 440 0
-117 275 -280 0
-111 258 295 0
120 -160 364 0
175 237 -253 0
-115 234 -363 0
-50 -56 -86 0
-196 -328 332 0
78 -267 -303 0
107 304 340 0
-312 -402 -465 0
-151 208 396 0
-53 176 -344 0
208 -351 401 0
53 184 274 0
-114 363 -399 0
73 -115 -142 0
132 -386 442 0
72 -132 389 0
96 306 -470 0
257 262 -356 0
-109 -189 -302 0
-98 -331 379 0
-105 320 337 0
-220 237 384 0
251 -401 -434 0
48 -383 -400 0
251 -257 477 0
153 -443 469 0
233 -327 474 0
-5 -8 -445 0
48 -316 474 0
62 88 -445 0
27 275 453 0
34 -190 -337 0
10 148 -220 0
241 -251 461 0
-49 -312 445 0
138 -332 346 0
-317 -378 -411 0
-67 -142 439 0
357 419 442 0
-204 208 334 0
14 396 -397 0
187 -202 294 0
67 283 446 0
192 308 -365 0
241 -346 -484 0
-57 197 -395 0
-244 430 -499 0
9 258 323 0
-160 268 -318 0
-227 324 402 0
-191 214 -457 0
-420 -446 -490 0
-4 -357 417 0
-120 177 189 0
14 38 85 0
-26 263 -420 0
-72 78 316 0
-287 -302 467 0
124 -344 458 0
147 304 488 0
93 -401 411 0
-116 158 -402 0
5 100 409 0
9 106 139 0
-7 -381 418 0
85 -300 -307 0
-316 -321 -422 0
186 240 -470 0
-88 261 -262 0
-6 13 -407 0
-221 -305 339 0
-125 -143 148 0
-77 102 -361 0
112 -170 320 0
23 -251 -346 0
191 -300 367 0
233 262 -363 0
-161 -209 437 0
-134 -184 -269 0
-63 -157 415 0
240 -248 -489 0
-28 -345 434 0
169 -318 379 0
79 -472 -478 0
175 317 439 0
-19 28 -374 0
87 395 -457 0
76 172 -241 0
36 -98 354 0
-276 -431 -489 0
155 201 415 0
154 -269 -319 0
111 -118 -417 0
-42 -202 274 0
-25 75 -81 0
240 -243 -255 0
127 -301 -485 0
251 -315 -357 0
64 396 473 0
117 -246 447 0
141 223 -435 0
355 359 453 0
-30 321 -377 0
17 40 472 0
69 -284 -462 0
13 -28 -470 0
133 -336 -364 0
68 97 489 0
-194 388 -418 0
-96 -102 -114 0
-141 -388 411 0
-79 378 451 0
-26 55 -454 0
-10 174 -497 0
138 209 215 0
120 -186 -359 0
172 212 -371 0
36 -343 493 0
90 234 438 0
-35 -265 -431 0
56 -110 -324 0
31 -231 -448 0
-275 408 418 0
275 -307 -446 0
167 -313 370 0
-6 250 -385 0
-82 -104 -272 0
-44 85 103 0
46 -225 434 0
-172 -288 320 0
287 -298 361 0
302 397 -464 0
-35 -170 262 0
-50 -102 163 0
20 -215 -277 0
-109 -208 -442 0
254 -316 -397 0
-47 50 -165 0
-109 -265 499 0
-327 339 428 0
190 280 423 0
296 -312 -323 0
-91 -282 -415 0
97 -330 -371 0
-60 -246 -374 0
-343 384 451 0
83 121 437 0
95 358 435 0
46 364 -407 0
5 -6 -427 0
334 356 409 0
74 -313 454 0
-53 -213 -466 0
117 -220 454 0
226 -424 442 0
53 -316 -441 0
256 -412 -460 0
131 -331 -492 0
-56 141 -249 0
-122 345 408 0
-351 371 406 0
38 288 -477 0
-8 207 -373 0
-91 102 -403 0
-261 -378 -464 0
-67 -343 -444 0
65 270 326 0
-210 238 -274 0
346 393 -456 0
154 352 -463 0
60 71 348 0
101 182 -244 0
-14 -87 -150 0
8 -177 430 0
12 293 -416 0
-177 -379 -478 0
-36 77 230 0
259 403 416 0
-99 252 -448 0
131 430 455 0
-111 216 -307 0
217 255 -441 0
-9 145 272 0
125 266 272 0
124 -314 487 0
-167 173 -465 0
-26 118 464 0
138 245 -345 0
127 193 -425 0
184 186 332 0
70 -170 346 0
-25 300 303 0
36 334 438 0
-357 409 -460 0
97 313 475 0
-26 214 -238 0
-137 267 391 0
38 95 454 0
85 206 -322 0
-193 -307 412 0
-278 -358 -366 0
158 289 363 0
-35 -147 251 0
61 -273 479 0
-134 281 -389 0
55 -170 -245 0
-117 -384 387 0
-184 -291 -375 0
71 -373 450 0
-219 226 338 0
19 -80 297 0
-413 449 471 0
137 -234 -265 0
142 260 419 0
289 398 -496 0
78 -372 424 0
93 -109 -122 0
174 -232 -288 0
50 150 468 0
-186 278 295 0
191 341 409 0
-51 -225 -459 0
-162 202 498 0
67 98 -474 0
141 173 182 0
-73 106 316 0
-177 345 -387 0
-209 -325 473 0
-208 451 454 0
-8 -276 -320 0
271 -328 438 0
-233 -302 456 0
190 -240 291 0
-17 137 276 0
386 418 481 0
-296 311 -412 0
-55 -297 438 0
-21 -58 126 0
-215 294 -382 0
199 -210 226 0
11 -193 -386 0
196 234 -304 0
-57 -121 -167 0
114 445 -460 0
131 249 381 0
-125 -200 -412 0
30 -243 493 0
-50 -153 333 0
148 -318 -338 0
148 -357 474 0
51 339 457 0
-196 383 -461 0
-173 265 -359 0
20 62 264 0
14 -220 330 0
220 361 -458 0
-73 167 -369 0
57 -216 428 0
7 -275 -308 0
-163 -234 300 0
176 270 335 0
-410 -453 456 0
-274 -385 388 0
-54 -187 471 0
5 379 435 0
3 -354 -415 0
189 309 375 0
-114 -239 445 0
115 -154 356 0
-142 -312 369 0
-130 149 -207 0
89 -122 -242 0
-169 -383 -422 0
-40 79 327 0
-174 -182 213 0
227 265 417 0
366 -387 -413 0
227 369 -408 0
-82 -254 392 0
46 -221 350 0
-142 -405 496 0
-215 330 361 0
432 -435 479 0
-76 100 266 0
-287 -426 -490 0
112 172 -458 0
-23 -62 494 0
234 350 417 0
-438 444 -461 0
-139 -212 476 0
-15 -196 -312 0
161 204 -360 0
18 39 -354 0
-165 -207 -316 0
-53 214 303 0
87 185 -272 0
55 153 -252 0
-34 -45 447 0
-45 -157 -478 0
-70 -264 351 0
17 377 -428 0
-285 -326 -494 0
83 385 445 0
126 136 -159 0
-60 -77 317 0
10 346 424 0
-132 -221 -422 0
91 142 428 0
-78 219 -263 0
-97 301 -407 0
193 320 -351 0
-126 244 363 0
-3 192 -203 0
4 -55 403 0
170 -223 -301 0
-305 314 -496 0
-18 -184 221 0
-135 321 376 0
-306 -401 404 0
-1 336 -379 0
-35 78 421 0
32 -55 -165 0
240 355 -395 0
259 -356 -389 0
207 274 474 0
-103 -279 -366 0
8 -109 -358 0
89 -355 442 0
-29 186 -432 0
-31 -239 -365 0
4 199 260 0
319 397 499 0
-161 -199 366 0
30 -61 203 0
-298 -429 -496 0
32 272 411 0
157 159 -473 0
279 -435 456 0
105 -238 349 0
-16 -40 265 0
-147 257 317 0
-123 -343 357 0
59 -331 -385 0
317 391 395 0
-49 393 498 0
-274 -311 -441 0
288 319 -348 0
48 -374 421 0
77 -190 -457 0
-21 -254 -349 0
-98 318 434 0
115 -184 325 0
81 -84 -259 0
24 -370 -467 0
104 -148 -207 0
-22 -216 478 0
-66 -471 493 0
-35 -38 228 0
127 340 410 0
187 -290 -436 0
-52 -322 384 0
190 -290 -378 0
22 -90 154 0
44 383 420 0
85 -353 439 0
-15 259 352 0
278 -422 432 0
-3 167 -448 0
-127 -309 -469 0
-121 321 -478 0
180 -380 -383 0
13 369 436 0
-114 -213 -368 0
154 247 487 0
111 -272 463 0
-272 -310 -423 0
-413 450 456 0
155 246 452 0
-213 -422 493 0
30 -297 394 0
4 20 402 0
156 -260 -303 0
-369 382 -428 0
-194 275 449 0
182 311 -401 0
-39 -92 404 0
-135 -252 -316 0
-30 214 257 0
-26 208 275 0
-6 -174 -366 0
125 387 405 0
3 -54 382 0
-119 220 466 0
92 289 351 0
50 -235 322 0
-33 -96 -364 0
155 324 496 0
239 -257 341 0
-213 307 -416 0
-269 353 472 0
44 -101 -424 0
-173 -394 422 0
104 -239 -247 0
65 -113 -114 0
-169 214 -498 0
-204 205 -316 0
-167 -346 -484 0
70 -84 -443 0
126 -221 317 0
-87 -170 -485 0
205 438 473 0
56 -405 -450 0
-108 -320 499 0
-193 -390 462 0
190 -200 -325 0
102 -256 408 0
-37 -314 -434 0
81 259 -389 0
195 230 233 0
-207 335 413 0
258 459 466 0
22 247 248 0
4 79 205 0
163 296 -342 0
108 257 417 0
307 -383 415 0
-16 103 184 0
144 315 364 0
60 267 499 0
202 -375 444 0
-295 -342 472 0
-163 -205 -348 0
27 -300 -414 0
-11 77 152 0
61 150 278 0
239 347 -399 0
146 -180 412 0
-29 86 -268 0
-168 -184 201 0
262 340 348 0
-11 220 423 0
238 -252 -274 0
158 -205 -353 0
88 -165 -192 0
119 -244 272 0
16 298 -370 0
337 -372 470 0
7 438 -493 0
312 468 479 0
-103 320 376 0
230 -259 387 0
323 -329 -331 0
-172 251 -350 0
-243 -302 -418 0
-77 -293 398 0
-132 248 -267 0
-137 370 -398 0
-64 -106 327 0
-47 -325 -448 0
-1 163 410 0
93 -126 189 0
99 143 -211 0
-131 -179 -500 0
121 122 -498 0
-302 308 -417 0
224 299 343 0
127 -132 -140 0
-112 -138 223 0
65 160 265 0
127 -445 463 0
260 -421 -422 0
-156 -452 453 0
20 -55 -227 0
38 -212 -287 0
114 -255 -398 0
104 -140 -359 0
-14 -176 -467 0
64 237 -318 0
-130 -158 -470 0
-108 162 -287 0
10 23 -121 0
-173 -213 -314 0
106 -390 -422 0
-50 -98 -377 0
-44 234 -350 0
117 258 441 0
-61 381 -429 0
199 -327 494 0
283 348 -441 0
-10 40 82 0
-218 -343 399 0
-175 264 416 0
227 255 -443 0
67 287 -403 0
-125 -246 296 0
-126 -381 437 0
48 -73 -163 0
41 -261 -382 0
96 229 -300 0
-16 48 -163 0
198 384 401 0
158 183 -272 0
137 162 -341 0
144 -147 333 0
-370 375 469 0
83 -305 346 0
-69 -84 232 0
86 413 -494 0
-174 -205 -429 0
-133 -190 358 0
-7 -51 266 0
-30 -131 -196 0
41 -244 366 0
83 -350 429 0
-165 217 -418 0
-32 336 460 0
-100 307 -445 0
238 353 398 0
36 -109 227 0
152 -398 -431 0
258 273 382 0
148 204 -275 0
143 -288 294 0
-112 -129 467 0
145 234 411 0
246 359 -492 0
159 -207 -410 0
204 253 436 0
143 170 -482 0
-207 290 -307 0
40 141 461 0
-28 -232 283 0
-25 276 284 0
-288 -400 450 0
-123 200 444 0
-31 -192 318 0
-103 -368 -458 0
96 359 482 0
-257 -266 -277 0
-27 105 -124 0
135 220 -486 0
-169 175 -219 0
-118 -204 377 0
279 360 484 0
138 181 465 0
2 379 391 0
-89 -239 -424 0
-206 -214 344 0
-17 -82 -462 0
243 -279 -479 0
-66 77 -108 0
-84 -192 -484 0
-85 299 442 0
-16 165 -344 0
19 -116 494 0
-103 254 290 0
-25 -79 304 0
-71 -251 -389 0
-84 -110 253 0
1 116 469 0
142 415 443 0
244 401 -431 0
60 106 -398 0
90 -97 -348 0
-215 -404 413 0
-71 97 456 0
-81 160 255 0
82 -225 257 0
-76 -275 490 0
195 295 473 0
-113 -174 321 0
-99 103 309 0
-243 287 415 0
25 196 334 0
-285 318 -352 0
-55 106 394 0
88 184 -277 0
16 -222 -271 0
66 119 -421 0
159 170 492 0
67 442 474 0
-154 286 372 0
-2 -266 -377 0
147 -356 443 0
12 -205 358 0
-139 302 -362 0
62 199 -366 0
-246 -453 468 0
-280 320 490 0
313 340 452 0
-164 -235 -354 0
177 305 363 0
-124 -213 326 0
227 -281 336 0
253 347 -392 0
110 -334 383 0
-134 -249 319 0
-3 -165 371 0
-51 134 414 0
-176 -306 364 0
-50 -96 150 0
34 98 281 0
243 -359 -455 0
-17 -274 333 0
157 -296 -353 0
-249 323 -403 0
-63 106 108 0
-7 68 -322 0
-40 -169 198 0
-353 397 -475 0
155 203 -386 0
-66 -157 402 0
26 212 355 0
-219 -273 331 0
202 403 494 0
162 -337 495 0
-430 -447 482 0
75 -157 -227 0
-26 80 143 0
124 -162 -373 0
-148 -349 430 0
272 373 420 0
-99 -193 364 0
-220 -375 442 0
348 465 -487 0
-33 306 -443 0
92 -249 -485 0
78 -316 -452 0
149 229 344 0
-55 -77 317 0
176 297 488 0
17 53 241 0
199 -215 257 0
-99 164 -298 0
-229 406 -477 0
104 246 248 0
-14 120 -458 0
-107 325 -344 0
29 -242 421 0
-85 107 -494 0
84 -99 -121 0
337 362 -401 0
73 111 182 0
8 228 293 0
114 -286 -390 0
100 362 454 0
-33 327 -419 0
8 295 312 0
27 -37 -112 0
-269 -303 363 0
-398 461 468 0
51 371 -443 0
-320 -329 -418 0
-219 252 409 0
65 158 164 0
174 -379 407 0
-20 -431 473 0
-164 -288 498 0
-51 -156 213 0
49 165 -410 0
41 410 460 0
-78 209 -320 0
11 -272 413 0
35 440 -457 0
150 -197 469 0
-19 -85 497 0
44 -67 -126 0
91 258 -441 0
96 -423 485 0
-161 -302 478 0
-6 70 385 0
188 -344 415 0
100 246 -459 0
-148 239 -358 0
77 302 366 0
247 -429 -485 0
212 -337 474 0
-140 166 305 0
142 318 -359 0
-258 305 313 0
-296 -358 440 0
-79 200 202 0
310 -328 456 0
-58 226 -448 0
100 -223 -470 0
-79 -177 -301 0
-184 -206 267 0
10 22 125 0
24 -223 -491 0
128 -163 -181 0
-114 -226 250 0
18 76 396 0
-339 -355 486 0
205 295 -372 0
232 -360 367 0
-65 337 -443 0
-100 204 262 0
61 67 178 0
-95 187 -342 0
157 -197 251 0
74 -77 -117 0
-167 -224 -453 0
-49 234 -476 0
-322 -336 432 0
37 39 -86 0
23 168 -190 0
102 -387 -423 0
-194 -201 400 0
220 423 -486 0
16 -89 -436 0
-59 131 449 0
-166 -287 -293 0
10 46 -109 0
24 -46 -207 0
78 382 439 0
175 -250 -488 0
-390 460 490 0
81 133 363 0
70 136 -248 0
18 116 -486 0
93 -156 282 0
247 293 -311 0
-153 325 -380 0
35 -135 418 0
26 -175 325 0
13 -148 402 0
93 375 -412 0
-6 44 218 0
159 233 -449 0
33 45 274 0
-315 344 464 0
131 150 234 0
22 133 -227 0
137 444 -454 0
55 449 467 0
112 120 135 0
426 -468 -485 0
-57 -221 -326 0
-47 -58 192 0
-194 -289 304 0
-384 418 458 0
-181 416 485 0
360 -371 -417 0
-173 -266 -339 0
-236 359 405 0
-35 -249 -458 0
72 159 -355 0
58 -159 -385 0
32 -56 -355 0
-69 -187 -381 0
-10 110 -327 0
296 342 434 0
-80 -257 -423 0
429 467 494 0
222 257 -342 0
1 154 234 0
-273 -362 -431 0
8 -347 362 0
-33 147 374 0
-190 -374 -446 0
148 413 -469 0
17 183 436 0
40 320 -456 0
-56 -225 -232 0
27 74 -264 0
-148 336 472 0
-14 -402 444 0
-43 -213 280 0
29 439 -500 0
186 431 -451 0
203 219 387 0
-197 -326 421 0
60 374 -420 0
-191 263 383 0
53 -391 455 0
313 321 -439 0
-10 -179 385 0
-258 -335 494 0
383 439 479 0
-37 -119 -393 0
326 -366 417 0
191 -382 -410 0
-36 -287 310 0
36 181 304 0
-265 -332 356 0
11 357 -392 0
205 371 379 0
7 25 417 0
-324 360 -465 0
-14 30 311 0
175 319 345 0
-131 407 -451 0
95 -296 468 0
-7 -253 466 0
-158 -191 315 0
-10 152 -459 0
-30 -316 350 0
45 214 -481 0
29 -357 395 0
170 -354 -393 0
24 36 217 0
-120 447 488 0
-76 -116 -366 0
-6 -258 419 0
-1 378 -401 0
327 362 -466 0
-65 219 466 0
-104 -466 468 0
-14 215 267 0
-219 -426 480 0
141 170 367 0
8 209 225 0
27 174 196 0
71 305 -446 0
-373 432 451 0
47 -146 151 0
196 -274 434 0
270 -447 -459 0
246 302 458 0
14 -198 -443 0
4 -231 256 0
90 -179 -210 0
109 183 281 0
-103 -163 -289 0
31 353 -442 0
61 264 335 0
305 -399 -471 0
18 331 -473 0
-138 226 -470 0
113 -260 334 0
-126 -260 -318 0
35 -92 -291 0
179 336 -391 0
101 244 283 0
54 -185 -455 0
-25 162 247 0
-37 -50 116 0
-115 -226 -349 0
18 166 -272 0
114 255 -432 0
121 396 484 0
-166 -184 215 0
-14 -17 -95 0
-197 254 267 0
7 127 -164 0
208 238 445 0
-185 -245 -406 0
56 -243 383 0
228 258 -288 0
357 -398 400 0
-145 301 -497 0
-277 -360 427 0
205 265 273 0
-101 326 381 0
242 -367 419 0
-197 319 340 0
-81 -82 225 0
99 162 324 0
84 168 -243 0
63 -395 471 0
-80 -130 253 0
-356 -364 371 0
-67 -318 -395 0
-65 -383 487 0
27 -436 466 0
21 -241 343 0
-19 -219 -387 0
-31 37 -74 0
-260 -316 -464 0
1 -290 351 0
81 -130 496 0
-60 446 -477 0
-49 -186 311 0
-134 168 -470 0
-165 -187 -306 0
-108 293 443 0
210 -410 491 0
92 147 427 0
-5 290 338 0
-43 -268 419 0
-89 -218 316 0
111 185 316 0
282 -377 -478 0
69 -118 -380 0
28 -189 352 0
-22 -184 283 0
158 214 -406 0
-40 276 -462 0
-44 -297 342 0
-275 420 -431 0
-203 224 400 0
-146 -222 -462 0
-32 -191 -355 0
100 -293 -424 0
-38 -285 302 0
-67 190 239 0
-131 -226 237 0
174 -340 -352 0
35 56 -80 0
-267 275 333 0
-332 380 -392 0
29 -96 -286 0
115 -159 -271 0
34 -300 -438 0
-330 -350 367 0
89 127 206 0
214 230 481 0
-12 -49 -281 0
197 -399 473 0
262 -484 -487 0
56 447 -484 0
-55 -400 -451 0
-108 -316 -364 0
224 -286 -373 0
192 278 -353 0
371 412 478 0
271 -321 498 0
-80 416 487 0
-57 352 470 0
-148 331 472 0
-6 9 439 0
-281 -287 -420 0
-70 -256 366 0
-140 -229 -285 0
-336 -428 -454 0
-34 158 -325 0
6 75 327 0
-115 -312 489 0
-16 163 367 0
273 282 -486 0
-67 -87 -120 0
276 312 406 0
21 -91 175 0
-108 120 366 0
264 -320 382 0
352 372 381 0
-154 250 479 0
-84 -235 -310 0
1 -17 184 0
-151 297 -459 0
-75 -95 221 0
6 -412 448 0
-257 -429 -455 0
83 209 -451 0
-378 -381 -431 0
274 366 441 0
6 20 172 0
-4 291 -373 0
-272 -369 -428 0
-52 294 -412 0
52 -236 259 0
-130 -208 -487 0
2 -261 -300 0
-236 356 -490 0
20 -171 399 0
-56 259 266 0
-94 295 411 0
-49 -222 -344 0
11 -205 -372 0
145 282 330 0
59 -144 -368 0
373 436 461 0
11 -153 -425 0
420 -424 465 0
18 50 328 0
-4 -285 438 0
2 -188 213 0
-27 363 393 0
3 190 -252 0
-119 292 -377 0
-13 276 -470 0
39 -267 -479 0
179 -273 -341 0
-242 -414 -445 0
-82 -317 -409 0
31 117 -121 0
-89 -154 348 0
-12 -57 313 0
-49 -129 133 0
-94 105 -223 0
288 355 -476 0
89 381 -454 0
-116 -317 418 0
-140 -444 486 0
166 -314 451 0
56 149 208 0
178 -487 -497 0
-207 237 451 0
171 297 -464 0
76 268 322 0
-32 -144 499 0
32 177 246 0
1 37 131 0
15 -397 -406 0
357 380 -431 0
88 -123 -155 0
-146 -180 242 0
-86 -337 484 0
-245 -361 409 0
-40 142 256 0
12 -155 -404 0
59 285 398 0
-78 372 -411 0
-77 356 -485 0
-218 -277 -425 0
-56 -75 398 0
12 194 294 0
-235 283 341 0
-240 -376 -463 0
-308 360 423 0
320 -467 474 0
53 126 -418 0
-32 -361 -499 0
-83 -231 302 0
-349 358 -391 0
-136 -276 -416 0
6 33 -251 0
98 205 -358 0
29 198 426 0
-272 344 -480 0
-125 237 459 0
-243 -321 461 0
-280 -301 -328 0
150 -395 436 0
-77 253 -262 0
71 198 279 0
175 -320 -355 0
-7 -98 327 0
175 -178 431 0
-69 -104 -285 0
-43 -286 -424 0
-74 -132 336 0
-128 -219 337 0
-299 -368 -457 0
-292 347 381 0
141 173 -373 0
37 -47 198 0
3 259 420 0
333 448 -485 0
127 241 -491 0
96 227 387 0
116 -204 456 0
72 117 169 0
39 -43 -475 0
-77 -426 -473 0
95 -188 244 0
173 -286 487 0
100 313 -392 0
-282 321 -492 0
-67 119 264 0
105 165 -446 0
35 -232 489 0
112 -150 -318 0
181 198 -444 0
18 -240 -303 0
36 121 372 0
92 -265 -333 0
-404 -410 448 0
-59 -151 156 0
342 -347 419 0
63 139 -205 0
244 -258 436 0
-149 170 282 0
-84 133 -134 0
56 74 122 0
53 338 410 0
20 362 -434 0
285 329 -475 0
102 150 483 0
29 235 454 0
12 330 -478 0
-269 -272 432 0
-85 195 -457 0
-102 -241 -457 0
62 -257 -478 0
273 380 -405 0
46 170 473 0
243 -282 472 0
59 320 -363 0
59 -131 -369 0
-164 213 499 0
37 -403 464 0
-57 92 -153 0
-29 199 -311 0
-11 -138 437 0
157 -294 477 0
-54 73 -280 0
-83 256 -489 0
65 290 380 0
37 -61 263 0
-268 345 -419 0
-59 -219 -446 0
-22 235 -303 0
56 69 206 0
-232 -376 418 0
338 415 -433 0
176 -309 339 0
369 378 -441 0
34 -194 -348 0
-64 115 -155 0
-18 -191 -413 0
-99 -304 410 0
173 -352 356 0
35 -172 285 0
62 -422 -482 0
-37 -59 168 0
-112 -206 216 0
-162 -439 497 0
-54 331 352 0
-119 -308 418 0
-214 393 -452 0
-24 376 451 0
154 163 -173 0
-110 341 451 0
-144 291 -440 0
-1 -186 -216 0
-347 452 473 0
-39 -59 -78 0
273 295 -388 0
71 378 451 0
141 390 393 0
154 178 288 0
-304 -377 443 0
-23 295 325 0
-98 247 -490 0
-4 205 318 0
-64 148 210 0
-140 284 -473 0
109 -321 -368 0
10 308 377 0
-272 290 -478 0
332 397 -424 0
256 -368 435 0
215 225 318 0
152 -162 -427 0
156 -281 -484 0
-161 217 362 0
-29 67 -405 0
385 -399 498 0
3 -44 -282 0
-135 -242 -310 0
321 -385 -455 0
98 -166 -397 0
16 -111 493 0
-14 90 -169 0
2 164 281 0
-201 234 376 0
163 254 -356 0
-145 -146 -488 0
-287 -388 -443 0
50 302 339 0
147 307 -386 0
38 216 -356 0
137 222 -457 0
-69 317 -492 0
151 218 493 0
-250 -440 -471 0
-15 -480 496 0
54 -208 314 0
-68 -292 365 0
-152 222 342 0
-51 -297 -370 0
-244 339 -437 0
-58 -118 -168 0
-223 252 260 0
32 -199 294 0
84 -264 -321 0
301 -356 -439 0
-71 254 483 0
276 -321 -472 0
77 108 -458 0
-332 -395 -449 0
-68 -195 -489 0
31 -48 -436 0
164 -323 363 0
73 -171 -312 0
49 140 218 0
313 360 -444 0
315 -357 386 0
18 131 165 0
108 -153 351 0
317 319 480 0
163 -183 291 0
124 -284 460 0
-68 -280 -451 0
44 215 379 0
-7 -244 422 0
-194 373 457 0
-148 225 267 0
75 -278 -325 0
145 -395 -474 0
329 -416 -422 0
53 -328 433 0
-23 335 -400 0
81 -123 -229 0
107 -451 472 0
-14 -106 237 0
-67 452 492 0
40 141 -457 0
-159 -208 -307 0
-3 119 407 0
171 -198 -435 0
251 -323 415 0
-25 -29 316 0
13 -227 -423 0
-256 -328 -483 0
-371 -404 435 0
-92 326 -379 0
64 -377 -406 0
52 -196 453 0
-407 -415 463 0
-70 125 494 0
-135 -194 211 0
45 -102 289 0
-300 -337 450 0
84 -203 341 0
114 -476 478 0
14 78 -499 0
-146 -407 -411 0
203 -326 354 0
189 360 474 0
-32 -245 472 0
276 -331 374 0
7 159 -394 0
-114 128 -320 0
-278 -339 -442 0
-3 -178 489 0
284 404 -445 0
-79 237 -493 0
-70 148 -404 0
-41 72 -216 0
47 351 477 0
237 375 -496 0
-198 340 -481 0
26 -38 -435 0
166 -202 304 0
162 168 447 0
68 -162 -345 0
-321 441 470 0
78 222 367 0
176 254 364 0
25 -134 442 0
63 -187 -252 0
-18 96 467 0
-192 220 -245 0
-212 284 473 0
-18 -193 434 0
-36 356 -376 0
-124 233 -346 0
287 293 474 0
-69 -366 490 0
-46 -212 -340 0
13 200 415 0
31 92 112 0
-108 -238 -390 0
312 -341 367 0
236 365 476 0
40 380 399 0
-266 -343 -352 0
-146 177 -213 0
122 213 -430 0
59 365 452 0
258 357 -404 0
-209 -481 492 0
68 -289 468 0
82 -191 213 0
-111 227 320 0
233 -345 427 0
42 415 420 0
-168 310 399 0
-147 -327 351 0
-175 363 -451 0
-158 417 444 0
303 -353 433 0
105 -158 -478 0
-259 -343 -489 0
-245 -252 -471 0
-346 393 494 0
301 327 343 0
-88 386 409 0
59 229 -252 0
55 -97 -455 0
47 -158 327 0
-290 -345 390 0
-40 -122 -496 0
-218 -228 -433 0
-222 224 -279 0
-75 -348 -390 0
107 -280 -394 0
1 -223 317 0
-1 92 481 0
12 -172 195 0
-158 201 -332 0
261 305 411 0
-36 -40 314 0
350 -366 409 0
-304 388 -466 0
57 334 482 0
-276 453 -468 0
87 -252 -455 0
239 255 419 0
-182 226 -275 0
254 -366 370 0
-166 196 317 0
-121 -400 411 0
-86 283 475 0
-132 363 370 0
-84 339 -387 0
31 196 264 0
222 382 -435 0
141 -378 384 0
-304 376 -447 0
194 323 -441 0
-149 -469 -487 0
-120 167 -447 0
-21 183 -292 0
189 249 331 0
138 -161 449 0
56 -70 -200 0
145 -181 261 0
-359 368 386 0
225 378 383 0
19 -378 432 0
2 -41 63 0
-135 -458 489 0
-206 283 400 0
-360 -407 -459 0
111 -152 350 0
-35 -351 -353 0
149 352 -369 0
-119 -255 438 0
-104 -251 354 0
156 -211 256 0
-178 -421 430 0
-339 479 -480 0
48 75 -116 0
69 -260 456 0
457 466 467 0
-45 304 351 0
-23 -93 158 0
69 -152 253 0
1 -393 -398 0
306 -437 -480 0
262 -270 -449 0
-233 461 484 0
129 339 436 0
64 -140 -271 0
86 131 -373 0
-35 -193 381 0
-74 -137 264 0
168 220 437 0
-191 -225 364 0
-89 123 127 0
244 363 -427 0
126 419 478 0
95 140 446 0
87 342 368 0
-96 -160 473 0
-213 -393 -486 0
51 -203 347 0
-90 322 -485 0
-264 307 -454 0
-133 274 281 0
-237 314 -334 0
-51 241 300 0
124 171 -372 0
11 362 -482 0
173 -285 -327 0
-37 -173 -473 0
45 -167 424 0
147 234 427 0
133 -462 -483 0
20 -170 -368 0
23 80 -382 0
-224 -238 -380 0
160 -274 -377 0
-123 -485 497 0
89 205 -432 0
27 155 -485 0
-399 -470 -484 0
-338 -463 -492 0
27 223 -259 0
-14 156 -338 0
-217 331 401 0
249 309 322 0
-80 -88 -339 0
191 -285 -475 0
137 -387 423 0
-168 181 316 0
-90 120 235 0
-90 131 -150 0
-211 -262 -322 0
-34 -391 453 0
126 445 493 0
57 -93 -284 0
-7 -35 188 0
-129 -212 499 0
6 -57 189 0
73 -284 336 0
-70 144 -227 0
166 452 -453 0
-108 140 399 0
29 50 -139 0
-102 -235 284 0
-93 104 490 0
191 -406 -488 0
-103 -154 -228 0
207 408 -485 0
31 -34 286 0
-38 147 184 0
-39 266 -480 0
277 -286 -495 0
-171 -369 -446 0
-7 216 495 0
-29 -160 308 0
-28 133 487 0
-216 257 -432 0
-24 -25 -460 0
147 377 -427 0
-63 147 263 0
72 -176 398 0
171 -322 490 0
-7 27 264 0
-144 -276 472 0
197 293 386 0
-32 -49 -97 0
218 259 -486 0
213 240 -419 0
-107 -411 444 0
-73 -109 331 0
-89 420 -441 0
16 -122 269 0
18 151 -289 0
121 147 470 0
-301 403 495 0
45 -203 272 0
-171 -331 425 0
-220 -321 430 0
17 -181 -259 0
121 -378 479 0
-299 -320 469 0
-294 304 385 0
234 311 -491 0
-41 299 304 0
242 458 489 0
228 -368 398 0
59 154 485 0
4 -9 -84 0
-20 -253 -423 0
-159 -218 -318 0
109 -243 297 0
15 -249 -278 0
181 -297 429 0
48 -179 -477 0
320 -364 -366 0
-413 465 474 0
186 -264 497 0
-71 -239 268 0
212 219 -393 0
-217 241 483 0
-76 -204 -494 0
-15 88 344 0
-139 -355 432 0
34 381 429 0
33 127 -402 0
83 305 -447 0
-2 145 -480 0
-133 277 -447 0
-85 -329 482 0
286 291 485 0
-4 78 104 0
-225 -230 372 0
23 -165 429 0
108 302 366 0
-339 404 -497 0
-52 -298 383 0
91 -332 -483 0
-30 77 -329 0
-280 418 495 0
132 376 492 0
-43 -64 104 0
-14 277 -424 0
37 -425 -474 0
270 -378 408 0
-13 -231 -444 0
-226 344 468 0
103 182 -401 0
-158 -347 440 0
-32 -182 -192 0
-8 -455 -462 0
-69 356 -494 0
-102 197 -358 0
173 301 402 0
345 -381 465 0
-9 194 -337 0
-280 -324 468 0
151 -177 430 0
24 25 215 0
74 -190 262 0
312 -436 -452 0
128 -149 226 0
167 -205 -438 0
76 -193 -323 0
98 -377 -432 0
287 -296 485 0
-212 -324 344 0
3 -48 52 0
126 457 469 0
-201 -254 -454 0
-249 -300 436 0
-295 304 -456 0
48 246 269 0
3 46 -444 0
21 167 -291 0
209 -242 -458 0
29 188 -336 0
86 -161 -278 0
-127 -406 -424 0
-76 173 -296 0
-193 -327 361 0
162 183 -350 0
-215 -353 398 0
66 85 260 0
-18 124 452 0
348 438 472 0
46 75 -359 0
-71 -163 444 0
30 -44 141 0
-43 -168 -313 0
-156 254 -264 0
-253 -267 -286 0
177 -435 477 0
61 -181 325 0
-231 -316 392 0
-343 -384 447 0
38 -137 178 0
-28 -250 278 0
148 317 357 0
-39 232 471 0
351 -380 487 0
-142 -146 446 0
-85 91 483 0
-254 -301 499 0
222 -234 468 0
69 -104 -324 0
-126 -282 475 0
-179 362 455 0
-102 -131 -328 0
-53 -254 285 0
83 -307 433 0
80 208 435 0
-286 -354 459 0
-204 -270 397 0
-232 -384 -449 0
-268 279 -389 0
-131 209 -241 0
45 -82 429 0
138 -156 321 0
45 -373 -455 0
-165 -314 -357 0
159 406 480 0
12 -372 -470 0
-18 30 -168 0
-64 155 -428 0
255 -363 -485 0
212 224 -233 0
-1 -92 310 0
-178 342 395 0
117 -217 245 0
-202 330 370 0
-122 136 446 0
-30 -287 -405 0
52 -224 277 0
54 -176 494 0
259 -299 431 0
108 -221 294 0
4 132 -278 0
140 424 -476 0
-80 -334 -459 0
71 261 362 0
-406 470 -499 0
24 -319 -333 0
57 -226 -330 0
-117 232 255 0
-66 -104 -275 0
105 -232 398 0
-281 351 427 0
-257 -286 -365 0
131 137 458 0
-29 -162 -256 0
3 24 -445 0
-77 -146 185 0
-421 -426 465 0
-28 -366 390 0
82 -269 -413 0
-134 135 442 0
45 -68 -147 0
23 37 -296 0
63 411 -427 0
-152 157 303 0
-105 -193 -454 0
313 -420 461 0
154 -439 498 0
12 -262 -383 0
-14 -46 375 0
-214 288 471 0
-170 401 441 0
-73 -272 -436 0
125 -134 -262 0
146 254 325 0
-339 365 -417 0
-237 -349 -410 0
103 -198 236 0
193 388 -489 0
120 242 478 0
155 250 338 0
132 -158 -292 0
1 -180 -287 0
-85 142 -302 0
10 271 -395 0
363 -365 -479 0
-3 106 -464 0
-133 -255 -333 0
-185 328 454 0
-142 221 -481 0
-239 332 356 0
44 233 348 0
-44 -136 -304 0
235 312 -436 0
47 131 202 0
-153 -275 -280 0
182 -222 427 0
20 -239 -458 0
390 -450 -461 0
-180 271 -377 0
-190 -205 307 0
94 -325 -376 0
83 85 -235 0
-186 202 480 0
-262 -476 -496 0
112 -267 479 0
-87 143 236 0
84 245 249 0
33 -394 -496 0
21 -121 129 0
-145 150 262 0
-237 -265 -346 0
-275 307 425 0
20 162 -192 0
-52 -186 -323 0
-160 -189 -218 0
-205 -418 -464 0
126 -253 -341 0
-12 129 -469 0
42 -103 478 0
16 -282 390 0
220 -373 -440 0
-250 -320 -436 0
14 -148 469 0
-128 -281 294 0
-122 -295 500 0
220 -224 -325 0
-163 203 -372 0
151 227 -431 0
3 127 -363 0
-7 -120 -376 0
-448 485 -493 0
89 316 387 0
230 -456 -493 0
298 444 469 0
18 268 -436 0
157 -270 399 0
-63 -87 88 0
8 -61 351 0
39 104 160 0
-34 -251 -400 0
65 -91 434 0
-201 237 -484 0
36 78 485 0
-30 183 500 0
94 95 -474 0
-12 22 304 0
231 305 335 0
-247 -278 387 0
209 -255 -259 0
-63 -284 378 0
73 205 -321 0
-40 475 489 0
137 -210 -374 0
-83 -247 346 0
136 380 -498 0
93 -231 -232 0
26 -159 368 0
-134 136 463 0
18 193 368 0
145 247 496 0
-135 242 -466 0
-369 -439 -487 0
111 -169 -400 0
105 258 421 0
-302 335 -343 0
181 232 334 0
85 167 494 0
-106 -120 131 0
36 183 355 0
82 469 486 0
-57 220 357 0
-273 -311 329 0
-94 -240 -473 0
-62 -68 -121 0
-16 103 209 0
-70 -161 282 0
86 -210 261 0
-56 377 458 0
426 452 471 0
-56 -79 -225 0
22 -176 -468 0
208 -336 -395 0
-36 -241 357 0
-42 -120 -254 0
-49 -377 477 0
-244 256 -315 0
-19 -56 73 0
168 -430 498 0
65 -321 -492 0
-18 288 -482 0
51 -298 500 0
326 -414 441 0
203 392 397 0
-28 -117 -269 0
-73 -124 -399 0
-290 311 381 0
119 123 499 0
-138 -139 -432 0
2 -147 267 0
27 -489 -492 0
155 415 443 0
-58 95 359 0
124 -184 470 0
205 248 275 0
48 -156 249 0
-143 447 463 0
81 -348 487 0
47 -246 -467 0
-147 175 500 0
-269 -352 384 0
-166 -326 -350 0
-100 160 -249 0
-185 -275 -432 0
-120 -136 224 0
-113 253 -412 0
-345 360 -497 0
-209 314 -408 0
76 276 -291 0
-76 252 -310 0
215 -377 413 0
110 -130 -431 0
-145 423 441 0
3 -308 -328 0
-42 -163 -183 0
94 348 -423 0
54 -83 -380 0
167 -367 459 0
-221 -272 -331 0
-24 67 279 0
326 -361 -435 0
113 -330 346 0
39 -204 317 0
196 -286 -353 0
-57 -136 143 0
-16 -20 117 0
250 -303 466 0
40 405 -435 0
248 -420 477 0
25 -330 -474 0
368 -376 449 0
365 452 462 0
-40 51 418 0
57 -362 -440 0
71 -221 -470 0
140 -208 -299 0
23 237 350 0
50 -122 -141 0
-8 307 394 0
171 242 -418 0
57 -100 -182 0
48 356 -365 0
-43 -153 371 0
-37 -83 253 0
-211 385 -434 0
116 -157 210 0
-99 -209 -324 0
39 57 -116 0
-207 225 493 0
-144 150 -497 0
-226 -311 -459 0
-264 -362 397 0
-15 352 461 0
-101 127 -264 0
5 71 -303 0
64 179 303 0
100 345 -427 0
-20 150 204 0
-13 -21 -56 0
138 -201 401 0
34 -57 -67 0
284 301 367 0
215 -287 -376 0
170 -340 395 0
32 -262 -412 0
-313 -328 385 0
-119 -161 -462 0
-96 332 355 0
