p cnf 450 1917
-22 -23 -94 0
-60 137 440 0
59 -91 -211 0
-91 -172 -396 0
315 -353 -368 0
89 170 410 0
-34 -73 124 0
-45 -198 212 0
88 -220 358 0
301 -326 -366 0
-56 -62 -178 0
-54 -274 416 0
117 -381 -410 0
-285 -363 443 0
-9 165 292 0
-118 -400 447 0
-233 256 378 0
-101 -136 266 0
223 -297 -355 0
89 303 366 0
-230 -243 -392 0
151 -238 -400 0
22 -255 -345 0
-128 173 355 0
50 57 -446 0
223 327 366 0
96 105 -372 0
-66 -110 332 0
-127 137 213 0
53 56 -216 0
57 -127 345 0
144 -297 357 0
-51 -130 -293 0
-109 -247 -251 0
-31 276 -346 0
196 -239 -423 0
126 -252 -412 0
-209 218 -240 0
138 248 293 0
-146 334 358 0
214 -240 430 0
-204 -220 257 0
141 281 -401 0
-109 -333 -442 0
116 198 418 0
52 -114 170 0
104 162 398 0
24 -370 414 0
24 43 213 0
106 -134 -239 0
-34 -285 -406 0
41 75 310 0
21 -111 248 0
-169 -345 355 0
119 -222 229 0
-117 336 -385 0
109 -157 241 0
-30 -270 448 0
-9 -385 390 0
-3 263 -425 0
-14 38 -173 0
-238 -303 324 0
113 -125 -289 0
164 -174 -243 0
-12 21 -322 0
47 161 -419 0
49 175 201 0
95 128 -365 0
-190 410 424 0
10 109 -237 0
-77 239 -286 0
38 152 311 0
-170 405 439 0
-22 99 168 0
-229 304 -389 0
-185 -205 228 0
-123 -406 435 0
-12 27 -432 0
26 229 -360 0
204 242 443 0
322 340 393 0
-267 276 -448 0
-144 -247 -368 0
-56 107 -399 0
95 109 260 0
-79 344 382 0
41 57 -254 0
331 399 405 0
25 -226 -273 0
189 390 435 0
-298 -362 -384 0
-113 -174 -443 0
260 408 428 0
126 250 -390 0
-34 -163 338 0
-8 -221 361 0
-229 235 434 0
-96 -111 300 0
-19 116 202 0
-337 385 -395 0
-27 -95 392 0
-88 -185 356 0
23 308 439 0
-393 436 -437 0
243 -285 -329 0
5 -277 418 0
-153 340 -413 0
82 -126 -255 0
82 387 -436 0
-61 193 -260 0
-64 -104 266 0
-174 -329 421 0
-147 -178 258 0
-97 190 343 0
136 -267 -414 0
47 -209 -322 0
-100 135 365 0
-130 -398 421 0
-24 -373 409 0
-96 341 -406 0
-87 179 -448 0
9 -64 -262 0
137 -377 388 0
-195 -252 -350 0
-42 327 432 0
-31 -57 376 0
-25 26 -124 0
-336 -405 439 0
-297 -424 -426 0
36 -67 -144 0
-27 -108 -168 0
-348 417 437 0
-70 -389 403 0
59 72 330 0
-16 285 355 0
-67 -157 -182 0
-38 96 427 0
-276 331 423 0
-263 -395 434 0
-49 -96 -377 0
22 235 -254 0
-26 -130 -155 0
-44 70 -187 0
-192 -396 415 0
19 -80 214 0
14 90 -212 0
134 -240 -368 0
-66 319 414 0
198 316 -337 0
-92 -279 -290 0
18 -46 354 0
57 -112 -165 0
19 237 -317 0
-321 323 402 0
44 -107 216 0
-29 61 271 0
152 416 -442 0
-51 -67 393 0
-59 110 434 0
-102 -220 387 0
-212 -231 -309 0
-170 -285 445 0
-93 271 326 0
-51 94 -128 0
-230 -240 -337 0
56 88 439 0
-93 270 -380 0
45 178 -372 0
175 261 -264 0
-249 332 -429 0
-130 148 375 0
91 343 -447 0
-44 -55 -315 0
72 238 312 0
-237 411 448 0
-146 -190 -331 0
-12 32 -188 0
-200 -264 322 0
23 112 381 0
-138 333 446 0
106 -343 -384 0
-54 -294 427 0
-184 -200 313 0
56 -75 109 0
43 -76 113 0
-189 -337 385 0
-92 -327 355 0
61 -315 378 0
45 69 -247 0
-100 -289 -446 0
7 95 -150 0
147 341 -421 0
74 185 224 0
189 -220 442 0
109 264 -361 0
157 177 267 0
-26 370 -425 0
-66 156 -324 0
21 -236 251 0
-95 -286 353 0
109 -132 -213 0
-49 51 192 0
-164 306 -448 0
-174 183 -250 0
-17 -79 -261 0
228 -263 -288 0
-16 205 -289 0
-194 -238 399 0
-69 361 -405 0
-172 -301 427 0
151 279 -442 0
162 -299 375 0
-7 26 -49 0
255 -391 -421 0
-52 112 202 0
-74 -157 -197 0
-186 -280 382 0
319 368 -413 0
115 199 301 0
-72 77 154 0
14 68 290 0
5 210 429 0
-172 -291 357 0
330 -397 -432 0
-17 260 438 0
180 281 322 0
184 -312 -398 0
-144 162 350 0
94 -247 -344 0
-219 250 399 0
-33 239 424 0
-195 309 343 0
-20 34 -302 0
-189 -213 345 0
-40 -152 -329 0
-113 146 -417 0
-70 105 235 0
186 -386 -434 0
-274 317 -396 0
-3 -276 434 0
14 -399 401 0
40 145 400 0
272 280 -358 0
-167 -337 -360 0
-255 373 -376 0
-19 359 -439 0
-76 81 142 0
-129 167 -300 0
49 -108 -144 0
-30 -123 -161 0
-16 180 -212 0
25 -55 142 0
154 200 358 0
-114 -332 -411 0
31 -135 265 0
191 197 -448 0
81 97 102 0
161 -254 426 0
118 -223 -333 0
86 -206 -331 0
-6 129 370 0
50 -57 -252 0
-74 179 -229 0
-173 277 -285 0
-75 103 -343 0
-348 365 -393 0
-77 239 -355 0
61 112 360 0
37 -168 -318 0
15 44 -179 0
-111 356 421 0
-96 -105 -279 0
82 -175 -329 0
-114 270 -339 0
-38 285 331 0
55 274 -281 0
87 155 221 0
73 179 181 0
-80 -112 -393 0
-125 183 429 0
-3 4 -71 0
-150 206 447 0
64 208 -282 0
-86 148 406 0
69 -403 -419 0
20 -195 436 0
-296 297 362 0
-197 -199 -281 0
-22 -94 -391 0
-126 169 365 0
50 -238 444 0
-67 -144 412 0
215 -319 411 0
131 166 -214 0
10 -184 316 0
209 306 416 0
185 -239 -355 0
-308 -356 377 0
343 395 443 0
78 110 -265 0
-70 -105 385 0
9 230 -445 0
17 -110 200 0
-95 -197 266 0
171 -211 270 0
101 266 -338 0
18 342 433 0
51 -347 400 0
337 372 -428 0
-199 290 301 0
23 242 -314 0
-71 -141 217 0
-35 -206 -310 0
13 -156 405 0
217 -270 384 0
-347 365 433 0
-4 -22 -201 0
67 -69 331 0
-24 108 443 0
75 -139 -227 0
75 283 -431 0
-53 -182 321 0
-32 325 349 0
211 -304 -442 0
105 -235 397 0
254 -262 -371 0
71 -207 296 0
89 322 -339 0
153 -199 -353 0
-78 137 -407 0
18 -78 -290 0
-92 413 -437 0
98 283 -315 0
-172 315 422 0
-150 374 417 0
-151 -174 275 0
-3 -5 -395 0
-310 428 -450 0
-2 200 -259 0
328 -386 427 0
-23 -152 -291 0
-38 160 325 0
104 123 330 0
-42 141 -364 0
181 -287 -420 0
-72 306 402 0
-205 308 -440 0
323 -395 447 0
64 119 209 0
-107 -230 288 0
78 92 191 0
-155 -171 420 0
283 -319 356 0
-207 -281 374 0
-88 -172 415 0
151 193 -378 0
-73 142 226 0
107 158 -419 0
-107 256 288 0
-23 69 -279 0
190 219 -275 0
-21 81 392 0
216 226 443 0
9 137 139 0
48 116 -326 0
18 -141 227 0
170 179 303 0
-192 -294 433 0
-76 -321 343 0
43 -312 442 0
-97 -214 387 0
34 -76 -249 0
49 -346 367 0
-286 348 -364 0
-92 125 333 0
45 -68 285 0
121 -341 377 0
160 -354 394 0
-217 294 303 0
-51 330 402 0
38 -390 -420 0
191 -280 291 0
40 -373 416 0
45 388 450 0
140 -164 -262 0
-124 -211 -416 0
10 -305 439 0
-142 302 -362 0
125 275 450 0
57 147 284 0
-137 301 427 0
-207 273 399 0
-223 -233 -333 0
-7 -79 201 0
73 -87 144 0
-221 -300 -344 0
-102 229 420 0
46 304 330 0
-35 62 360 0
-232 -343 438 0
128 239 410 0
120 128 -427 0
-55 287 -360 0
237 -259 260 0
88 97 -423 0
3 -136 266 0
-86 234 -439 0
-221 411 -449 0
6 -100 120 0
-103 151 -195 0
-262 303 -397 0
46 220 -313 0
-215 259 -313 0
79 -277 431 0
-174 240 261 0
-363 -391 445 0
-185 -349 436 0
-51 -366 430 0
1 7 101 0
-56 -317 428 0
-332 -396 -430 0
-22 273 437 0
42 166 291 0
-181 206 292 0
23 -105 -380 0
102 -116 150 0
-31 52 442 0
-84 -235 -297 0
10 13 148 0
-117 -156 199 0
-85 -216 -400 0
43 -66 -408 0
-162 219 238 0
-106 206 -378 0
208 -282 294 0
183 -223 346 0
-73 -144 -344 0
-35 156 333 0
43 374 382 0
-239 306 350 0
-227 381 391 0
-101 128 288 0
94 230 -423 0
-65 232 -242 0
-172 -201 400 0
-126 -136 366 0
-64 -117 342 0
-180 -266 321 0
-42 -69 177 0
-75 287 -324 0
146 335 -376 0
101 266 311 0
247 403 -433 0
-201 291 -398 0
-42 192 -409 0
256 -436 -441 0
241 307 315 0
-242 279 -315 0
99 -145 -296 0
141 -227 -312 0
66 387 428 0
-139 -222 323 0
-192 -313 402 0
-210 314 384 0
-1 130 341 0
-92 369 421 0
-4 -151 328 0
-49 113 -325 0
2 -154 410 0
165 -339 -344 0
27 332 385 0
-98 -211 -371 0
110 -167 381 0
-177 -220 -231 0
41 -80 425 0
50 73 244 0
-106 382 446 0
258 -282 397 0
69 133 -444 0
63 396 430 0
333 373 -397 0
-115 256 300 0
-173 -190 331 0
110 316 353 0
-162 336 369 0
52 234 325 0
-180 -245 -315 0
63 241 327 0
152 -250 309 0
-39 57 71 0
37 84 -317 0
173 273 -360 0
329 -434 443 0
122 -266 -365 0
-26 99 -318 0
138 -280 404 0
-69 179 -246 0
-82 108 -322 0
-156 -191 -219 0
230 -357 384 0
-17 135 347 0
-75 -303 431 0
34 -194 275 0
-62 160 -359 0
-65 -83 385 0
-98 390 423 0
79 -180 371 0
206 -217 234 0
55 -78 -375 0
-136 214 -284 0
-78 214 -340 0
80 -229 354 0
-2 21 71 0
-26 391 -424 0
-177 217 -311 0
-35 93 -277 0
228 -234 -340 0
-45 -121 383 0
-124 139 170 0
-52 -337 -342 0
291 358 418 0
77 -401 -431 0
-125 197 -434 0
23 146 179 0
23 78 198 0
-3 314 -328 0
132 134 396 0
61 96 -222 0
-36 -70 -75 0
-344 359 -439 0
1 -48 348 0
35 277 384 0
122 276 306 0
36 -332 348 0
-307 348 362 0
-60 182 -184 0
-280 -434 -435 0
224 307 -365 0
-6 31 309 0
-15 167 -239 0
-2 20 142 0
89 -215 276 0
-71 320 439 0
-24 137 -214 0
134 -152 -420 0
-83 84 -202 0
225 297 399 0
-249 309 350 0
-174 -361 -374 0
-119 -171 284 0
-10 -56 202 0
-85 112 -334 0
319 -334 376 0
-20 -369 406 0
39 281 342 0
3 200 258 0
5 178 -304 0
99 183 365 0
34 -152 287 0
92 -154 -405 0
-96 275 359 0
-146 219 -363 0
-114 -318 -402 0
194 -332 -395 0
-115 -152 -320 0
10 26 -207 0
-44 257 367 0
-197 251 -411 0
54 -120 -202 0
-215 326 395 0
201 -286 401 0
168 -222 -273 0
-8 -150 -230 0
93 -127 -405 0
-33 119 -154 0
-30 121 136 0
-10 -90 240 0
187 -379 433 0
-116 152 221 0
-18 210 252 0
-25 308 -412 0
95 -205 -312 0
-40 107 -116 0
-94 -232 367 0
-106 -117 234 0
-148 -346 -447 0
-104 396 401 0
250 -261 -417 0
28 -238 386 0
222 331 -367 0
-183 -367 -410 0
11 -53 -306 0
70 238 -370 0
61 -347 -442 0
157 -197 -365 0
-27 78 430 0
172 396 -442 0
-55 -103 -374 0
-108 -383 -421 0
-144 -266 368 0
-59 -143 318 0
139 -196 -256 0
-17 -35 133 0
85 280 288 0
-123 153 183 0
116 219 -283 0
-224 -321 -350 0
-135 -140 -217 0
-62 -146 237 0
-65 82 295 0
55 -200 -396 0
-335 -357 417 0
-75 -106 204 0
-15 173 -288 0
9 -96 -265 0
-41 214 -248 0
253 -274 352 0
-154 -233 -315 0
-78 138 -259 0
78 158 433 0
194 201 -209 0
8 -200 358 0
132 284 438 0
360 -409 -414 0
-58 -241 -317 0
46 375 -387 0
-57 60 373 0
-136 -140 -398 0
-51 -167 -255 0
-47 -127 -423 0
-130 -289 -436 0
126 150 441 0
147 -195 225 0
241 296 374 0
176 352 382 0
-7 -29 373 0
34 -77 370 0
322 -353 363 0
-157 378 -404 0
359 -385 443 0
25 118 -318 0
137 275 -303 0
-293 -336 441 0
221 -300 349 0
139 -251 443 0
-301 -339 445 0
111 -171 -353 0
24 -38 -57 0
66 143 -278 0
51 80 -82 0
50 318 -330 0
42 -274 -387 0
-24 -111 162 0
-27 -195 230 0
-45 -86 380 0
-154 297 382 0
32 121 199 0
-140 -142 -180 0
-46 -133 437 0
204 -258 -274 0
206 -226 -447 0
106 -358 -418 0
-109 -114 -344 0
-8 -19 -65 0
-34 44 172 0
97 120 186 0
-170 357 -384 0
-183 248 298 0
-172 -251 327 0
167 -303 -409 0
73 -240 -382 0
-81 -198 305 0
-90 361 -434 0
111 199 -279 0
-152 156 245 0
51 127 -141 0
-27 207 407 0
2 -347 363 0
-322 -338 398 0
-219 318 415 0
95 431 444 0
-259 -260 363 0
73 -295 446 0
-114 -244 329 0
-3 -150 270 0
104 -266 360 0
-372 417 450 0
166 -232 -353 0
-9 138 -201 0
67 -260 -444 0
105 -116 -231 0
16 17 -52 0
-92 -140 292 0
-55 92 271 0
96 127 229 0
-76 308 369 0
160 -246 -301 0
8 14 -36 0
157 195 -229 0
88 102 413 0
370 -377 -407 0
39 -58 -147 0
47 -122 -339 0
62 -171 -386 0
-159 220 325 0
41 -159 202 0
41 194 436 0
-246 269 -450 0
166 330 -345 0
-92 -111 210 0
-8 100 -444 0
-57 265 304 0
16 -294 352 0
-67 105 410 0
-108 -126 149 0
92 244 -430 0
-61 -172 -416 0
-42 132 -170 0
87 -139 -160 0
319 331 -393 0
43 202 -335 0
-58 -304 330 0
42 188 249 0
42 49 128 0
-97 192 318 0
48 -180 426 0
-36 95 -185 0
-121 -199 -256 0
12 110 -384 0
-45 269 322 0
-13 -18 -84 0
327 -430 -440 0
-297 402 440 0
-112 195 -235 0
-72 125 290 0
65 -113 147 0
12 44 -170 0
-67 98 -294 0
106 -383 443 0
51 -285 397 0
-154 -376 411 0
30 287 -338 0
27 39 375 0
-5 192 307 0
23 34 395 0
-111 212 356 0
-13 334 353 0
-61 -72 109 0
-117 293 -397 0
39 176 327 0
-50 -81 -405 0
211 379 392 0
131 -181 -297 0
-176 -382 -394 0
-15 133 -190 0
22 -298 -333 0
-140 -162 170 0
101 -143 234 0
95 261 -359 0
359 381 -447 0
-56 -199 450 0
-143 -202 401 0
-91 292 350 0
-33 69 132 0
204 293 434 0
-22 -35 -316 0
-38 -170 352 0
-29 82 -84 0
-105 -323 399 0
64 88 415 0
187 247 258 0
-47 -101 -147 0
-50 203 -319 0
-144 -290 -430 0
-157 -253 -360 0
-10 139 276 0
126 154 313 0
-76 77 375 0
46 -344 437 0
-110 -339 396 0
22 -224 254 0
-18 28 -236 0
220 232 256 0
43 269 388 0
-132 293 -434 0
-215 -228 -286 0
-193 202 -276 0
-189 -242 421 0
-151 332 -399 0
-123 142 350 0
211 378 -443 0
204 -271 309 0
5 23 -424 0
-1 82 -366 0
-138 -172 -380 0
-89 -281 419 0
-411 -416 -444 0
-68 -401 -437 0
257 -278 -351 0
-51 108 -203 0
-75 159 -379 0
24 90 209 0
92 -316 337 0
-284 -332 -383 0
-106 443 448 0
88 333 -349 0
-160 191 327 0
212 336 -434 0
137 154 -284 0
-45 -48 -279 0
-235 -259 275 0
226 -345 -396 0
42 -71 337 0
-75 89 370 0
-37 45 -200 0
81 -320 -443 0
-50 283 318 0
60 217 -245 0
-155 351 354 0
99 -396 423 0
143 267 -333 0
-100 -351 -361 0
17 -98 432 0
-98 386 -422 0
75 -125 256 0
-144 298 -371 0
198 -299 -345 0
151 219 -371 0
166 -174 301 0
-190 -216 258 0
33 -120 -150 0
242 387 -420 0
115 275 344 0
242 -248 -400 0
-88 -230 409 0
-1 -295 -430 0
85 -178 -268 0
40 405 -422 0
388 395 -440 0
-5 -84 432 0
277 372 419 0
104 -203 -356 0
27 -53 -61 0
222 -302 384 0
-56 206 -242 0
-22 -95 -304 0
13 320 369 0
-37 -241 -392 0
27 -41 -84 0
-17 313 335 0
-109 196 -439 0
-234 -267 317 0
-31 103 287 0
-17 367 -412 0
-29 118 -356 0
52 141 318 0
210 225 -325 0
26 315 327 0
-22 -249 409 0
122 -236 352 0
45 -73 -156 0
-143 249 -272 0
168 -296 -428 0
-109 -131 232 0
-190 -396 -441 0
184 308 379 0
38 -209 348 0
-153 -161 260 0
18 -39 -87 0
303 -310 427 0
-2 138 179 0
52 84 -119 0
58 176 215 0
160 -175 -357 0
-35 -222 338 0
-66 -156 -328 0
77 210 -338 0
86 -96 -403 0
-62 261 -448 0
-216 313 -355 0
-80 -170 -239 0
30 -128 -402 0
221 226 295 0
107 113 362 0
160 170 -261 0
31 328 386 0
-165 -227 -328 0
-12 81 342 0
-124 -156 187 0
60 354 410 0
65 -264 379 0
9 -160 352 0
92 -156 -206 0
-15 195 369 0
189 257 414 0
-9 -40 171 0
106 313 -432 0
82 -214 -323 0
123 -124 -164 0
33 -35 296 0
-26 -166 199 0
84 -215 -449 0
-59 -170 230 0
1 247 -328 0
-47 -352 -437 0
-215 -281 -321 0
135 253 360 0
52 -111 274 0
-25 -28 -415 0
79 -130 -279 0
-170 -212 325 0
2 -81 -215 0
314 360 413 0
-172 -251 -373 0
115 -262 393 0
61 -182 284 0
317 -329 369 0
-199 438 -450 0
274 403 424 0
-80 165 293 0
-19 -362 403 0
131 -318 442 0
-30 -69 -175 0
-125 144 -436 0
37 310 393 0
-339 -346 442 0
60 -380 -395 0
-121 145 431 0
110 364 -447 0
106 202 360 0
378 379 400 0
41 -189 437 0
267 -404 -439 0
-92 -104 -249 0
179 -217 -346 0
98 -278 -355 0
59 -82 -349 0
160 -311 432 0
-24 -243 -284 0
-118 -160 361 0
-29 -184 -262 0
50 132 -257 0
-115 166 -234 0
37 166 219 0
-31 -324 359 0
-180 -191 -385 0
199 -217 238 0
-2 -49 412 0
63 -133 327 0
-241 -408 -436 0
-146 148 198 0
-105 -307 -406 0
-82 89 119 0
18 -35 -376 0
154 171 174 0
-266 273 344 0
146 240 -357 0
284 -310 -414 0
39 -195 276 0
324 -336 -341 0
104 362 -432 0
-18 184 384 0
35 324 351 0
2 -61 275 0
36 -166 430 0
-111 273 412 0
-229 411 -443 0
160 -283 411 0
-92 186 236 0
-145 178 250 0
66 199 -436 0
199 -217 -383 0
-216 -272 429 0
-69 -202 271 0
-75 -79 223 0
84 -235 -423 0
49 279 -348 0
48 -332 -426 0
-41 -260 -283 0
42 90 -93 0
-125 -138 -240 0
-36 -138 -308 0
-12 149 -296 0
-121 -151 -300 0
-102 156 375 0
-43 206 -424 0
-141 -244 448 0
-13 272 -355 0
70 -210 -432 0
5 -355 370 0
174 -242 372 0
-155 -170 366 0
226 241 379 0
-211 -229 406 0
-218 -255 269 0
-62 181 -296 0
15 -228 -271 0
155 400 448 0
318 -326 -432 0
-38 -265 410 0
-92 171 -310 0
-29 69 -302 0
-126 -154 312 0
75 373 439 0
24 -340 -372 0
37 -57 241 0
309 -351 -413 0
2 -51 -323 0
-22 24 -269 0
-210 -374 -450 0
17 212 -444 0
-204 -414 423 0
-167 228 442 0
183 -217 252 0
-238 -272 353 0
96 -290 370 0
63 -165 176 0
-91 -172 280 0
-34 -124 427 0
-320 -364 -367 0
-45 -176 -266 0
164 188 -340 0
12 -252 -420 0
206 235 -393 0
97 227 -438 0
68 -255 435 0
143 374 -398 0
-88 340 -346 0
137 -397 415 0
84 292 -341 0
-230 -235 -314 0
72 -141 -337 0
-57 116 -330 0
27 145 -324 0
139 207 394 0
-57 230 -437 0
202 -243 -372 0
5 96 -213 0
-59 342 389 0
33 253 383 0
-100 168 -362 0
23 236 342 0
-140 -211 -267 0
24 -51 172 0
185 270 -379 0
41 -52 331 0
16 78 -124 0
40 104 -156 0
11 60 -404 0
341 -359 395 0
-128 317 -387 0
193 378 432 0
-194 248 -350 0
348 390 -450 0
18 26 -259 0
89 -198 -410 0
-59 -337 341 0
13 -150 -352 0
293 301 -417 0
-10 -422 -442 0
207 362 408 0
-94 -232 -378 0
-51 93 -155 0
110 286 335 0
69 -361 424 0
-10 -12 -197 0
156 -171 -252 0
326 342 -399 0
19 202 229 0
75 289 -425 0
-140 293 -427 0
-92 93 123 0
-308 -388 -425 0
-92 -228 -403 0
259 317 340 0
159 -252 -253 0
-82 -430 448 0
44 -271 309 0
-2 -181 -192 0
83 -151 357 0
6 143 316 0
-108 -276 349 0
-52 259 380 0
-76 -120 -301 0
10 189 -264 0
181 -186 265 0
-101 -107 330 0
-51 235 263 0
-394 414 -450 0
-194 281 -338 0
-8 -245 329 0
-211 -306 -363 0
188 -225 -282 0
-17 -100 -275 0
141 -205 -221 0
50 215 241 0
-100 234 319 0
18 -160 381 0
4 53 -237 0
74 -241 288 0
10 67 -374 0
-43 -97 -338 0
-19 -29 299 0
-39 70 -127 0
22 279 435 0
-178 -211 401 0
-197 299 311 0
328 -396 -430 0
50 -329 339 0
-304 322 -404 0
-192 -286 392 0
-188 336 -401 0
-237 238 408 0
37 124 407 0
-289 380 -399 0
-21 359 419 0
-135 195 -269 0
-71 276 332 0
-24 -55 -423 0
92 145 -172 0
21 123 -441 0
-86 -399 417 0
-100 233 -264 0
-68 -169 327 0
-192 -193 -414 0
154 163 -255 0
-30 -323 442 0
51 -81 -245 0
-117 335 338 0
137 286 -336 0
-247 -248 -409 0
-190 -340 -408 0
-104 -138 252 0
55 -332 350 0
-59 109 400 0
-165 -312 -398 0
-240 386 406 0
67 253 -348 0
17 -151 -191 0
95 -295 -425 0
-221 270 -405 0
103 -327 363 0
-126 -155 -267 0
-55 -328 449 0
-21 -274 -363 0
-17 -203 -206 0
112 263 315 0
28 -141 -367 0
-236 -316 -343 0
-50 -331 -395 0
-284 337 -418 0
-234 -276 291 0
125 -165 230 0
-125 -180 -250 0
-319 -380 416 0
-18 266 294 0
-39 -363 379 0
65 -165 -443 0
159 -275 420 0
156 349 373 0
-178 222 278 0
163 337 -411 0
25 -29 -152 0
-87 -126 181 0
-10 -269 303 0
12 88 439 0
-173 -217 -254 0
196 366 -441 0
17 81 368 0
21 74 -182 0
-18 23 170 0
165 314 427 0
217 227 447 0
39 89 255 0
-146 281 -400 0
246 -252 -348 0
-182 305 426 0
-230 -258 -405 0
22 343 -348 0
126 -307 -367 0
148 345 430 0
-278 -343 -412 0
-204 -250 318 0
-54 294 -297 0
269 344 393 0
107 172 -334 0
-64 -226 300 0
215 -254 269 0
173 202 -330 0
-216 -342 394 0
120 381 388 0
-22 -290 -429 0
245 284 -381 0
88 -182 -341 0
-115 185 -338 0
-186 -212 344 0
182 -299 -412 0
-30 191 421 0
-293 297 384 0
-55 276 -284 0
121 308 370 0
-229 233 312 0
223 302 -423 0
-4 349 -449 0
-109 -114 144 0
-64 369 417 0
39 -202 -246 0
-15 -229 393 0
-102 -237 336 0
-3 244 367 0
10 81 -355 0
6 8 -129 0
-9 -177 -381 0
-56 -249 365 0
-44 128 -300 0
298 -324 333 0
-173 302 377 0
3 -118 -147 0
-1 -261 405 0
-118 179 231 0
-81 144 319 0
-103 -167 -297 0
8 -54 380 0
-321 386 -436 0
-44 148 -398 0
146 -159 389 0
23 276 -360 0
153 -300 -336 0
-104 -233 370 0
54 313 -444 0
-11 -129 -390 0
120 -127 -399 0
-25 -317 -434 0
-217 245 339 0
256 -323 449 0
155 269 -362 0
26 -156 248 0
34 -250 -348 0
-191 -232 -245 0
-114 -157 266 0
37 -144 421 0
-354 -404 -450 0
93 399 424 0
-331 353 424 0
-113 -379 383 0
47 51 -131 0
212 -260 -293 0
67 255 -374 0
-163 -304 419 0
-87 226 325 0
100 152 -372 0
-44 281 348 0
-2 391 435 0
-180 391 421 0
-166 -215 -228 0
32 -191 250 0
99 -249 259 0
-129 -345 421 0
-18 239 287 0
12 -328 409 0
152 169 255 0
54 -261 355 0
-77 190 -399 0
-78 300 -396 0
-41 97 445 0
156 -264 348 0
22 313 -326 0
-40 83 152 0
-26 135 298 0
-116 -151 -379 0
77 -183 -448 0
9 43 255 0
214 -232 -324 0
42 -389 -398 0
-30 301 -322 0
-88 -211 405 0
-300 -347 401 0
109 234 324 0
-52 -307 -353 0
-34 -150 -238 0
-74 268 396 0
-67 159 -164 0
117 178 354 0
-30 162 -166 0
-74 231 328 0
22 -27 -63 0
-2 198 385 0
-111 224 430 0
53 -102 -311 0
-9 270 -358 0
-211 280 293 0
-153 244 343 0
99 119 -204 0
91 -248 -357 0
15 -69 -202 0
31 -262 281 0
97 197 279 0
100 169 -307 0
1 34 132 0
357 367 378 0
-108 265 -301 0
184 -263 446 0
-106 -293 298 0
-104 -248 -422 0
16 194 403 0
-53 213 311 0
-135 -165 214 0
-9 10 331 0
53 -300 -427 0
-198 250 318 0
159 269 -398 0
-155 -168 -314 0
-124 -224 -366 0
294 -336 432 0
152 -184 417 0
253 -334 422 0
97 251 -418 0
94 -327 -337 0
6 -26 -79 0
-184 -304 360 0
32 -314 -320 0
-89 -122 336 0
-7 71 -316 0
-49 165 -250 0
-176 341 368 0
33 184 -347 0
76 -263 435 0
-150 -171 237 0
-380 -430 -435 0
125 211 397 0
143 402 -433 0
137 343 384 0
-109 -118 165 0
-96 221 -242 0
294 -322 -422 0
-239 255 266 0
280 302 358 0
95 -335 -437 0
124 -128 312 0
-41 -385 -432 0
16 347 -357 0
-1 127 -450 0
53 268 -390 0
-175 220 312 0
160 194 438 0
-33 -63 349 0
346 360 376 0
-198 -235 296 0
100 189 -268 0
-183 -261 -307 0
-158 191 -450 0
-240 310 -349 0
-167 -300 350 0
-233 -330 372 0
-35 357 -443 0
92 -288 -313 0
-82 309 -393 0
-208 -259 -362 0
-146 -233 -332 0
-161 -245 439 0
286 -313 445 0
-14 -94 -283 0
-132 242 393 0
-231 255 404 0
-91 232 317 0
-153 182 271 0
-203 -227 -277 0
-285 -360 -442 0
-124 -251 -433 0
-179 -186 388 0
-49 199 389 0
-8 -238 265 0
250 -357 -432 0
5 -65 -221 0
177 289 -388 0
178 359 444 0
71 141 334 0
-77 160 256 0
227 392 442 0
-94 392 424 0
64 347 -377 0
211 222 -337 0
163 -187 -362 0
-64 74 236 0
137 411 444 0
26 65 -161 0
93 -213 292 0
72 294 307 0
192 399 -423 0
14 224 362 0
64 -191 311 0
-81 -206 -237 0
-40 -275 377 0
-205 252 -257 0
17 -58 394 0
125 -216 271 0
-145 258 411 0
152 -159 277 0
46 178 -450 0
-165 250 254 0
-16 -233 -428 0
256 348 -356 0
-27 191 -402 0
-120 -336 404 0
132 -373 407 0
122 -125 143 0
109 -182 343 0
-11 67 171 0
29 -131 427 0
-39 -97 386 0
-135 -164 -342 0
124 -259 -445 0
301 -308 -312 0
190 -346 -370 0
285 344 -448 0
97 -202 -334 0
98 -118 379 0
150 -222 324 0
-318 -364 -376 0
-237 -369 443 0
-111 188 308 0
-24 245 254 0
-112 -162 -227 0
27 197 -386 0
66 -128 334 0
-35 346 402 0
-162 272 -384 0
-235 -300 437 0
58 -151 386 0
-279 -304 413 0
-7 32 366 0
-187 386 -391 0
128 -278 313 0
14 -115 -221 0
151 372 -428 0
-359 395 450 0
63 -80 332 0
33 107 313 0
-68 -153 221 0
-103 -192 436 0
8 -302 345 0
128 155 -343 0
-226 280 443 0
9 197 303 0
-65 95 -102 0
23 38 84 0
-28 278 365 0
105 -148 -413 0
111 -230 -346 0
-39 177 -335 0
39 73 -126 0
7 -218 -444 0
-135 -315 352 0
48 135 153 0
11 243 391 0
-134 248 385 0
-9 -114 333 0
-353 367 -422 0
120 -310 390 0
105 -269 -295 0
-38 -241 410 0
30 -48 -57 0
-108 109 -188 0
121 -136 -171 0
9 -92 251 0
-149 -210 315 0
-158 -306 -340 0
299 358 -408 0
47 -60 -410 0
-67 187 409 0
-96 -111 -168 0
-55 -428 438 0
61 144 -278 0
68 334 -359 0
-131 141 -351 0
-125 -180 -236 0
-144 298 321 0
-2 203 -278 0
-107 -225 -448 0
-57 -102 147 0
61 118 -174 0
-50 84 -416 0
4 341 -444 0
18 170 274 0
100 367 393 0
-107 -416 -440 0
161 196 -450 0
-89 -214 -442 0
1 -41 180 0
-49 -267 -303 0
251 -396 398 0
-42 -183 221 0
52 -89 -315 0
146 -311 379 0
98 359 383 0
-161 318 -405 0
-81 -124 -192 0
-2 7 91 0
148 192 362 0
-157 167 228 0
130 -354 -441 0
-5 -242 -338 0
3 212 -296 0
-22 -368 436 0
303 -383 420 0
58 -87 415 0
-109 -203 308 0
22 -32 158 0
-192 213 385 0
-86 136 -376 0
-47 -237 -318 0
-101 307 -312 0
-175 235 440 0
-252 -255 -438 0
72 -211 -398 0
-285 392 443 0
-122 -296 385 0
-158 -222 424 0
2 48 333 0
-133 -239 415 0
57 -207 -243 0
-12 43 88 0
241 -255 262 0
66 -145 -310 0
91 210 352 0
-32 -41 -279 0
-188 -190 -411 0
-119 211 379 0
15 97 -279 0
-55 -285 -423 0
11 141 -245 0
-136 198 338 0
13 216 -335 0
-9 96 -281 0
-81 -143 307 0
-272 387 -417 0
-218 239 -316 0
85 318 440 0
-271 359 -392 0
287 292 363 0
57 -87 -218 0
-51 -208 364 0
-41 74 -237 0
268 -289 -342 0
-87 -199 424 0
291 300 363 0
-131 -298 -363 0
-10 270 -280 0
-200 -373 -384 0
-208 -371 392 0
127 173 436 0
117 123 407 0
164 219 265 0
9 187 239 0
99 -176 266 0
12 322 351 0
125 219 225 0
6 186 -232 0
6 -15 -321 0
92 182 236 0
-6 -295 386 0
-123 192 -386 0
-92 -146 312 0
360 443 -448 0
-96 173 -307 0
-125 269 332 0
-31 -207 -238 0
122 333 424 0
-117 -177 399 0
52 -81 383 0
-128 -208 407 0
-82 394 411 0
-59 77 -155 0
54 162 428 0
-12 55 317 0
-86 -290 -416 0
-80 94 348 0
-78 255 -431 0
204 -266 267 0
-150 -235 -427 0
16 223 -246 0
-15 -213 419 0
-26 58 -251 0
160 -290 313 0
53 196 -310 0
84 -109 -143 0
-11 255 -432 0
-97 -259 -413 0
-95 -157 -336 0
189 -262 -292 0
22 265 -290 0
178 316 381 0
116 -351 -443 0
78 286 293 0
-177 -309 -377 0
208 379 423 0
-47 -93 190 0
-59 -129 283 0
152 -291 419 0
190 379 427 0
-105 311 -361 0
14 -88 314 0
-49 -214 378 0
-31 -36 346 0
59 156 159 0
46 -212 277 0
181 284 -427 0
-4 -225 -393 0
-47 93 -146 0
-229 -291 428 0
74 127 429 0
112 166 255 0
8 -291 -357 0
128 160 -320 0
129 351 407 0
24 -189 276 0
171 -232 -244 0
102 142 170 0
-83 272 -352 0
-183 -218 253 0
173 -243 433 0
-75 88 142 0
-12 -315 333 0
28 -69 -338 0
-354 -403 -422 0
-14 247 425 0
165 233 -251 0
-18 -399 402 0
-67 -78 354 0
-51 54 -307 0
9 67 72 0
-86 -125 -380 0
-108 398 401 0
177 -284 349 0
-263 -297 -324 0
-18 -190 -375 0
-74 -247 -345 0
30 -352 -413 0
192 -305 342 0
123 217 345 0
-176 -234 237 0
147 -292 380 0
10 77 -340 0
13 -105 -118 0
288 312 -417 0
-173 385 411 0
-46 -77 266 0
-64 -102 -129 0
-175 329 -425 0
-37 -206 429 0
-5 -77 -208 0
-104 -163 -266 0
-87 -366 423 0
30 -132 186 0
41 78 139 0
78 -150 -446 0
23 108 -174 0
61 -253 333 0
-237 278 -384 0
-350 -367 419 0
-69 -76 150 0
28 172 -362 0
26 -62 -401 0
107 -265 278 0
-23 -55 330 0
202 361 447 0
147 -151 -270 0
232 -362 -439 0
32 -80 -409 0
7 20 75 0
-37 379 -415 0
139 267 -347 0
-293 -344 -423 0
-71 -301 -407 0
-50 -241 295 0
-59 169 314 0
186 -271 322 0
358 388 426 0
239 358 413 0
-159 -218 -326 0
210 -340 -371 0
-70 -247 314 0
204 -400 439 0
328 343 -420 0
300 -316 354 0
126 131 379 0
116 174 449 0
-97 132 410 0
-25 75 -414 0
75 93 178 0
116 -117 225 0
-75 -263 -365 0
-183 -203 302 0
-291 -345 -373 0
-41 244 -346 0
-97 189 341 0
-44 -60 -195 0
75 -233 309 0
-37 -317 -398 0
58 -371 431 0
147 -387 393 0
87 252 -352 0
-33 -47 -356 0
-94 -158 -364 0
-38 332 -362 0
17 -307 378 0
113 270 -350 0
-108 248 -418 0
82 -232 -387 0
25 303 -443 0
128 -211 299 0
-39 -425 441 0
-111 -298 408 0
206 243 261 0
-60 127 -156 0
135 -321 -399 0
-51 187 263 0
43 -124 357 0
254 417 443 0
-104 250 377 0
181 205 227 0
-290 318 378 0
-183 257 354 0
26 -390 -431 0
-84 -99 -399 0
107 -116 127 0
-16 177 -361 0
195 -246 -257 0
-38 -75 -255 0
38 -258 -303 0
-40 -48 -316 0
-133 -217 307 0
-198 282 -448 0
2 -67 268 0
-1 228 -390 0
30 -223 353 0
-47 -143 -443 0
-22 67 -295 0
-37 -267 -268 0
94 237 257 0
-108 148 421 0
165 -181 -433 0
51 -162 -404 0
99 -257 336 0
-48 -154 -357 0
-218 -239 -434 0
247 -371 382 0
-80 109 264 0
-51 -68 104 0
30 -190 388 0
8 21 -176 0
28 321 444 0
98 209 417 0
-98 -262 -322 0
-180 211 -295 0
-30 227 311 0
-233 -275 432 0
123 -229 373 0
136 -151 -315 0
17 -267 -351 0
-9 -244 259 0
103 -182 -196 0
109 286 -297 0
-270 -272 -315 0
-50 -112 -377 0
-112 133 410 0
2 -208 380 0
-143 156 -294 0
68 -200 -450 0
-52 -109 161 0
19 -237 -371 0
-7 129 -360 0
-122 207 -349 0
-239 -262 315 0
-90 -165 342 0
88 -183 190 0
-28 -119 180 0
95 -181 327 0
106 130 418 0
202 240 -292 0
-206 -310 419 0
146 -346 409 0
-167 -217 -267 0
-30 142 -297 0
-186 -222 295 0
175 -273 -360 0
-11 -50 -390 0
106 211 385 0
-36 -94 -209 0
-17 238 337 0
72 201 -385 0
9 -197 384 0
189 -306 369 0
90 157 -291 0
12 -112 -174 0
17 -76 -219 0
-163 -332 -346 0
-195 -218 -357 0
-28 -267 -405 0
-214 229 328 0
179 187 416 0
19 -76 -428 0
-6 84 368 0
125 277 -399 0
227 395 -437 0
153 414 446 0
46 144 -154 0
1 13 -19 0
-46 131 225 0
57 140 250 0
-76 -240 -384 0
-155 -232 -301 0
-129 -266 396 0
-79 -134 -393 0
-143 -390 -430 0
76 248 356 0
54 -376 -414 0
-33 -73 403 0
-6 -153 -174 0
-244 315 394 0
-89 262 437 0
21 47 139 0
77 118 404 0
8 -343 -403 0
-20 332 -432 0
-68 137 339 0
-14 -96 450 0
-294 303 329 0
-108 -177 -394 0
-251 -274 321 0
-74 -208 307 0
83 176 -370 0
331 339 364 0
100 -394 439 0
-72 -311 449 0
-250 -412 -430 0
-196 -248 -341 0
168 -235 360 0
-118 -150 -396 0
-53 295 -394 0
-24 -110 -419 0
-101 205 228 0
38 64 198 0
121 122 263 0
-22 57 313 0
-351 352 -391 0
-272 324 441 0
102 404 438 0
-197 242 243 0
-283 295 421 0
95 -115 343 0
185 245 334 0
-34 -229 294 0
-260 317 337 0
-71 269 392 0
-213 -297 -373 0
-1 307 420 0
27 255 -268 0
68 -418 448 0
-161 -216 -395 0
141 155 -164 0
-43 -335 -407 0
-122 156 242 0
-271 418 -445 0
120 269 -322 0
260 420 449 0
119 -373 418 0
-53 -143 205 0
-58 -194 240 0
-8 -121 -443 0
25 -155 -426 0
-67 262 -445 0
-102 311 390 0
-339 -345 389 0
-6 -57 -318 0
-50 -135 -314 0
-75 -83 336 0
137 -181 448 0
-76 121 -281 0
-204 415 -427 0
117 248 -287 0
-3 -145 221 0
20 144 415 0
24 30 -121 0
236 239 402 0
72 -396 420 0
350 417 -429 0
-94 -266 355 0
31 -286 -450 0
-157 -287 -381 0
138 156 203 0
-100 116 -274 0
-116 -153 243 0
178 -189 -290 0
247 330 339 0
-155 -297 378 0
51 -181 192 0
35 55 -288 0
-74 -182 430 0
159 215 385 0
-113 -317 -347 0
-296 -334 -428 0
-23 171 355 0
270 -409 419 0
153 -346 395 0
-87 241 -379 0
240 -337 -383 0
233 -411 416 0
-201 -283 402 0
37 143 424 0
17 -115 273 0
-11 192 211 0
2 232 412 0
41 352 -439 0
77 -150 -266 0
282 -308 -361 0
165 251 446 0
