p cnf 450 1917
-295 374 397 0
30 -260 430 0
-23 -153 -229 0
-10 21 40 0
7 -402 406 0
-50 143 245 0
-58 -399 445 0
-91 282 440 0
-114 -128 -418 0
119 388 -450 0
-15 -114 -405 0
-47 317 -420 0
111 -250 -296 0
72 243 249 0
63 418 -426 0
33 220 380 0
-59 -125 -252 0
-105 -186 345 0
144 167 426 0
41 -273 -335 0
12 -197 -235 0
339 350 351 0
201 285 -356 0
193 202 -330 0
133 295 401 0
112 293 -318 0
27 138 292 0
-337 -349 -400 0
49 113 347 0
84 -167 -250 0
-53 95 142 0
-47 -116 268 0
-224 274 345 0
-121 -320 441 0
-184 -265 275 0
-7 232 369 0
-96 141 441 0
205 216 409 0
316 -368 -389 0
-141 255 410 0
-89 106 380 0
-90 117 -182 0
17 201 -269 0
141 -375 -380 0
1 -216 298 0
-117 -199 -446 0
175 -230 430 0
-110 -276 361 0
59 98 213 0
95 -134 -185 0
-196 -263 381 0
58 303 360 0
23 159 -300 0
-103 142 265 0
-179 272 -325 0
-87 112 294 0
155 -203 -377 0
7 -276 339 0
-91 -189 221 0
70 142 336 0
189 191 -308 0
297 -302 361 0
86 234 413 0
-97 -153 351 0
142 147 -231 0
102 -203 -325 0
-80 378 -388 0
-81 303 -377 0
-209 -225 411 0
-149 152 -258 0
-31 -286 -412 0
203 -223 -388 0
136 -240 349 0
-135 212 -227 0
-82 -225 271 0
-43 -113 -384 0
-180 185 -360 0
135 298 -353 0
-15 56 346 0
161 -368 449 0
-86 -359 416 0
-95 -181 308 0
243 -296 -450 0
-116 -158 -214 0
-87 -119 288 0
38 -186 369 0
109 -176 223 0
-297 -400 403 0
-139 -232 368 0
-21 332 -353 0
174 -340 -370 0
197 -231 422 0
-97 -131 323 0
-138 -237 -440 0
-23 82 -148 0
-95 185 -304 0
-41 59 -179 0
1 134 -418 0
-197 259 -290 0
166 249 -312 0
-3 -141 -448 0
-194 265 302 0
41 -55 319 0
195 -330 -448 0
11 192 328 0
-54 -184 203 0
-92 -183 -410 0
-66 -332 -358 0
118 144 -392 0
-23 -57 427 0
-39 60 373 0
89 121 -440 0
151 -168 -341 0
-52 114 -366 0
-57 115 -203 0
-20 -90 165 0
121 194 330 0
43 137 -204 0
31 -93 400 0
25 -252 -324 0
199 298 320 0
235 -345 401 0
108 -118 -226 0
-35 -63 377 0
-244 261 -401 0
-20 264 -433 0
-269 388 -412 0
89 -105 -132 0
194 -362 -370 0
264 -310 -423 0
-217 300 418 0
-97 155 369 0
37 -245 -262 0
-17 156 -189 0
-155 304 389 0
24 -75 -263 0
12 -29 -36 0
-231 294 -354 0
-46 54 311 0
-106 -356 409 0
-106 -237 -327 0
-41 290 -336 0
262 -268 334 0
130 151 -231 0
21 -431 433 0
87 308 350 0
-64 -191 276 0
149 -219 248 0
273 275 -416 0
-352 362 404 0
-8 137 -159 0
67 107 -347 0
-57 216 -225 0
1 87 207 0
88 -203 -245 0
318 -322 417 0
198 210 220 0
-35 -193 -366 0
196 321 340 0
-79 -139 -371 0
-42 101 -156 0
-67 313 377 0
-220 -334 414 0
107 115 287 0
-102 -128 181 0
168 204 309 0
1 -177 -331 0
57 64 296 0
-42 229 -396 0
78 91 212 0
-236 -295 -323 0
28 -380 403 0
68 -239 -246 0
78 206 -289 0
-180 333 430 0
-135 268 404 0
147 -192 -351 0
-7 -284 -320 0
363 408 436 0
183 -307 369 0
321 -325 -386 0
64 220 -434 0
-54 226 -426 0
24 165 -413 0
85 251 -435 0
-42 -74 -205 0
-42 84 -150 0
65 110 -384 0
-212 -257 333 0
-111 -229 -244 0
89 275 -312 0
-99 -363 -434 0
76 -130 -433 0
-16 -317 388 0
-74 238 -280 0
45 -56 79 0
-39 393 -421 0
-40 -174 386 0
-98 -412 434 0
56 66 325 0
57 75 -87 0
62 -121 -332 0
-33 50 -242 0
162 383 450 0
-70 323 -448 0
-60 314 402 0
-190 -322 337 0
-39 -112 115 0
219 -305 445 0
58 -235 -307 0
109 -236 441 0
-160 -337 392 0
276 344 392 0
-116 355 -398 0
272 -314 -378 0
-21 -24 72 0
-352 -363 395 0
-121 -183 -185 0
215 255 449 0
-26 44 83 0
194 262 304 0
283 -310 -426 0
-186 -218 -331 0
124 368 387 0
-73 282 356 0
-165 -311 450 0
15 -165 -440 0
-73 191 -372 0
16 309 351 0
64 134 415 0
26 68 -359 0
81 -265 288 0
-82 -147 -150 0
-59 282 305 0
-104 214 -399 0
-110 -191 -378 0
79 341 420 0
-72 158 301 0
-9 50 338 0
82 192 302 0
56 133 -419 0
-5 52 301 0
-290 391 435 0
59 -329 400 0
-239 272 319 0
-74 159 318 0
-133 -211 -395 0
239 -394 440 0
145 -174 301 0
12 158 307 0
78 -204 329 0
14 138 -300 0
-96 135 198 0
31 198 222 0
105 185 278 0
155 -240 -434 0
-69 221 289 0
-65 137 -299 0
-74 -248 345 0
-17 -99 -288 0
-59 -142 -301 0
56 137 -329 0
-22 -127 251 0
149 -360 437 0
96 -228 372 0
36 383 412 0
-62 -274 443 0
131 161 -327 0
-158 -172 445 0
-349 372 444 0
45 -326 407 0
56 -171 -298 0
-67 196 -250 0
179 231 -287 0
-7 -10 -408 0
34 -375 416 0
-94 130 429 0
-157 -309 -314 0
151 255 435 0
-159 372 -382 0
-44 80 115 0
178 218 438 0
81 -195 -441 0
-102 -392 435 0
12 -203 225 0
118 -260 -316 0
23 -40 -356 0
131 -156 314 0
25 -192 214 0
-93 -434 443 0
-137 144 -229 0
-172 -374 393 0
205 -306 -415 0
109 -286 400 0
-79 164 229 0
169 -256 360 0
-334 367 386 0
-25 85 -229 0
-60 326 343 0
116 -348 -355 0
17 -144 435 0
-20 115 365 0
127 -143 337 0
97 199 222 0
-45 -101 -234 0
41 -434 446 0
149 -262 449 0
45 -49 -269 0
165 -167 -258 0
-105 143 -383 0
-105 191 344 0
-142 -205 -221 0
138 -162 -396 0
72 141 331 0
-51 -117 -345 0
76 233 -268 0
38 147 -323 0
-117 160 -287 0
194 201 -374 0
-92 -145 197 0
41 -381 389 0
-106 -368 423 0
87 124 435 0
58 -71 361 0
25 260 -363 0
-79 91 209 0
-114 -167 289 0
101 -143 420 0
-289 -325 443 0
84 -195 -254 0
-186 -418 -427 0
20 84 -210 0
-320 -400 421 0
89 -339 -398 0
44 96 -342 0
62 283 -445 0
-334 -402 -412 0
-147 276 -295 0
-169 -383 396 0
31 -226 392 0
320 342 -429 0
-4 -265 371 0
225 302 -438 0
-8 35 292 0
-28 173 388 0
101 120 392 0
-98 194 -277 0
174 263 -428 0
302 304 -349 0
-246 -289 -377 0
-4 112 317 0
-68 -133 333 0
6 12 -157 0
-194 240 333 0
-47 -77 -410 0
223 -370 -450 0
11 -112 -154 0
-56 -77 -179 0
169 409 440 0
57 105 -204 0
-177 228 412 0
-2 -248 298 0
95 406 436 0
21 268 431 0
-213 -280 -370 0
-94 341 -431 0
-53 -131 257 0
98 386 -424 0
-171 -193 -307 0
132 -330 393 0
102 344 -423 0
-138 179 335 0
-39 385 -438 0
2 338 414 0
-253 -330 388 0
238 -329 -358 0
-67 114 154 0
236 341 -375 0
346 435 -444 0
49 -105 -361 0
139 -340 364 0
26 -160 264 0
-107 299 -335 0
-182 -188 -437 0
-89 -176 -223 0
89 262 336 0
58 381 429 0
54 -61 82 0
-27 294 398 0
-117 172 -226 0
203 -219 -408 0
-80 -164 -212 0
-156 -219 -414 0
216 -219 -307 0
-95 247 432 0
-180 366 369 0
-338 -376 -407 0
26 280 -364 0
-83 240 262 0
-16 -160 191 0
-140 233 253 0
-71 322 -435 0
129 -283 325 0
30 -245 -260 0
-36 234 253 0
-137 194 -388 0
-190 326 -342 0
172 -241 325 0
6 177 -244 0
152 386 397 0
22 111 -167 0
-77 96 347 0
116 203 384 0
-19 327 -385 0
-193 -200 265 0
122 -309 338 0
172 -282 335 0
-72 -349 -419 0
8 -269 -271 0
-212 -218 -315 0
126 172 -427 0
-155 180 -240 0
-60 -138 449 0
273 -354 -439 0
138 -325 -327 0
92 194 269 0
143 -331 -448 0
175 -228 255 0
-128 352 387 0
326 398 -419 0
20 61 -83 0
16 -132 410 0
-164 -299 371 0
-43 -265 -441 0
290 -350 359 0
69 -80 221 0
-228 -333 376 0
43 -165 -196 0
64 235 282 0
-259 -346 -347 0
88 -263 -321 0
44 287 -337 0
-154 -321 -436 0
209 269 -439 0
-122 -171 284 0
13 -137 -191 0
-328 -364 -397 0
-88 -370 411 0
18 253 447 0
108 392 -447 0
-70 80 421 0
307 379 -425 0
-206 -287 353 0
-38 -59 417 0
-119 223 331 0
207 242 302 0
-186 -393 -423 0
76 81 -117 0
144 222 -225 0
-33 127 441 0
60 -100 -265 0
224 310 412 0
72 -82 -340 0
7 -41 -422 0
-226 380 -388 0
-77 313 -385 0
240 353 -430 0
19 78 -140 0
32 150 412 0
-138 -261 -441 0
15 -88 254 0
79 -96 -413 0
44 -166 337 0
-112 -187 -372 0
123 209 -447 0
-233 251 416 0
36 283 -435 0
344 374 398 0
-176 -372 400 0
100 -337 -408 0
-155 -158 445 0
149 382 -438 0
104 229 279 0
134 -201 -342 0
-141 -340 363 0
-125 -133 169 0
-89 -97 226 0
-22 -70 159 0
-12 137 412 0
-170 336 448 0
177 -189 -341 0
-178 192 436 0
-52 77 -139 0
-44 348 416 0
-348 402 431 0
-123 289 -318 0
195 -388 -399 0
-288 -414 -439 0
-81 335 444 0
-77 -153 -228 0
-84 -379 -407 0
6 -212 -343 0
-68 177 241 0
-13 -65 123 0
111 -220 330 0
-185 -278 -409 0
65 254 444 0
82 300 -388 0
6 -201 402 0
127 -277 -392 0
48 130 -187 0
160 -174 383 0
31 -244 273 0
63 105 -272 0
109 -169 290 0
-124 189 355 0
-61 -97 291 0
43 -159 428 0
-88 -184 -248 0
43 61 -352 0
265 -334 -352 0
-175 200 286 0
-56 -338 -342 0
-179 370 -391 0
164 -254 432 0
-116 185 438 0
-20 87 99 0
53 -56 -137 0
-5 136 293 0
-292 374 -399 0
322 -395 -418 0
160 -405 -442 0
37 -90 342 0
-27 55 164 0
-50 348 399 0
-218 -409 -422 0
-143 -285 -340 0
98 221 -325 0
-87 -123 -314 0
10 345 -435 0
15 406 415 0
-138 -338 405 0
-213 291 339 0
226 367 382 0
201 -242 254 0
-139 177 344 0
60 216 239 0
-132 -153 -293 0
13 -96 304 0
52 -232 -267 0
-197 -212 363 0
16 33 -137 0
-297 -430 439 0
-106 -140 -434 0
35 348 -405 0
-363 -364 -429 0
77 -262 -282 0
62 -146 370 0
-106 -212 232 0
23 -357 -402 0
-241 -282 352 0
235 -394 449 0
125 -177 255 0
-222 -232 409 0
-176 203 244 0
-38 -184 223 0
-199 -248 338 0
52 387 -404 0
181 -205 351 0
68 264 -344 0
-177 -386 402 0
10 48 -70 0
197 278 356 0
40 -89 -201 0
-50 -221 -273 0
4 -396 -410 0
60 121 434 0
-226 300 -443 0
-21 211 435 0
-89 -212 -409 0
-14 -313 -367 0
309 -324 440 0
80 133 -424 0
33 -277 -387 0
-15 195 -440 0
222 -256 320 0
280 -304 -418 0
-37 50 -51 0
-115 -121 -386 0
-273 299 300 0
-137 355 374 0
5 -78 79 0
123 236 361 0
9 -162 205 0
-122 131 320 0
-113 250 -269 0
-63 125 216 0
65 169 -396 0
212 -266 401 0
156 -226 300 0
-43 207 428 0
70 -414 420 0
-61 320 -395 0
-40 -136 -221 0
53 -129 358 0
126 -424 -448 0
296 303 -391 0
-73 105 176 0
-32 -64 334 0
329 -415 -426 0
73 -164 -188 0
49 -190 197 0
26 143 -425 0
-222 247 -300 0
52 96 -307 0
102 -148 314 0
111 -207 -293 0
-19 298 328 0
-82 88 167 0
-2 292 -294 0
-143 312 -386 0
16 -75 -299 0
-9 -64 420 0
-167 -311 363 0
114 -166 -436 0
-231 251 268 0
136 344 450 0
-51 153 -189 0
108 165 -370 0
151 194 229 0
-97 246 313 0
-131 345 -447 0
42 -71 -147 0
34 -83 309 0
118 -224 -289 0
-16 -343 -418 0
26 -285 422 0
137 -305 410 0
-67 -128 415 0
116 174 -261 0
-167 -227 -365 0
99 -183 379 0
57 86 381 0
-8 -238 347 0
-172 217 -430 0
-171 271 -279 0
-187 284 -444 0
23 -208 422 0
98 119 369 0
-135 -293 -436 0
293 381 431 0
1 46 209 0
-163 -177 227 0
-63 318 433 0
-19 146 217 0
52 -287 411 0
15 -160 -282 0
67 126 -180 0
-74 -432 -450 0
-285 312 -396 0
117 -128 -333 0
141 246 -417 0
-43 -223 -298 0
231 336 -415 0
6 59 -185 0
-186 378 419 0
-252 305 -322 0
-293 374 377 0
-74 131 318 0
-63 118 309 0
-139 -194 -345 0
1 -197 209 0
169 394 -410 0
-82 110 357 0
124 149 -265 0
-356 424 -436 0
-71 -149 203 0
161 273 361 0
362 -364 -446 0
170 250 272 0
-260 -281 -440 0
219 -257 272 0
132 -143 -442 0
-82 -170 442 0
35 122 258 0
103 -374 427 0
155 207 225 0
-95 175 -313 0
-86 122 306 0
170 -224 381 0
-46 71 432 0
61 -219 -236 0
-55 -135 -191 0
-186 190 253 0
-36 -106 449 0
-65 -168 -350 0
-161 -178 -312 0
-131 -137 -450 0
-50 268 281 0
281 -351 358 0
-76 -158 246 0
-271 -292 -420 0
118 -393 -396 0
-271 -349 -450 0
244 347 396 0
-223 372 393 0
17 276 356 0
92 169 448 0
-13 214 -232 0
-10 -251 300 0
-99 255 -350 0
-272 -339 364 0
-7 201 345 0
-47 354 -394 0
83 277 -292 0
201 -232 286 0
28 -278 -430 0
100 392 -415 0
26 121 -291 0
-152 179 338 0
41 145 434 0
-187 -251 -414 0
-47 85 407 0
-294 340 394 0
72 -333 370 0
190 274 -312 0
-22 -190 -370 0
52 126 -277 0
-51 -120 180 0
-103 360 -439 0
233 408 -424 0
46 -142 305 0
-59 -206 397 0
119 277 307 0
-168 -346 362 0
17 -85 -268 0
-4 -42 431 0
-141 152 336 0
-95 211 -441 0
-99 -118 228 0
-94 108 -146 0
-168 -206 -429 0
-82 296 -340 0
-110 -274 -396 0
62 -226 334 0
-194 -341 363 0
55 -151 -322 0
223 -305 444 0
121 -316 384 0
123 143 -402 0
359 383 -450 0
9 -30 -162 0
147 -220 -244 0
-108 410 -436 0
13 -65 -301 0
-113 248 -337 0
-270 428 443 0
52 331 -422 0
263 -281 355 0
-138 -215 216 0
132 -186 254 0
-11 -202 -285 0
170 185 385 0
-50 82 -138 0
101 -137 -282 0
-324 -337 -358 0
60 -418 -424 0
-60 -88 -159 0
-94 -327 413 0
-222 359 -385 0
-228 264 -335 0
49 -157 431 0
1 -206 -243 0
179 -234 405 0
-101 389 -412 0
186 273 -420 0
200 239 248 0
-172 -241 -377 0
-40 297 339 0
339 384 -407 0
216 -412 -447 0
14 216 391 0
-243 -345 351 0
8 289 434 0
198 -369 388 0
15 -59 -433 0
-16 -87 225 0
15 328 -421 0
-292 360 375 0
-18 -215 -383 0
-361 -398 -438 0
-164 -391 447 0
59 -243 261 0
99 265 379 0
-254 -339 407 0
-20 233 386 0
244 -274 -293 0
269 -274 -299 0
222 -333 417 0
33 -278 324 0
-24 354 -386 0
-78 -376 -413 0
-211 293 -305 0
-104 -184 327 0
-9 202 302 0
22 123 -412 0
-71 -192 -255 0
-84 95 305 0
24 153 393 0
77 -109 430 0
76 145 -338 0
258 -284 431 0
173 205 228 0
193 -216 299 0
-319 396 -437 0
29 268 367 0
89 198 -352 0
61 -296 391 0
86 104 362 0
-91 182 410 0
-195 -295 373 0
167 256 347 0
41 137 253 0
8 -344 369 0
85 -153 -449 0
352 -381 442 0
-103 -203 365 0
101 -137 -206 0
31 -34 -434 0
-18 -200 314 0
-79 250 298 0
-80 -120 266 0
251 -346 378 0
274 -303 -371 0
-18 236 -291 0
-53 267 379 0
38 -221 306 0
236 376 -393 0
-48 -141 -158 0
145 -189 -314 0
160 205 -280 0
-20 253 421 0
86 -234 237 0
-258 289 -404 0
16 -199 -445 0
-14 -325 -403 0
154 -161 -263 0
114 -175 437 0
285 291 370 0
-152 -280 -382 0
-206 -262 316 0
-123 -167 407 0
-60 67 448 0
15 -72 -291 0
-56 -200 -298 0
5 167 -402 0
-173 -209 -438 0
-40 -76 -139 0
-171 314 441 0
-39 430 441 0
-385 394 425 0
-57 -61 111 0
-287 -343 363 0
-25 -401 -411 0
-225 279 -329 0
34 -80 284 0
14 276 -332 0
-48 -213 232 0
-42 -136 -420 0
20 304 -317 0
41 70 139 0
18 68 296 0
-103 -118 -427 0
-17 -109 -127 0
267 -279 -335 0
-157 -358 -424 0
-139 -222 435 0
-184 238 357 0
-99 -372 445 0
-10 -129 256 0
-304 -381 -397 0
220 -223 -329 0
-313 384 -416 0
151 295 -324 0
280 -318 408 0
-173 -188 -287 0
56 266 368 0
-18 -62 108 0
-110 173 414 0
373 412 -436 0
-23 249 424 0
123 228 -336 0
-142 -219 298 0
-85 -289 332 0
293 391 -428 0
-243 269 432 0
3 -188 -237 0
22 25 -175 0
-14 83 -107 0
71 122 -232 0
23 -296 -339 0
-133 -213 -416 0
114 -260 -392 0
-29 98 220 0
-119 223 433 0
-118 -205 264 0
76 84 -262 0
-11 -179 -354 0
59 399 410 0
159 175 180 0
-1 -41 -73 0
9 48 419 0
-18 -204 -343 0
9 -156 265 0
39 172 199 0
-55 60 -383 0
110 253 -391 0
-233 357 -367 0
311 -376 -423 0
-125 175 -222 0
45 -181 -309 0
-102 116 -361 0
-166 245 293 0
176 377 387 0
97 273 359 0
1 -278 -294 0
58 138 -368 0
-145 256 -312 0
259 -300 -367 0
-146 195 273 0
126 -148 -420 0
-65 101 347 0
73 292 442 0
-242 -339 -409 0
-130 -373 447 0
69 -92 -395 0
-76 108 241 0
86 -245 -247 0
-62 129 -427 0
150 251 -362 0
-42 146 -149 0
42 177 -301 0
234 -283 293 0
-115 215 -427 0
83 285 -377 0
-167 -199 -446 0
-72 -105 -269 0
-128 -177 -283 0
-247 331 368 0
133 239 354 0
90 -93 276 0
-52 -402 -429 0
-69 -177 -266 0
30 -123 278 0
42 43 -110 0
89 -136 -294 0
255 -356 371 0
-45 275 386 0
152 236 -294 0
-61 -213 -299 0
10 31 -188 0
-185 -243 379 0
-167 197 306 0
-21 -241 -403 0
265 316 321 0
-242 -412 -443 0
99 -254 -425 0
-217 -263 450 0
134 360 392 0
288 377 427 0
-147 269 -389 0
-31 -366 406 0
98 -136 -295 0
-254 -284 406 0
-83 -119 -267 0
-160 263 360 0
136 222 324 0
-144 186 -196 0
69 -376 -410 0
-246 364 441 0
169 355 417 0
-20 -120 -382 0
181 228 -232 0
43 258 -296 0
39 -96 351 0
44 181 -275 0
-20 -31 -313 0
-45 208 -418 0
207 231 -337 0
88 -172 253 0
-10 63 -232 0
-201 -248 443 0
185 -285 365 0
-272 425 -439 0
-375 446 448 0
-233 -321 -425 0
-2 12 -38 0
101 214 232 0
14 -55 217 0
-263 302 -412 0
-184 -193 367 0
-62 -302 327 0
30 -251 -362 0
118 198 346 0
109 347 431 0
76 354 444 0
37 -307 -444 0
52 181 412 0
-103 270 280 0
-21 -180 192 0
235 -315 429 0
-297 298 443 0
160 -316 -358 0
54 78 -247 0
81 -119 -271 0
31 200 327 0
-147 -198 224 0
-240 -351 405 0
201 211 373 0
73 -366 408 0
220 -297 -403 0
-67 368 444 0
6 -17 28 0
-346 389 401 0
-73 -225 291 0
-96 -163 169 0
208 314 447 0
265 415 418 0
266 329 392 0
-216 235 270 0
366 -402 411 0
8 -121 246 0
-158 -353 -369 0
-58 -299 -412 0
-53 316 -397 0
33 390 -421 0
-176 179 -278 0
-24 150 214 0
-11 134 -149 0
-224 -317 386 0
-83 -108 -114 0
99 353 401 0
145 -183 -336 0
-132 -215 276 0
-49 77 259 0
43 146 -301 0
37 113 194 0
-79 -136 -246 0
303 -341 -379 0
89 -228 -276 0
-150 -311 -354 0
71 -329 -392 0
-32 -164 326 0
-155 -257 -425 0
-167 -205 226 0
72 -98 285 0
112 294 -354 0
-170 272 320 0
17 79 221 0
113 -121 351 0
66 68 -167 0
-311 -347 348 0
-233 -353 373 0
-53 -109 -378 0
-48 131 -233 0
-66 83 -328 0
7 149 438 0
-60 276 417 0
108 -362 431 0
10 227 -319 0
-67 279 -435 0
-104 -377 -422 0
-170 -266 311 0
98 331 -444 0
-25 123 434 0
53 287 -441 0
-78 158 202 0
-24 129 -392 0
154 404 436 0
146 -159 -314 0
132 307 414 0
34 273 304 0
56 -208 392 0
109 302 361 0
-5 190 -303 0
75 91 -198 0
35 -204 -305 0
-16 -312 432 0
-113 182 -416 0
13 166 -269 0
-1 -198 -324 0
-10 -136 426 0
-126 145 222 0
-46 -173 346 0
-89 279 285 0
-62 143 -173 0
-10 75 -372 0
-112 274 376 0
286 -344 -424 0
98 120 -272 0
-127 141 210 0
-69 135 -372 0
-1 112 -278 0
-145 -193 -246 0
-40 205 385 0
113 168 -411 0
333 -400 -403 0
-149 -269 -394 0
-112 162 -365 0
-40 180 -444 0
141 -295 446 0
-34 259 -279 0
-55 -115 -387 0
-19 -243 -244 0
-103 -130 230 0
-178 247 -347 0
-109 -216 -331 0
-163 226 406 0
52 -142 208 0
-256 272 -303 0
2 143 285 0
-193 225 -404 0
213 -235 -404 0
280 -297 -363 0
-324 -335 376 0
52 -106 391 0
19 -129 144 0
-23 140 321 0
-31 301 416 0
182 377 396 0
-37 62 -442 0
-2 60 -364 0
35 -368 440 0
-248 -327 -402 0
-107 -349 390 0
144 263 326 0
67 -195 -248 0
-94 234 -258 0
-93 -158 304 0
-65 -79 86 0
153 357 413 0
167 -262 380 0
11 282 -285 0
-219 380 446 0
86 351 378 0
-37 -211 429 0
12 316 419 0
29 291 434 0
5 -86 372 0
117 203 -204 0
-248 342 -413 0
1 -108 -359 0
-131 -265 -438 0
79 -261 -355 0
33 -305 389 0
17 -250 -427 0
99 218 425 0
95 -254 -303 0
225 -331 392 0
-33 -157 275 0
179 -221 327 0
-32 -259 314 0
161 250 437 0
62 215 298 0
-119 -184 267 0
27 203 232 0
-152 -186 364 0
108 -136 361 0
-74 -83 -277 0
-17 -44 302 0
-187 -347 -442 0
-9 -350 -401 0
53 -221 349 0
-59 110 -227 0
91 -123 -150 0
-217 229 -390 0
-220 -401 432 0
-250 -332 -348 0
-316 336 -441 0
4 -82 -135 0
-63 146 309 0
-303 -343 434 0
15 -290 -343 0
90 305 364 0
-171 -201 -224 0
-122 190 200 0
-78 344 -402 0
-192 224 -233 0
-148 -187 346 0
-16 -140 -323 0
-153 225 -344 0
49 -144 -240 0
-208 209 310 0
11 -206 322 0
8 352 -357 0
4 291 -323 0
-70 189 -447 0
-175 -178 -247 0
-204 -211 -324 0
-164 -296 -304 0
115 211 285 0
34 -37 139 0
72 91 419 0
133 192 296 0
-227 249 250 0
236 382 -385 0
-179 265 -287 0
115 189 255 0
23 297 448 0
-3 68 -185 0
208 -212 -403 0
-217 236 413 0
-272 317 -450 0
-60 118 139 0
211 300 342 0
-201 -217 -385 0
170 -229 443 0
82 -186 339 0
-4 399 -433 0
-239 321 388 0
-4 264 -408 0
-73 219 -281 0
-118 299 -322 0
-37 -58 -61 0
196 261 353 0
147 279 280 0
122 -220 396 0
-90 353 -386 0
-97 -146 -330 0
91 212 346 0
42 336 348 0
96 336 -403 0
143 -203 204 0
198 -302 -347 0
-138 -168 279 0
-90 -279 -348 0
-64 -77 -310 0
327 343 -344 0
1 -81 -133 0
-37 -105 -185 0
-210 -247 252 0
-188 -327 -350 0
291 -292 448 0
44 74 435 0
-83 120 444 0
-4 -29 423 0
-34 341 344 0
66 342 -400 0
77 -219 314 0
323 -417 450 0
-298 356 416 0
120 223 -428 0
201 219 -318 0
-33 187 -443 0
168 279 316 0
-271 371 421 0
-231 232 299 0
-141 -206 -446 0
-255 -394 414 0
124 143 384 0
-39 108 -365 0
-39 299 -316 0
210 256 -441 0
148 -184 -358 0
-301 407 -446 0
-25 -137 -404 0
43 77 311 0
-43 -80 -131 0
-183 196 -280 0
-9 -98 177 0
-220 313 -399 0
-45 149 365 0
71 251 385 0
119 -130 423 0
-62 391 -442 0
-165 252 258 0
-3 304 -413 0
57 -207 242 0
91 372 -402 0
-38 113 289 0
251 -371 -380 0
-159 -179 225 0
-13 -294 -305 0
131 -265 -295 0
-16 -167 -418 0
163 178 -331 0
-6 24 -440 0
-43 -45 -186 0
-66 178 -240 0
116 329 -334 0
263 284 430 0
26 -212 -322 0
-139 284 -357 0
80 314 419 0
-4 -160 354 0
-123 -391 450 0
-129 311 -323 0
85 -163 -409 0
-89 334 418 0
325 -340 399 0
187 -204 297 0
294 -302 -380 0
131 -315 -415 0
-300 -316 355 0
86 155 -184 0
-115 277 428 0
49 -61 -193 0
-71 -112 -128 0
-114 177 -344 0
148 358 -376 0
-3 -350 -427 0
-92 -127 -237 0
-106 185 309 0
-24 42 -208 0
5 246 405 0
228 -279 -442 0
-265 -270 424 0
31 -96 -343 0
-279 304 -309 0
-61 -160 368 0
93 215 -325 0
68 -113 239 0
23 51 -434 0
51 -79 -322 0
13 -108 219 0
-97 143 -442 0
-61 118 -278 0
-159 -290 377 0
71 197 -404 0
-120 -132 -388 0
-103 -104 400 0
-158 -184 325 0
-59 -334 447 0
-35 63 77 0
-33 -100 284 0
-339 -348 -418 0
-97 -404 -430 0
-110 238 -339 0
-62 -103 401 0
-89 200 -398 0
-110 221 -290 0
69 87 292 0
60 -275 306 0
-3 -160 186 0
113 -266 366 0
56 -347 -374 0
-65 158 -325 0
98 -393 -437 0
-7 -243 -297 0
-365 375 419 0
155 327 -414 0
-146 -304 -366 0
80 -94 407 0
136 -146 -346 0
147 183 248 0
135 -230 285 0
-145 -156 314 0
-37 -109 -209 0
-191 -340 437 0
43 -187 -245 0
235 324 427 0
-164 -245 320 0
-36 87 -114 0
31 55 -275 0
-149 312 357 0
-97 326 -411 0
6 -303 -320 0
56 -98 328 0
43 -209 362 0
-50 128 -194 0
-176 -182 -236 0
-86 245 255 0
115 -125 -177 0
241 326 384 0
26 79 -438 0
49 -167 176 0
-99 135 147 0
352 -398 415 0
-196 304 -311 0
195 266 313 0
85 -366 -413 0
12 187 -265 0
-230 -318 360 0
-76 103 -392 0
-143 -300 -338 0
295 380 444 0
-22 306 397 0
30 -167 428 0
236 -312 -378 0
20 -67 -431 0
10 -141 -171 0
-40 72 211 0
-212 308 440 0
-163 196 270 0
124 288 -313 0
115 300 -435 0
39 -88 -317 0
-100 -176 -366 0
-161 175 421 0
132 -158 -424 0
-173 181 270 0
114 257 436 0
41 256 -355 0
-83 130 -369 0
57 91 408 0
-132 -176 -400 0
-77 -87 444 0
89 -316 -338 0
-13 -34 -249 0
-145 -238 360 0
-54 63 97 0
262 423 424 0
56 186 -388 0
238 290 420 0
144 -169 -172 0
-185 229 355 0
95 -226 -294 0
-182 241 268 0
47 317 436 0
-49 -135 -248 0
-65 -73 403 0
1 -397 426 0
-101 262 313 0
-134 -334 419 0
244 307 428 0
10 235 376 0
-43 215 381 0
286 377 -437 0
-245 253 368 0
48 70 -402 0
-121 163 401 0
-23 -116 -283 0
-211 -224 -279 0
25 37 258 0
-44 217 -394 0
-28 -79 -153 0
32 -82 -395 0
23 117 -395 0
98 199 248 0
-12 -15 361 0
261 263 324 0
-29 -162 337 0
45 -78 -293 0
-145 176 -297 0
-83 385 397 0
125 167 -412 0
5 -285 -288 0
109 -125 -226 0
-67 122 232 0
-67 367 433 0
-27 111 222 0
79 -370 441 0
-177 235 -310 0
15 66 -250 0
-82 -384 -448 0
-9 399 415 0
9 -107 431 0
-44 -176 416 0
-81 244 -405 0
67 166 343 0
-69 -150 -202 0
-138 -148 268 0
290 361 444 0
56 249 307 0
-143 -155 -301 0
-251 277 -278 0
111 -291 294 0
-285 -423 -450 0
46 203 -436 0
-228 361 -370 0
-71 -184 -380 0
-2 -74 380 0
-11 -215 -402 0
-79 -120 -402 0
10 -372 -444 0
-119 -162 292 0
-12 -115 -185 0
117 -307 -382 0
-47 -241 -359 0
-101 224 257 0
8 52 -438 0
-52 -306 385 0
60 85 -261 0
73 271 -378 0
-218 -240 275 0
327 -334 351 0
-23 25 -364 0
32 76 -262 0
-7 -118 -314 0
25 90 -249 0
-90 -220 309 0
-33 132 427 0
151 -215 -233 0
-86 97 234 0
-22 -137 402 0
91 -152 189 0
-159 -186 -275 0
-121 221 448 0
-27 -242 263 0
223 -273 326 0
48 -287 374 0
-94 -95 165 0
98 296 -368 0
-126 -232 364 0
-102 200 265 0
261 268 422 0
-143 188 284 0
37 -47 164 0
-47 209 347 0
-18 -296 344 0
181 -246 -330 0
32 -180 283 0
143 -214 246 0
-13 56 436 0
80 -175 367 0
-58 151 -202 0
32 39 362 0
44 -273 353 0
-21 -91 -422 0
-76 159 344 0
-242 -248 386 0
-171 -202 -271 0
-70 270 405 0
126 -315 -319 0
-83 -184 228 0
-101 -223 300 0
94 -158 285 0
-147 -335 417 0
157 -268 323 0
-34 311 412 0
98 -219 -395 0
57 -269 -386 0
200 347 -376 0
-24 -57 389 0
56 116 -179 0
283 307 430 0
152 -213 300 0
-141 -223 -255 0
35 192 313 0
-201 -266 281 0
-8 -218 436 0
112 -133 -271 0
-188 -316 421 0
-59 90 393 0
3 132 -139 0
-22 -288 -384 0
11 243 272 0
-376 -383 -409 0
59 -106 164 0
-175 -202 236 0
14 -225 413 0
-55 -218 -332 0
114 -355 -435 0
-60 207 212 0
-253 -331 446 0
69 228 403 0
166 -298 -365 0
209 305 425 0
-1 -248 -364 0
25 322 -447 0
75 349 -401 0
-54 215 -411 0
-38 -304 433 0
26 -251 -308 0
-128 153 -429 0
191 -194 198 0
20 -234 -240 0
127 249 -261 0
316 -377 439 0
-5 -394 419 0
-188 -218 -421 0
-103 192 378 0
-25 -343 359 0
270 -301 445 0
-22 198 352 0
-95 266 -357 0
68 331 435 0
20 238 372 0
163 -266 298 0
8 33 57 0
-142 -401 -407 0
-117 307 -366 0
154 -213 293 0
-2 -40 -233 0
1 253 292 0
-183 270 -407 0
-24 -149 -225 0
33 -84 -426 0
-28 -121 -439 0
-206 337 436 0
29 -252 -333 0
167 -377 395 0
266 298 -439 0
-10 -71 102 0
-23 -155 323 0
177 271 -345 0
35 134 -167 0
-236 -291 -405 0
-36 -205 316 0
-69 -219 433 0
-49 -83 230 0
-12 -57 -254 0
-88 -104 317 0
-313 -375 420 0
-250 258 -399 0
-60 -199 233 0
-34 100 320 0
-24 -203 -297 0
19 148 -265 0
102 -157 -170 0
-212 273 278 0
256 -286 320 0
15 -216 323 0
-63 298 318 0
137 -240 -357 0
-111 -197 -230 0
303 304 -422 0
199 377 413 0
93 -120 394 0
125 146 357 0
35 186 192 0
74 -97 -254 0
-100 -179 365 0
5 58 -237 0
-310 -403 -405 0
-93 -222 -421 0
-148 -258 300 0
-34 -96 368 0
-2 -201 -245 0
-8 -40 192 0
161 -342 -406 0
-7 336 -391 0
85 -180 -300 0
222 342 -421 0
-73 136 -441 0
121 155 -293 0
-23 172 177 0
-166 -293 -422 0
-58 -122 147 0
2 -104 -380 0
13 -34 49 0
-50 92 153 0
211 233 -328 0
55 -107 327 0
125 -286 -294 0
64 229 271 0
-13 -67 -190 0
178 266 -320 0
-15 -229 -358 0
-201 -370 425 0
-100 -314 332 0
154 265 359 0
-56 -144 -378 0
-150 -175 -380 0
101 -406 430 0
26 -233 -253 0
54 -178 -216 0
-23 -58 197 0
83 -142 -386 0
94 -151 -200 0
107 -310 -406 0
76 303 -374 0
55 -61 -226 0
-235 274 441 0
-12 -227 -415 0
-16 124 308 0
-159 233 327 0
-86 -167 -326 0
45 136 -270 0
259 301 -359 0
79 -372 -437 0
-14 -95 264 0
-140 -349 429 0
143 -334 -402 0
-41 -192 229 0
184 -197 -280 0
133 -234 385 0
50 273 -324 0
-11 278 -302 0
38 -347 -420 0
-20 365 -391 0
82 133 -174 0
-17 265 310 0
86 110 379 0
-275 287 331 0
121 331 -378 0
-71 187 268 0
96 304 -382 0
-182 -184 377 0
-68 -130 199 0
76 -206 381 0
-172 -379 -450 0
24 -283 414 0
11 -246 356 0
14 -159 -196 0
-24 -38 322 0
-35 -151 -158 0
-160 217 -411 0
97 -361 -388 0
-270 -279 321 0
-79 -179 -249 0
71 -110 -403 0
-133 250 421 0
-164 -419 -442 0
95 -287 368 0
153 -296 -415 0
32 -301 -315 0
126 -127 -358 0
-53 -223 -349 0
6 103 277 0
-57 192 423 0
31 -227 258 0
47 438 448 0
-179 190 361 0
-80 86 263 0
62 -280 -417 0
47 140 267 0
-3 -257 -334 0
-91 118 222 0
-160 351 -430 0
65 184 431 0
-81 -130 -152 0
-195 -417 428 0
-12 328 361 0
-44 77 362 0
-161 -233 237 0
-81 -147 270 0
151 -190 -212 0
95 -385 -440 0
-231 294 -321 0
-258 -260 -281 0
-51 -331 -414 0
-67 -178 189 0
129 -205 -230 0
-24 105 -390 0
-253 283 -341 0
-87 132 -450 0
69 -78 159 0
-306 -308 -445 0
-142 409 -429 0
159 -317 -389 0
147 317 -378 0
72 -284 376 0
-294 327 442 0
18 -104 -333 0
310 370 -405 0
-266 372 -424 0
-112 207 -363 0
81 -119 -312 0
316 -386 397 0
-264 -407 -410 0
377 379 441 0
106 -182 -192 0
69 -75 -208 0
-33 -103 324 0
10 -269 -399 0
-36 -302 -379 0
-216 -352 -428 0
-169 267 357 0
33 -149 443 0
-169 -257 -406 0
149 183 364 0
-29 246 421 0
195 -366 379 0
206 -336 398 0
57 194 432 0
213 -324 -404 0
220 243 293 0
-8 147 431 0
203 -255 389 0
104 109 -272 0
-20 -109 209 0
-120 -271 404 0
49 -373 -432 0
114 -246 -417 0
-347 363 -438 0
-26 -199 206 0
62 357 418 0
4 134 419 0
-136 149 302 0
-124 -193 -299 0
-125 314 434 0
-314 -391 415 0
-55 101 -315 0
-134 -258 287 0
-130 -428 -446 0
261 -270 -364 0
-86 203 -315 0
-69 -245 324 0
-90 -182 -399 0
-97 128 353 0
-228 -292 430 0
57 -390 -409 0
-190 -378 -399 0
-206 -210 440 0
37 241 315 0
-115 173 -410 0
-12 224 -390 0
102 -248 -348 0
-224 289 -430 0
-3 55 -350 0
-47 -153 -373 0
28 -325 421 0
195 -210 -327 0
-59 -148 429 0
382 409 -426 0
41 94 198 0
66 275 -424 0
-220 -244 321 0
-152 -373 443 0
-179 344 373 0
230 269 345 0
166 182 -344 0
-63 314 352 0
77 -183 415 0
196 206 408 0
-111 -145 255 0
-13 -48 109 0
28 59 317 0
125 -252 -405 0
-156 239 272 0
24 -94 -214 0
-147 370 406 0
251 -298 -335 0
39 183 313 0
-214 257 -297 0
94 128 390 0
294 -387 433 0
-160 415 -428 0
-87 242 279 0
66 -157 -324 0
54 -194 -202 0
-50 -67 -376 0
-118 194 -214 0
298 342 -368 0
29 -110 -354 0
-12 268 407 0
-70 -165 323 0
-139 343 436 0
-15 332 404 0
13 -335 -422 0
64 -94 -99 0
115 194 319 0
-15 -297 384 0
-11 220 -309 0
120 -132 406 0
-44 -212 328 0
-233 321 -380 0
286 289 -425 0
-193 -199 -275 0
-191 363 388 0
175 -409 -437 0
135 171 -347 0
98 138 406 0
-114 -212 330 0
194 -379 427 0
-5 123 -440 0
-144 324 -357 0
-155 -255 -401 0
126 -278 307 0
407 -418 428 0
43 -53 147 0
66 232 327 0
34 158 -403 0
39 -199 446 0
-200 -237 -428 0
262 -324 338 0
20 -94 -415 0
59 124 392 0
252 -367 -433 0
-36 -55 -361 0
122 175 -238 0
-254 388 -406 0
-207 246 346 0
-187 -239 298 0
123 -231 385 0
180 214 -379 0
-2 203 243 0
50 -196 -380 0
-89 314 390 0
-54 -188 -367 0
240 -336 392 0
-80 83 291 0
40 -326 349 0
-42 117 366 0
-233 -251 -401 0
-88 -298 351 0
151 185 359 0
-202 -307 400 0
254 -389 393 0
-41 -269 -385 0
-314 -316 370 0
15 -253 -318 0
-270 -276 -341 0
-4 -336 -405 0
-35 -229 -251 0
-156 208 426 0
141 278 -357 0
98 411 -420 0
-83 424 444 0
-14 73 -90 0
38 204 -404 0
72 117 -252 0
-132 -210 370 0
-18 -34 -37 0
49 132 -206 0
85 -254 278 0
-159 288 -387 0
-29 -136 -160 0
82 -218 224 0
229 379 -399 0
141 330 425 0
-24 250 -402 0
-60 -77 156 0
160 -196 -293 0
13 122 212 0
12 -62 235 0
