p cnf 450 1917
57 -202 369 0
-13 108 412 0
-144 297 343 0
-237 -323 353 0
-36 -84 106 0
91 107 261 0
371 383 434 0
65 -134 255 0
95 338 353 0
222 -253 -429 0
-61 119 -201 0
-166 343 -349 0
12 -63 184 0
-137 193 353 0
323 -390 432 0
170 -320 -446 0
-175 -206 -412 0
-252 -259 418 0
16 -191 415 0
48 -58 -119 0
110 -236 -357 0
24 141 412 0
198 -252 -377 0
-270 -282 -413 0
-221 312 -355 0
-37 427 -431 0
278 307 -441 0
-69 284 444 0
-131 213 -235 0
-29 334 358 0
-18 329 -424 0
-20 142 -313 0
-5 167 -397 0
129 304 -404 0
288 -357 439 0
-64 130 221 0
151 -237 -262 0
138 278 433 0
170 -227 -413 0
-12 -28 102 0
-24 47 -104 0
-328 404 -408 0
-53 268 330 0
180 -239 374 0
-59 -252 359 0
17 -200 -377 0
-356 386 439 0
-58 -244 -360 0
-23 191 436 0
116 -153 411 0
302 328 334 0
-52 -128 -214 0
120 -247 -382 0
188 -257 389 0
-24 -139 411 0
-213 -220 -276 0
-98 -231 -401 0
-63 -171 435 0
-322 441 -449 0
-226 252 -317 0
-4 -308 318 0
220 317 340 0
219 316 376 0
81 -204 -229 0
209 361 -418 0
-2 67 252 0
-68 -102 -219 0
-146 371 394 0
-1 43 199 0
235 -333 -431 0
78 -287 312 0
262 -302 -358 0
121 271 -416 0
-25 -161 295 0
-194 203 -273 0
-63 -158 405 0
-230 231 330 0
182 -191 -313 0
251 317 -425 0
289 366 406 0
-30 -161 -356 0
130 400 -403 0
58 -129 -310 0
131 -212 394 0
227 -252 403 0
-172 -283 -340 0
70 -225 293 0
-33 -67 399 0
274 -288 -296 0
-78 -103 176 0
-74 -201 -331 0
88 244 -388 0
-345 409 430 0
112 -199 315 0
56 -253 -400 0
-324 376 -447 0
311 -406 421 0
51 -171 -358 0
-59 222 -428 0
182 250 -307 0
-150 -211 310 0
80 -243 353 0
-4 -328 380 0
-108 -306 -328 0
-142 -163 -443 0
-200 243 429 0
-76 181 -185 0
111 220 352 0
-157 -186 -258 0
-156 177 295 0
212 250 294 0
276 -418 -450 0
-194 318 356 0
-41 -45 -406 0
80 -290 370 0
-131 -320 -355 0
11 -122 337 0
-187 273 364 0
-19 -316 -317 0
48 -238 306 0
-176 200 319 0
182 -349 -365 0
7 -54 -216 0
-125 -144 -312 0
139 228 -437 0
-146 217 -278 0
-74 -309 -375 0
236 -257 -411 0
117 -149 204 0
-117 -183 -405 0
-172 -360 -439 0
-9 157 307 0
153 -293 -389 0
113 -220 -233 0
39 -151 434 0
-49 -74 156 0
-48 121 177 0
-162 249 -436 0
-133 205 318 0
112 -209 -368 0
-155 236 -251 0
114 -263 334 0
-6 -55 96 0
-33 -79 327 0
-92 301 -384 0
133 -374 -391 0
27 75 -173 0
34 -140 347 0
-50 -193 -415 0
-101 137 183 0
-46 240 269 0
-226 -383 -414 0
-25 -66 299 0
-148 -381 405 0
47 -307 343 0
91 157 -424 0
98 230 -347 0
113 323 -437 0
-34 -240 -310 0
84 -287 343 0
24 28 308 0
207 -213 250 0
-114 -131 288 0
210 -273 -285 0
286 -332 357 0
91 -250 258 0
-93 161 307 0
247 -320 -392 0
58 106 -247 0
-39 156 -230 0
235 -369 -425 0
52 157 -371 0
8 -79 285 0
90 183 -251 0
-221 -334 373 0
-93 250 428 0
-32 55 -334 0
92 -182 380 0
-18 -229 395 0
334 400 -434 0
49 -51 -330 0
-5 296 -437 0
112 379 429 0
-19 -39 194 0
135 181 -199 0
-74 -263 380 0
-245 -283 -319 0
-22 84 367 0
-3 23 311 0
39 -179 409 0
-22 98 -167 0
-15 -87 430 0
302 307 -351 0
15 73 122 0
-332 -370 440 0
117 -299 -356 0
-34 264 359 0
256 -381 414 0
137 326 344 0
-91 425 438 0
-64 293 405 0
-91 -296 -419 0
21 -78 242 0
144 381 443 0
254 269 280 0
-31 115 -154 0
-156 174 -392 0
-346 428 -447 0
-57 187 424 0
21 264 -442 0
99 -406 448 0
-4 198 419 0
76 -80 403 0
106 -115 -424 0
-26 235 384 0
-208 -426 430 0
106 241 320 0
223 226 -295 0
-48 187 329 0
206 387 389 0
-47 226 -327 0
-85 174 259 0
33 341 -405 0
260 -320 -408 0
171 234 -375 0
92 291 438 0
151 -286 449 0
75 -124 -293 0
-179 274 -389 0
91 -141 -356 0
-298 -339 -377 0
-2 44 172 0
-86 -229 352 0
122 179 330 0
36 -160 -237 0
242 255 -340 0
-102 253 -396 0
279 -317 -408 0
360 -367 449 0
-143 311 -428 0
217 362 -411 0
-27 47 156 0
141 -222 358 0
255 348 354 0
-149 -232 449 0
105 130 -187 0
61 -92 174 0
179 200 -255 0
23 314 -430 0
184 293 -321 0
-129 291 303 0
-161 -231 -329 0
276 -303 447 0
-57 117 233 0
139 298 422 0
-22 -100 -328 0
-128 -132 393 0
308 318 -381 0
49 266 -387 0
-22 -180 -412 0
168 -171 -354 0
-202 -314 369 0
-10 -194 350 0
270 317 -409 0
72 152 -269 0
-161 409 -415 0
-53 -65 323 0
-87 -157 321 0
132 -317 -397 0
-102 195 312 0
150 188 316 0
-43 -228 -388 0
-2 100 -272 0
45 -188 -438 0
-113 -137 308 0
-17 -187 -371 0
21 -95 144 0
66 -196 -377 0
-1 -3 -77 0
-306 317 410 0
61 -199 264 0
-95 144 -199 0
-188 -193 -264 0
-251 275 430 0
-127 -257 -381 0
-300 -312 378 0
112 297 -391 0
-105 -319 -320 0
-78 -93 160 0
-23 26 -293 0
-91 123 287 0
-89 -306 338 0
47 224 -295 0
-229 233 -336 0
-225 338 -363 0
94 -305 377 0
-43 -260 324 0
219 225 322 0
192 -244 -357 0
-160 330 354 0
-76 266 327 0
-55 -115 -405 0
-59 67 189 0
-122 131 -403 0
-126 -263 -331 0
-50 -236 -311 0
13 -354 -364 0
-125 142 382 0
239 -280 -306 0
-8 147 331 0
-317 -336 419 0
-24 -152 410 0
-15 -59 134 0
-313 333 418 0
7 -160 -182 0
22 233 340 0
-344 373 -418 0
-104 120 -330 0
313 330 374 0
-85 257 330 0
-65 -101 399 0
348 376 447 0
-132 369 -433 0
-67 -144 153 0
-47 83 -416 0
144 -157 -251 0
-25 342 371 0
-209 -313 -321 0
-107 169 172 0
-7 32 319 0
-78 -384 443 0
162 362 422 0
134 -210 -248 0
131 -300 -313 0
-86 -228 247 0
-250 -305 418 0
51 296 -326 0
-75 166 209 0
83 -300 362 0
56 -105 -399 0
44 -272 -279 0
-245 335 396 0
46 165 203 0
69 -193 427 0
-79 -232 331 0
4 -29 167 0
-89 151 -345 0
341 -367 381 0
168 186 316 0
301 388 -428 0
-6 213 258 0
202 312 -397 0
53 334 -393 0
-88 97 237 0
-69 147 182 0
-273 358 392 0
-47 -72 411 0
13 282 -328 0
-182 -212 329 0
-191 -250 404 0
-63 230 -423 0
169 383 -441 0
-189 -206 -319 0
-142 -250 416 0
-25 360 -438 0
110 -114 -237 0
18 -29 424 0
-150 -180 371 0
-285 -406 -434 0
-75 -189 -396 0
-124 -203 307 0
-316 359 443 0
-63 148 -180 0
69 135 172 0
-124 -276 429 0
-85 220 230 0
118 -197 -212 0
-198 378 433 0
-291 297 -316 0
82 238 450 0
-85 -324 -408 0
102 -126 344 0
-21 318 -378 0
222 296 -356 0
76 -95 294 0
-20 -95 -305 0
181 205 -378 0
-344 364 443 0
-245 400 417 0
-79 207 351 0
-78 -436 442 0
62 -114 -332 0
-16 315 329 0
-151 -162 -320 0
52 149 -430 0
-103 -411 -439 0
103 125 380 0
72 299 -338 0
-105 -241 -368 0
33 209 260 0
360 -422 441 0
-25 -152 197 0
-52 83 116 0
-48 61 275 0
225 265 -345 0
-66 -186 384 0
53 -186 192 0
157 166 358 0
-121 -224 246 0
-14 110 284 0
163 257 298 0
-65 -175 325 0
-12 -173 264 0
-364 398 -445 0
276 -320 -337 0
-7 -74 -172 0
1 -221 428 0
94 -338 442 0
134 -161 -256 0
21 127 -443 0
29 124 181 0
-87 319 -379 0
136 -226 275 0
274 318 -321 0
213 277 -414 0
77 87 217 0
-37 312 -375 0
115 279 -444 0
-93 -166 224 0
33 52 145 0
11 233 -322 0
-31 56 -160 0
-240 -324 -356 0
47 -302 356 0
34 -253 -446 0
68 268 -430 0
-186 -210 -372 0
-9 134 263 0
-106 250 366 0
50 -179 -275 0
94 269 411 0
-357 364 -413 0
-73 -231 284 0
-83 88 -352 0
67 424 -444 0
-186 195 403 0
30 84 -168 0
-18 -50 -366 0
8 317 319 0
142 184 -261 0
-221 334 335 0
-121 205 246 0
-143 144 -149 0
-26 -124 -361 0
235 302 425 0
89 -254 314 0
-3 25 151 0
-95 -155 -262 0
170 -241 -322 0
-226 271 307 0
9 -102 -161 0
85 -269 284 0
-133 248 -254 0
204 -344 413 0
18 -155 -353 0
14 -186 -242 0
-97 269 -339 0
-55 286 379 0
78 -263 314 0
-10 139 158 0
1 87 180 0
-95 153 298 0
-230 314 -400 0
-6 164 -354 0
-177 -234 -241 0
-46 -68 421 0
-116 280 335 0
-124 -190 -208 0
136 -171 -313 0
-226 -364 -371 0
140 -142 246 0
-2 45 154 0
-270 -349 445 0
122 214 340 0
177 379 -386 0
-44 -64 71 0
115 -238 322 0
-25 -343 409 0
4 20 -295 0
-152 -168 -348 0
103 334 -398 0
-306 408 444 0
-47 98 -228 0
294 -313 374 0
208 -350 -415 0
-69 104 111 0
-165 -302 439 0
-119 -172 -243 0
39 -99 272 0
31 284 369 0
-66 -190 -264 0
-196 -250 423 0
-9 -281 -346 0
16 213 -332 0
69 116 335 0
-117 285 402 0
153 175 -434 0
-239 306 325 0
159 -172 -320 0
332 -336 -437 0
-44 -78 348 0
185 305 -341 0
-81 -237 247 0
-243 416 -431 0
-29 -51 138 0
178 273 -425 0
60 169 266 0
-34 407 411 0
59 -133 426 0
151 189 402 0
63 -95 -343 0
-26 -233 -343 0
338 -344 362 0
26 -195 397 0
-337 409 -434 0
-166 -216 -344 0
115 117 362 0
102 -231 -391 0
-39 -99 390 0
-49 -84 287 0
352 -383 428 0
-25 375 -394 0
-288 368 370 0
87 -226 396 0
86 -218 436 0
-54 253 -324 0
-120 -282 -365 0
-27 -238 375 0
24 -31 -66 0
212 -283 406 0
-199 210 219 0
183 195 -438 0
8 24 -100 0
-191 -216 -285 0
13 -60 -285 0
-4 -19 367 0
180 -200 -400 0
-131 236 428 0
54 -102 376 0
-346 -386 -393 0
-90 301 346 0
67 -179 342 0
-15 -296 398 0
-275 300 390 0
21 -61 -313 0
264 -323 403 0
-161 -186 -212 0
-129 152 165 0
35 50 138 0
-146 -428 -447 0
236 255 -405 0
-129 -195 443 0
358 -433 -446 0
-254 -301 -308 0
-219 -252 -335 0
66 85 -332 0
-148 208 213 0
-48 -93 124 0
54 -211 230 0
-90 256 400 0
25 -68 -317 0
-53 283 -341 0
-21 27 82 0
72 -82 292 0
-244 -374 419 0
131 -151 228 0
5 -63 -358 0
17 316 -320 0
-251 -255 447 0
121 -200 -330 0
92 -258 450 0
-174 -310 326 0
-70 -363 430 0
222 358 -382 0
-34 193 332 0
-84 185 329 0
-2 330 -431 0
50 163 266 0
-47 213 -225 0
46 47 -100 0
-122 -255 -397 0
-195 266 -369 0
176 -309 -350 0
-14 -167 231 0
101 137 201 0
25 -118 124 0
139 -172 241 0
-57 160 396 0
66 376 416 0
-65 140 -177 0
82 -203 -324 0
126 -275 326 0
-62 -308 401 0
-125 -315 370 0
-136 -183 195 0
228 -287 328 0
-139 -147 -294 0
-3 55 236 0
-247 384 440 0
-301 -357 443 0
-29 -45 -156 0
64 260 422 0
221 338 342 0
36 -190 -379 0
109 162 -380 0
76 -110 -183 0
33 -123 -361 0
245 344 -346 0
-91 321 378 0
12 24 175 0
84 -372 395 0
-110 114 -161 0
64 314 -399 0
-3 29 -95 0
-294 -382 -426 0
159 -286 297 0
-49 -102 -325 0
-102 -112 -143 0
21 -168 -263 0
-28 -391 -416 0
118 310 -377 0
-45 -253 301 0
-55 120 -252 0
-82 129 216 0
183 -278 440 0
-58 175 249 0
-96 -154 -392 0
122 -187 330 0
46 140 399 0
-220 248 -333 0
-127 303 447 0
77 -311 -383 0
-86 234 -266 0
-114 -252 299 0
239 337 342 0
-136 336 -386 0
-74 330 -446 0
402 -424 438 0
-105 -230 -402 0
-47 184 334 0
65 265 302 0
206 219 -232 0
32 -358 427 0
-146 227 -431 0
-88 -185 -316 0
112 209 313 0
43 208 -355 0
-31 206 230 0
12 34 74 0
126 164 -439 0
-220 -262 -327 0
-46 -60 410 0
-94 123 -401 0
14 149 -328 0
33 -263 405 0
-190 -253 359 0
-221 391 435 0
-318 -330 -353 0
88 300 -408 0
-226 300 -384 0
-53 -170 -328 0
-5 139 176 0
89 -224 -369 0
-34 -299 -360 0
92 209 -421 0
-43 312 324 0
-47 84 400 0
-219 258 -317 0
299 343 380 0
2 277 300 0
177 -225 442 0
63 -128 -210 0
275 -286 305 0
-294 390 -440 0
60 -158 -225 0
-49 -417 -424 0
-27 196 -269 0
-179 -317 -392 0
-51 232 -241 0
-68 147 -412 0
-40 -149 314 0
107 -150 256 0
-194 -253 -372 0
-116 327 -393 0
-83 -103 -249 0
-18 -83 -142 0
38 -313 -351 0
82 -253 297 0
-118 365 391 0
-108 -218 -256 0
-17 -333 -377 0
-10 -66 -68 0
218 -219 -279 0
26 319 344 0
41 178 359 0
-213 292 294 0
-26 212 372 0
28 -339 -361 0
-95 119 -343 0
130 293 345 0
75 -387 -391 0
103 404 -429 0
163 -184 -317 0
31 282 402 0
14 157 -389 0
62 160 -189 0
157 -171 -245 0
-229 -263 -314 0
160 376 -387 0
19 -32 -179 0
-137 -229 -394 0
15 -208 -382 0
65 208 -389 0
62 -325 -377 0
-20 237 -397 0
2 -34 -110 0
9 311 357 0
58 -128 -300 0
-64 77 176 0
-11 -15 129 0
-108 -202 -379 0
109 365 -373 0
-27 -37 -190 0
313 -396 422 0
-24 435 -440 0
-79 -91 -341 0
-3 132 -274 0
-2 244 383 0
74 -347 378 0
118 -180 222 0
59 112 -119 0
-147 175 362 0
-142 172 326 0
63 329 -374 0
50 -97 411 0
-247 258 282 0
-221 -283 -391 0
-28 72 174 0
160 177 421 0
6 140 -439 0
32 174 258 0
-275 346 398 0
-48 -352 363 0
165 -333 -359 0
-8 152 410 0
-35 -104 264 0
117 294 -403 0
49 314 -408 0
229 381 -442 0
131 329 -359 0
93 336 440 0
-139 -162 240 0
-28 -44 183 0
48 309 -341 0
139 420 -434 0
-103 122 412 0
156 278 281 0
162 -325 345 0
-103 -231 315 0
-73 233 328 0
-89 -410 444 0
-138 -156 277 0
106 116 -406 0
69 141 -311 0
11 87 -304 0
-157 170 -295 0
398 -410 446 0
29 30 -329 0
57 211 247 0
10 -149 211 0
-73 -96 -426 0
-232 430 443 0
-118 391 -449 0
-24 -141 -393 0
166 -227 237 0
142 233 -358 0
-98 -212 -238 0
9 -35 -259 0
114 -222 260 0
118 -185 -189 0
60 256 390 0
-33 267 -320 0
61 137 -428 0
-30 -164 268 0
65 216 -281 0
23 160 268 0
242 -339 351 0
-324 331 384 0
349 362 412 0
-81 147 -179 0
-58 -113 -258 0
5 -104 -142 0
150 -181 412 0
55 -108 337 0
33 105 -330 0
243 273 437 0
-129 281 447 0
278 -376 396 0
-3 212 420 0
96 -193 -301 0
33 56 135 0
381 -419 436 0
149 174 224 0
-73 253 -357 0
-266 -281 329 0
231 -331 -413 0
-24 -224 -238 0
-213 -275 -444 0
185 240 -380 0
-127 -184 -424 0
219 317 435 0
166 328 448 0
-134 -333 -426 0
143 -378 403 0
-89 127 -162 0
99 -203 -319 0
96 -256 -278 0
328 387 414 0
27 -327 -347 0
-196 355 364 0
-108 389 420 0
-29 -81 261 0
136 231 325 0
-288 -430 449 0
-173 191 343 0
-91 -212 364 0
-23 136 392 0
-99 -170 -383 0
242 346 -435 0
-172 -203 356 0
-248 -321 -394 0
67 -187 214 0
-162 -173 239 0
31 -73 366 0
-80 255 -338 0
-111 -355 388 0
-105 -144 294 0
-54 -134 -298 0
-194 -251 -272 0
-148 189 -283 0
166 325 334 0
-109 273 406 0
21 63 -409 0
92 -129 397 0
-13 377 413 0
214 387 -444 0
-253 325 -438 0
-42 -68 -235 0
1 -199 442 0
63 -306 -345 0
-153 216 -288 0
-125 231 344 0
106 135 259 0
-37 -318 -320 0
128 235 427 0
70 -157 -261 0
-15 -58 -276 0
49 62 -202 0
34 -198 -263 0
146 -382 -393 0
-157 335 372 0
21 -196 295 0
114 383 -445 0
314 364 -389 0
2 -156 -424 0
263 302 335 0
-36 95 130 0
156 -319 427 0
4 -25 -173 0
-13 -380 436 0
18 58 -246 0
41 -211 445 0
133 226 -301 0
24 -311 -315 0
-185 -288 -420 0
37 -176 -270 0
170 251 -288 0
-101 248 379 0
113 -186 -214 0
232 -425 -426 0
-112 146 229 0
44 -73 256 0
10 154 342 0
99 -197 -420 0
140 -147 -376 0
342 -387 450 0
54 -238 -401 0
-134 221 384 0
-75 -237 -416 0
-268 -338 369 0
70 266 295 0
-2 -164 212 0
35 73 390 0
276 -303 -356 0
276 -393 -420 0
-6 78 -85 0
112 -162 375 0
-164 347 -432 0
31 188 -190 0
142 -277 -336 0
112 -351 446 0
-196 -325 389 0
-179 348 -386 0
17 176 424 0
-46 219 -335 0
85 153 337 0
-254 340 -342 0
236 -428 -440 0
146 -189 440 0
-218 -302 448 0
152 -231 -413 0
-7 12 -54 0
-202 -210 -258 0
-224 -240 -376 0
-102 -142 269 0
-134 293 446 0
-52 -300 307 0
120 185 -226 0
-36 340 363 0
-101 252 344 0
47 150 -419 0
-231 -392 400 0
150 263 266 0
29 38 -276 0
54 193 434 0
-68 260 -416 0
-60 -173 292 0
150 -229 -333 0
30 67 363 0
180 -351 419 0
195 -216 -220 0
-46 130 -243 0
-285 434 -440 0
-109 398 405 0
-21 -52 -217 0
317 351 430 0
-82 343 387 0
44 -318 -415 0
-63 -129 179 0
-52 339 -426 0
48 299 -411 0
18 -53 -233 0
11 -237 427 0
147 -153 306 0
20 -371 -406 0
110 222 -231 0
-4 12 358 0
31 -209 -362 0
53 -252 -393 0
-15 -27 444 0
-14 -63 275 0
3 -14 419 0
-56 106 355 0
-53 -296 361 0
-21 140 -435 0
-27 -158 296 0
-27 -64 383 0
302 308 415 0
151 -332 418 0
-285 289 382 0
-264 -296 314 0
-84 207 315 0
-289 -292 -416 0
-153 249 255 0
274 330 -381 0
-31 67 -220 0
-255 344 -412 0
-30 -83 -430 0
-123 178 -221 0
348 411 -431 0
199 -291 444 0
-384 396 -415 0
-4 -147 -411 0
207 -435 436 0
-2 275 -296 0
160 -250 -405 0
103 -324 404 0
-74 -337 -405 0
94 194 409 0
-35 165 -416 0
165 -184 -436 0
173 -201 416 0
-91 170 346 0
-21 -298 -401 0
92 -130 385 0
249 412 419 0
-194 -256 -414 0
-87 -204 -221 0
-94 -110 178 0
-105 -382 -391 0
-28 -60 285 0
33 -136 422 0
218 -260 448 0
-163 196 -301 0
-332 342 -384 0
-107 196 197 0
-137 -380 410 0
-194 -224 248 0
161 -199 220 0
-207 -301 -376 0
102 202 407 0
19 109 334 0
22 -149 387 0
-102 354 380 0
-336 370 446 0
354 -417 -427 0
-52 115 448 0
49 245 361 0
340 379 -445 0
-128 248 352 0
56 110 -193 0
302 -319 432 0
56 -65 -445 0
-36 -320 416 0
51 77 -177 0
-349 -372 -373 0
-203 279 -342 0
125 410 419 0
-68 -139 -367 0
142 150 -289 0
294 -400 -417 0
216 -295 -313 0
-164 210 -359 0
-31 239 305 0
64 -89 -365 0
46 -301 318 0
124 161 -345 0
-24 -99 442 0
-75 194 356 0
-130 -329 -381 0
33 -135 317 0
-174 -267 -273 0
218 349 -401 0
12 -324 396 0
207 211 -381 0
-123 298 -369 0
-11 -21 -351 0
159 307 371 0
-217 248 -368 0
-46 255 -354 0
22 -64 90 0
167 331 348 0
14 -149 -220 0
-289 -434 -449 0
95 -164 339 0
-169 -241 394 0
31 200 397 0
-198 -341 350 0
22 -112 446 0
-184 -192 -370 0
-201 291 -429 0
-25 -231 -435 0
-82 90 101 0
268 -339 344 0
185 300 -405 0
101 -243 -293 0
-30 -193 -210 0
-19 142 -342 0
-346 357 -446 0
-20 -87 -91 0
21 -39 -355 0
163 217 279 0
8 254 449 0
-69 398 399 0
-131 181 -444 0
-52 160 -300 0
-40 -146 247 0
-17 203 -212 0
-208 -223 258 0
-110 176 -234 0
-24 141 162 0
38 225 280 0
86 -101 -366 0
184 -244 -385 0
-22 -113 -325 0
27 95 -383 0
246 -340 -416 0
-84 237 320 0
146 196 -369 0
-2 169 -428 0
-129 -169 303 0
174 368 -424 0
329 -378 432 0
-176 -339 -422 0
-8 -251 -252 0
-111 256 277 0
68 75 253 0
-209 292 321 0
42 71 -375 0
1 -353 392 0
-53 -376 -399 0
158 370 -415 0
-27 178 278 0
36 -48 126 0
-121 156 359 0
45 297 327 0
127 139 -278 0
23 119 444 0
312 -364 -399 0
-232 285 -307 0
55 292 -392 0
-5 -20 389 0
-37 203 367 0
-97 -162 437 0
-204 -337 -356 0
237 390 -396 0
-52 219 273 0
-319 -328 417 0
-323 422 -434 0
-384 402 -448 0
214 222 421 0
-80 130 -247 0
133 -256 -297 0
-123 -221 -366 0
240 260 -410 0
-127 -167 390 0
-242 314 343 0
198 -270 375 0
139 -284 424 0
4 -234 243 0
-2 61 -82 0
-47 -81 -446 0
211 350 374 0
167 -192 404 0
-94 -135 233 0
-173 339 440 0
70 299 402 0
-121 357 361 0
21 22 -294 0
84 426 439 0
16 70 -360 0
-88 139 -253 0
-23 161 -413 0
98 255 -306 0
-220 295 -344 0
12 153 209 0
3 41 -438 0
-24 429 -436 0
-256 408 426 0
275 -379 -433 0
142 220 -295 0
-32 276 -363 0
-1 168 -391 0
-126 322 403 0
76 243 -254 0
117 199 263 0
76 209 341 0
94 203 -395 0
121 -295 346 0
44 -150 250 0
98 119 -442 0
-37 161 423 0
-6 339 391 0
-14 302 -381 0
192 194 -302 0
-250 301 316 0
152 336 446 0
25 -166 -193 0
55 -259 405 0
-142 199 -269 0
1 330 -445 0
275 276 -382 0
-104 -242 -437 0
-195 290 330 0
-197 251 -433 0
-83 203 265 0
-192 -327 335 0
16 -228 370 0
-10 -186 341 0
114 355 437 0
50 267 379 0
-182 -189 -318 0
-422 -427 -434 0
75 -95 133 0
148 309 439 0
-37 317 380 0
195 330 441 0
185 -202 -390 0
-69 276 284 0
223 421 422 0
15 288 -361 0
-122 -187 352 0
112 -228 430 0
53 184 265 0
10 -137 310 0
30 105 -297 0
97 -128 248 0
-65 70 446 0
152 -281 298 0
-252 315 343 0
39 -109 340 0
-258 -301 -430 0
65 -192 368 0
-184 233 358 0
-70 272 387 0
101 -288 443 0
164 283 299 0
68 -128 -129 0
25 -207 359 0
-140 -164 315 0
-100 192 -300 0
7 12 268 0
-29 177 413 0
-233 252 349 0
-26 219 333 0
-206 -210 -313 0
37 -143 146 0
-5 344 435 0
-92 -98 -396 0
-121 -290 401 0
137 308 -354 0
71 305 -368 0
-268 300 432 0
-116 -289 444 0
76 266 383 0
139 -162 -258 0
-141 -312 403 0
-157 193 339 0
125 -354 424 0
64 -276 -422 0
218 -301 -360 0
2 -148 -357 0
35 -131 413 0
6 -215 284 0
121 -273 368 0
54 96 140 0
-50 -94 -350 0
-162 -362 -368 0
-48 127 367 0
37 -259 -324 0
185 190 -278 0
-95 -134 -274 0
23 -34 140 0
106 147 -275 0
153 -271 358 0
-83 -219 -245 0
-42 117 -332 0
-255 352 -401 0
8 -337 408 0
-4 -249 -322 0
-29 376 -391 0
6 -278 424 0
-27 -115 326 0
16 278 326 0
-147 -150 -166 0
283 374 376 0
-38 238 -305 0
-32 72 105 0
36 -214 243 0
49 294 -297 0
251 -261 -262 0
112 -244 -376 0
53 -329 394 0
-31 -68 -94 0
-147 -398 438 0
4 75 86 0
211 -292 386 0
152 -401 -439 0
-70 -80 -95 0
166 -310 349 0
-106 -429 440 0
280 -318 -330 0
-30 40 -229 0
218 302 -341 0
113 -344 -350 0
-27 -243 367 0
-165 -330 415 0
-119 307 421 0
-194 226 264 0
83 139 -329 0
178 349 -371 0
-34 376 443 0
246 288 -376 0
161 243 -294 0
56 153 -224 0
93 401 -447 0
94 -317 -384 0
-28 -297 377 0
156 300 -342 0
15 272 -317 0
92 359 -387 0
-137 192 383 0
121 -286 -358 0
249 -264 -391 0
266 353 -432 0
21 -219 -239 0
51 175 413 0
-259 330 414 0
-207 -234 360 0
71 187 443 0
74 372 386 0
104 349 433 0
-217 -239 -354 0
-111 -193 319 0
100 198 432 0
18 48 -365 0
19 -103 -199 0
200 -228 330 0
29 51 382 0
-143 -177 -399 0
65 -145 449 0
-43 381 -396 0
133 -198 -404 0
-39 53 -359 0
-241 407 -442 0
95 -370 405 0
-390 417 437 0
147 -163 -420 0
-92 279 381 0
-253 -294 335 0
-280 319 447 0
295 -342 433 0
-63 335 -450 0
273 325 -449 0
-124 -292 -345 0
2 331 -409 0
53 -155 -207 0
-16 -71 251 0
-209 -280 -412 0
-8 279 346 0
-109 265 -298 0
-108 329 345 0
-98 210 343 0
60 -254 295 0
-54 163 -227 0
213 351 432 0
-44 -215 251 0
-53 143 272 0
-10 340 343 0
137 319 -431 0
137 -304 425 0
-83 141 -371 0
-100 -323 335 0
136 -287 423 0
66 230 243 0
-32 -85 -183 0
-65 197 -232 0
129 -233 -372 0
199 215 333 0
-204 338 -385 0
220 -262 -322 0
88 241 265 0
188 229 -395 0
158 196 -426 0
157 161 -365 0
142 -150 244 0
-64 226 -345 0
-48 -83 -384 0
101 -146 286 0
83 216 -308 0
70 -241 -389 0
-165 -179 382 0
67 -142 -291 0
233 -336 -341 0
-52 185 -430 0
82 107 179 0
87 168 427 0
-22 -133 243 0
-292 360 -365 0
21 -106 238 0
114 229 324 0
172 306 385 0
136 -188 -373 0
-172 287 438 0
-28 -193 -220 0
197 253 -401 0
126 -367 -371 0
197 324 389 0
60 161 185 0
100 137 -416 0
90 -120 -342 0
111 -211 220 0
164 306 -311 0
-15 -96 352 0
199 346 -419 0
-131 -269 284 0
233 -259 432 0
30 65 -260 0
245 255 -351 0
13 -115 244 0
165 -331 382 0
10 189 332 0
239 -243 297 0
30 144 437 0
212 -300 -448 0
117 219 -370 0
-48 -124 200 0
-63 -152 -206 0
-32 -296 -347 0
-30 91 410 0
-67 424 440 0
-162 -175 -430 0
-56 142 -373 0
69 -206 374 0
-239 -372 -387 0
144 -375 444 0
3 -5 -203 0
-69 -206 -242 0
-73 -379 400 0
-274 290 -445 0
-158 -393 -415 0
-114 -182 244 0
-21 -50 338 0
-19 -236 359 0
-59 121 -332 0
45 -208 267 0
-12 342 449 0
-1 -102 249 0
-113 431 437 0
32 72 -413 0
-38 161 399 0
-26 67 255 0
-227 319 -402 0
65 291 394 0
-100 322 414 0
35 106 369 0
7 -193 -381 0
-162 -220 315 0
81 239 -336 0
-180 261 -429 0
-286 373 -408 0
169 -341 449 0
72 -216 402 0
120 -160 200 0
188 -208 -219 0
-32 195 364 0
39 267 -385 0
-39 166 -296 0
151 -355 -443 0
151 411 -448 0
-17 156 245 0
-62 175 -325 0
-329 408 -434 0
-9 23 -319 0
25 -163 -404 0
120 200 -412 0
91 -183 -207 0
11 -72 265 0
-186 -326 -381 0
-188 -230 -400 0
25 -120 425 0
-136 150 371 0
-239 -291 296 0
170 -404 444 0
-90 -176 -362 0
-113 184 397 0
-240 436 -440 0
-49 236 341 0
172 -209 331 0
171 -296 -431 0
-103 -296 352 0
-61 113 -396 0
-103 -280 -342 0
175 -200 -287 0
17 -114 258 0
-167 318 -351 0
-29 158 -300 0
-182 306 335 0
248 -253 309 0
-270 276 -435 0
-31 270 -437 0
100 229 -284 0
49 226 426 0
-364 -425 -445 0
-32 283 -395 0
-30 -147 389 0
-168 320 -424 0
-71 109 295 0
-22 74 -316 0
-8 -31 -284 0
-48 179 310 0
-122 361 412 0
49 304 -395 0
11 -98 -233 0
36 -234 403 0
-356 -414 -449 0
-43 100 414 0
62 269 399 0
-203 -267 442 0
90 -225 -402 0
-109 -122 297 0
-88 -294 -315 0
46 -76 -241 0
137 230 -432 0
168 237 380 0
2 -77 -337 0
40 -136 150 0
2 20 219 0
141 347 -403 0
17 41 101 0
161 183 -338 0
33 194 -343 0
-117 -131 367 0
99 207 298 0
224 404 -449 0
133 176 258 0
92 125 287 0
40 -161 -385 0
45 -48 -361 0
103 -303 386 0
-104 -209 -448 0
-61 132 429 0
-69 -90 -413 0
-78 235 -310 0
-97 171 -237 0
8 -14 -149 0
63 -73 78 0
-154 301 383 0
-82 350 424 0
57 115 -284 0
-94 118 446 0
240 259 -426 0
139 335 425 0
4 314 439 0
284 -360 427 0
92 -146 257 0
140 389 419 0
-174 -199 246 0
157 297 -431 0
-225 305 -328 0
-214 -386 396 0
-311 388 -394 0
-170 312 -439 0
379 395 414 0
-43 -49 433 0
140 -235 -323 0
-12 -217 -313 0
56 -350 378 0
-82 -116 412 0
-26 -159 -432 0
335 340 364 0
63 252 -321 0
-26 138 -293 0
121 210 392 0
-238 369 -411 0
-245 -283 -345 0
-46 198 -217 0
-50 -98 -224 0
-114 -308 -376 0
155 287 -426 0
-12 -50 -58 0
43 327 434 0
110 -207 -332 0
231 245 302 0
-220 354 445 0
9 226 -387 0
173 -295 -446 0
-290 -310 -319 0
77 281 374 0
-131 -168 342 0
-146 -158 278 0
-114 -226 293 0
144 211 306 0
70 208 444 0
230 -341 -360 0
-1 120 407 0
-72 335 -370 0
60 125 294 0
-80 -277 -427 0
41 277 421 0
-194 -234 -410 0
42 -326 428 0
16 66 -97 0
-102 -303 -417 0
69 76 -209 0
-12 -399 -424 0
73 -216 -350 0
169 -373 -435 0
67 186 345 0
-21 -80 250 0
50 136 -187 0
44 295 -373 0
192 -353 -390 0
18 -94 -223 0
-39 150 -366 0
-80 -99 348 0
-89 444 450 0
68 -70 -328 0
234 312 -333 0
-264 397 441 0
54 66 226 0
-213 -217 405 0
5 12 -219 0
-47 -402 -435 0
198 205 -418 0
-77 255 -344 0
268 -275 364 0
-21 -417 -426 0
-110 -200 441 0
-44 75 -188 0
198 -229 331 0
29 56 -225 0
29 388 432 0
-160 -187 -402 0
48 77 158 0
-213 -224 420 0
-200 -351 -433 0
117 306 380 0
319 -326 355 0
-116 -220 -249 0
-144 -242 389 0
-41 255 266 0
101 -341 425 0
57 -250 -402 0
-42 -185 -254 0
84 85 212 0
-63 197 -350 0
3 116 373 0
173 -307 376 0
-44 165 214 0
-135 157 336 0
-14 -339 -385 0
21 -49 293 0
92 212 -276 0
7 -61 -234 0
-52 422 -426 0
90 109 -431 0
-3 42 -418 0
274 -287 407 0
-81 90 -180 0
132 -139 -312 0
156 202 -256 0
-238 261 417 0
-41 122 -214 0
106 119 137 0
-19 128 249 0
-191 -231 293 0
-138 -157 -268 0
-45 -116 393 0
30 -172 356 0
60 -79 267 0
338 340 -398 0
98 244 374 0
3 -199 374 0
271 272 -449 0
27 -101 -182 0
137 -171 -427 0
6 177 249 0
-137 -184 -397 0
-183 -384 431 0
378 387 -419 0
110 258 -447 0
72 -201 288 0
-383 433 447 0
111 376 -406 0
-34 -331 -397 0
-178 -333 408 0
165 377 380 0
-125 -349 -449 0
55 62 -159 0
127 226 -315 0
-27 -43 -120 0
-223 -255 379 0
275 -316 -335 0
-88 -125 129 0
-59 -116 -316 0
121 173 -392 0
-9 -57 -245 0
-99 137 -201 0
1 -33 -252 0
57 -173 192 0
106 126 -247 0
166 185 -290 0
-117 -228 -266 0
-171 -326 441 0
-41 -272 370 0
194 237 -301 0
137 217 439 0
-188 244 248 0
-129 -164 233 0
36 158 394 0
-8 -236 -430 0
15 -361 -378 0
-67 105 -357 0
45 112 417 0
191 -250 272 0
213 -293 -329 0
126 310 -441 0
60 83 285 0
61 -64 364 0
-110 127 333 0
-215 315 -403 0
24 -259 313 0
-66 117 -285 0
72 -175 366 0
-36 -205 370 0
-63 -124 144 0
-33 -216 -431 0
-3 38 265 0
26 236 302 0
-133 -292 309 0
207 337 376 0
-102 -389 -407 0
237 360 391 0
24 129 -392 0
-59 -225 -351 0
-73 221 -375 0
23 112 292 0
152 -260 391 0
-204 -283 -393 0
-15 395 415 0
-174 -243 278 0
91 -229 238 0
-102 -231 -352 0
-127 -128 358 0
222 290 -366 0
-26 -37 -367 0
-47 75 -349 0
-82 132 195 0
33 -56 -123 0
283 -370 -431 0
99 -265 -421 0
-22 -186 437 0
28 112 -238 0
-66 -320 -383 0
-154 238 423 0
306 317 -443 0
-222 223 273 0
-246 247 -331 0
-16 -238 -362 0
327 341 -384 0
-105 -352 436 0
90 -195 430 0
267 380 -424 0
214 240 397 0
92 156 363 0
-103 229 -295 0
16 -119 426 0
-102 210 -439 0
29 -45 -442 0
277 -293 -347 0
-99 131 317 0
11 420 446 0
-3 -229 -299 0
54 -262 -405 0
-223 236 262 0
-25 139 -252 0
-133 170 -284 0
-54 -142 448 0
80 -340 352 0
-23 104 442 0
248 -337 388 0
259 -270 395 0
-216 -236 -275 0
-180 -237 -335 0
204 256 314 0
-99 -207 -211 0
-93 -274 -295 0
150 -185 -319 0
22 269 356 0
-92 -237 446 0
89 295 404 0
154 283 -315 0
-131 161 177 0
-2 111 365 0
60 -205 -282 0
-208 -404 409 0
21 195 -261 0
201 295 423 0
392 417 439 0
200 -255 -425 0
-8 -228 282 0
-239 -298 -387 0
-3 282 299 0
118 -187 413 0
-90 -125 -359 0
292 -295 297 0
111 -199 357 0
136 -142 -172 0
-243 -415 -425 0
-35 -119 -297 0
-134 -195 318 0
301 -340 -358 0
-45 -108 -334 0
80 95 387 0
-4 360 409 0
-84 -210 320 0
-353 -369 432 0
173 319 -423 0
215 -297 -450 0
-84 379 -406 0
16 -132 -324 0
191 296 364 0
203 213 -310 0
-125 -278 299 0
196 -197 -235 0
147 -408 -422 0
-53 -88 424 0
98 -256 421 0
59 -340 -398 0
-244 -424 429 0
-85 -322 371 0
26 73 122 0
77 -426 449 0
-195 236 350 0
200 -222 396 0
-117 -235 434 0
16 -60 142 0
-12 -147 -240 0
-99 -235 363 0
-39 80 -226 0
139 -254 402 0
65 -223 411 0
10 133 411 0
345 -369 -438 0
25 156 -237 0
-103 126 298 0
81 256 -383 0
208 294 436 0
162 270 336 0
-145 185 -250 0
-27 -325 -373 0
-18 109 -131 0
-99 -313 -335 0
-144 365 -397 0
108 -273 409 0
228 241 372 0
33 250 -391 0
-167 257 370 0
192 273 286 0
146 258 -369 0
-127 156 -416 0
328 418 442 0
58 173 -271 0
-184 -404 -421 0
114 178 257 0
329 -342 394 0
1 -110 381 0
363 -377 394 0
-78 237 348 0
341 -434 439 0
-28 -184 447 0
-62 -94 282 0
-66 129 216 0
-294 296 -447 0
-87 171 330 0
20 -355 -356 0
-21 249 255 0
270 284 -312 0
-129 155 -441 0
-140 -179 193 0
-102 111 -398 0
30 -125 -280 0
9 111 -420 0
-93 127 -386 0
288 -388 422 0
-270 -399 411 0
60 393 -404 0
114 352 387 0
248 305 -328 0
259 -287 -381 0
107 -242 -430 0
183 -318 426 0
-103 223 384 0
-344 361 -426 0
-372 425 428 0
-70 352 -383 0
-135 -213 -291 0
-162 234 334 0
-278 -348 -371 0
-18 64 -341 0
76 103 -442 0
-16 135 -392 0
-48 -63 -254 0
279 360 -404 0
-79 223 394 0
35 48 80 0
-19 350 435 0
81 -191 -262 0
76 335 -397 0
-147 159 -382 0
93 -185 342 0
-43 235 -331 0
103 263 413 0
78 144 209 0
109 -185 442 0
221 243 369 0
275 279 -444 0
-30 -34 -441 0
-122 -176 298 0
72 229 349 0
-91 431 -445 0
9 -192 -214 0
292 339 411 0
78 -140 -410 0
85 -199 -367 0
86 216 393 0
-108 184 443 0
107 126 -175 0
106 304 413 0
82 -157 447 0
126 243 -372 0
265 322 -381 0
66 78 191 0
-153 -378 -399 0
3 -101 -206 0
-44 45 -246 0
46 -178 405 0
79 188 258 0
-88 176 237 0
32 233 333 0
62 79 352 0
-246 301 424 0
-87 134 360 0
165 252 -299 0
17 -293 -314 0
21 -34 -336 0
