p cnf 450 1917
-80 -248 323 0
22 -126 190 0
126 268 -348 0
242 -320 380 0
203 -314 -336 0
103 -297 -314 0
-193 -350 416 0
137 188 -402 0
-74 377 420 0
72 -93 -392 0
152 273 -305 0
-101 -234 -300 0
-107 214 -334 0
113 290 -393 0
165 185 -345 0
93 132 423 0
-11 220 307 0
-48 139 -196 0
98 338 414 0
-50 -380 388 0
81 154 280 0
-159 169 180 0
8 246 315 0
-207 -320 -419 0
101 309 -411 0
-24 56 426 0
-260 319 399 0
-1 50 -234 0
62 -147 -427 0
-189 208 -263 0
74 -160 329 0
-27 37 43 0
-341 -349 -370 0
100 408 -432 0
67 -420 -448 0
20 -196 319 0
-81 -163 -422 0
-23 177 -255 0
7 14 -400 0
-83 130 249 0
45 -259 -324 0
-261 -263 -369 0
-85 204 -331 0
27 200 -233 0
-206 259 420 0
42 -161 163 0
-82 162 364 0
-176 -371 433 0
-73 398 -406 0
-151 -235 346 0
6 -32 270 0
-22 -91 323 0
4 260 375 0
133 -200 321 0
74 315 -368 0
183 194 397 0
-50 -156 -390 0
-119 269 319 0
-58 -115 -176 0
38 -41 -96 0
108 -201 -419 0
143 -335 -384 0
121 -149 -288 0
-144 -181 -334 0
-47 -54 -101 0
-156 246 326 0
178 410 444 0
-329 339 -399 0
33 160 -291 0
-264 -301 365 0
149 -244 -317 0
-46 53 -181 0
106 -286 448 0
-84 137 -412 0
-88 233 -370 0
106 -129 359 0
102 230 236 0
18 -69 161 0
-208 297 416 0
106 -406 439 0
-81 -147 272 0
32 -129 -242 0
-183 270 406 0
-66 282 -373 0
-162 -286 -420 0
-95 187 -239 0
51 -127 -254 0
227 265 -274 0
-131 269 301 0
10 -195 -450 0
131 -400 425 0
-25 182 -342 0
-157 -326 -436 0
74 -378 419 0
-207 -211 240 0
-355 372 -449 0
-69 272 -382 0
99 -154 231 0
16 51 246 0
177 179 385 0
11 199 -230 0
-223 279 377 0
52 -225 -237 0
93 -251 447 0
55 -147 369 0
161 237 238 0
-136 179 -238 0
64 380 429 0
-87 198 313 0
152 -236 -348 0
228 291 385 0
-93 -109 166 0
6 -224 395 0
93 -212 -402 0
93 -265 317 0
-173 343 364 0
143 -350 443 0
122 -299 -331 0
113 174 337 0
-77 110 126 0
167 -226 -341 0
138 -144 -148 0
250 283 -340 0
79 -118 -391 0
-63 -262 301 0
-4 107 257 0
27 -239 -276 0
10 145 -437 0
28 -247 266 0
-193 331 341 0
-180 181 -311 0
78 -271 407 0
59 -142 176 0
53 306 -335 0
343 347 -368 0
39 -124 160 0
145 410 -412 0
88 94 -267 0
-29 -396 413 0
-41 367 447 0
-112 282 298 0
-89 117 417 0
-76 -77 -437 0
-263 305 391 0
-14 -181 -245 0
-195 387 443 0
-213 228 312 0
-88 145 -200 0
46 95 -210 0
323 392 402 0
-28 -106 -213 0
-22 -205 213 0
86 -203 238 0
-264 268 343 0
-240 247 -265 0
84 -130 -202 0
239 389 448 0
-205 232 -337 0
-100 276 -421 0
-2 273 -349 0
39 -42 143 0
200 -281 -430 0
6 153 -345 0
-207 -351 -387 0
57 -91 -202 0
-26 -404 -439 0
-71 168 397 0
-59 159 322 0
188 276 -280 0
137 372 433 0
-100 -234 -446 0
373 -394 -417 0
18 -71 79 0
122 300 314 0
262 -380 397 0
288 352 445 0
40 327 417 0
179 242 448 0
54 211 289 0
142 383 427 0
134 159 -385 0
-62 231 244 0
47 126 -141 0
-133 242 -296 0
93 114 261 0
72 -294 376 0
-315 350 435 0
396 423 -448 0
-132 -336 383 0
43 -103 230 0
-55 -109 353 0
161 171 -229 0
-93 -280 -366 0
167 279 -364 0
-69 201 -266 0
-132 -348 408 0
54 265 -338 0
313 364 444 0
168 -288 -374 0
-88 155 -394 0
65 -194 -403 0
-144 233 -266 0
147 -411 -442 0
-28 249 -306 0
155 239 408 0
280 -351 -363 0
-241 -372 415 0
-22 -174 -389 0
66 286 288 0
-87 101 -231 0
-34 197 211 0
49 -280 435 0
-89 -287 -373 0
40 -405 -436 0
22 72 220 0
-110 -157 -375 0
-94 239 -301 0
116 -322 -436 0
73 -265 -401 0
-56 -163 -240 0
-31 106 362 0
-58 -240 245 0
-44 -336 399 0
-140 -149 285 0
-117 303 -347 0
338 404 423 0
38 -336 366 0
184 -370 -422 0
-106 222 -412 0
-96 -186 -281 0
-126 229 347 0
-13 -32 -363 0
-27 168 424 0
-47 -87 -253 0
-66 100 -447 0
-308 -341 347 0
-73 -158 200 0
-170 193 218 0
65 -77 -310 0
104 -116 261 0
-34 -105 390 0
-36 -60 -148 0
3 -385 -388 0
160 -190 -299 0
12 205 418 0
-160 311 -398 0
-29 -65 269 0
-85 -226 -438 0
99 323 -381 0
89 -209 -339 0
46 -80 86 0
-33 227 -379 0
-172 -189 -192 0
-114 -128 -322 0
195 -206 345 0
-86 182 -441 0
-1 -127 -360 0
78 195 -211 0
-42 144 264 0
-17 364 393 0
51 -74 112 0
138 288 -302 0
-35 89 394 0
150 -282 393 0
34 -126 -226 0
-281 331 424 0
-125 374 442 0
-65 -130 356 0
-13 183 -220 0
-25 32 -193 0
-72 -134 221 0
-114 -129 194 0
205 207 -249 0
204 -318 357 0
120 -198 336 0
-357 374 379 0
18 317 -330 0
171 -238 -280 0
-60 -188 -258 0
339 400 -402 0
227 294 -392 0
-107 -379 421 0
-18 -148 -219 0
-127 242 260 0
-3 29 -420 0
19 106 198 0
252 326 363 0
-201 217 -359 0
-107 124 -288 0
-72 178 205 0
119 -137 -168 0
139 233 264 0
43 -275 358 0
-223 -277 -376 0
-140 -177 337 0
23 -135 338 0
-70 77 -277 0
-217 278 -404 0
-58 273 315 0
-185 205 -428 0
56 247 -442 0
62 216 446 0
17 -305 -308 0
-155 -249 400 0
-182 342 -406 0
105 -223 360 0
124 -214 448 0
-16 -81 -206 0
156 283 -433 0
75 -313 327 0
-135 405 -420 0
137 -159 254 0
118 -133 -372 0
-141 152 284 0
-302 -414 -443 0
-92 210 326 0
-210 -267 392 0
146 -345 -436 0
136 258 -424 0
22 -288 303 0
-162 -166 -202 0
-209 -397 -428 0
-51 -130 162 0
107 -178 -284 0
-60 -186 -423 0
25 -177 -264 0
-28 -318 -352 0
164 296 -353 0
-80 248 266 0
-39 -94 -441 0
12 -218 395 0
84 266 -278 0
90 255 -379 0
89 316 429 0
177 250 -353 0
-66 -277 447 0
69 264 321 0
301 326 328 0
58 -204 -332 0
-99 -156 411 0
-43 -74 215 0
-45 -136 420 0
-75 198 374 0
-183 -207 -208 0
226 -342 -411 0
-199 354 436 0
-128 -234 -342 0
280 297 -336 0
-40 224 401 0
58 -180 410 0
-218 -220 242 0
57 -103 -405 0
18 90 -208 0
243 259 -420 0
-232 270 348 0
-69 -184 -405 0
-23 113 400 0
17 -46 265 0
163 -173 -197 0
-114 -297 405 0
288 297 299 0
88 -118 290 0
-30 -65 -70 0
-126 -296 -324 0
36 318 373 0
23 -170 260 0
52 -57 -212 0
-152 232 403 0
66 -97 -154 0
213 352 427 0
55 66 -266 0
173 -317 350 0
13 150 332 0
-55 75 78 0
-156 -197 -408 0
-52 -250 -316 0
-236 286 -324 0
23 117 287 0
-147 327 335 0
-338 -372 448 0
150 305 441 0
326 422 -446 0
85 238 424 0
35 -111 379 0
-82 -142 -168 0
172 -398 -436 0
92 164 416 0
27 -232 404 0
246 292 -398 0
-22 126 169 0
62 120 -307 0
-97 -186 -440 0
216 396 -442 0
-295 409 -436 0
67 -175 435 0
-165 -265 -421 0
221 -229 430 0
-190 321 346 0
253 254 -285 0
20 154 -234 0
-38 90 -330 0
-106 297 -338 0
-68 -323 -379 0
-16 93 96 0
49 -100 -169 0
156 335 360 0
16 81 310 0
11 -52 92 0
15 103 195 0
128 440 -446 0
-36 167 361 0
-12 27 55 0
182 318 -388 0
-254 -371 -402 0
-136 -313 364 0
51 -178 186 0
-65 -179 325 0
2 209 -263 0
-68 146 -321 0
170 -190 -416 0
-96 196 -242 0
176 306 344 0
269 -367 434 0
131 -167 304 0
-8 252 367 0
77 118 -329 0
-137 187 -260 0
-36 -186 -206 0
-70 -120 -219 0
-319 -349 -372 0
127 132 432 0
-88 -194 349 0
-291 413 434 0
16 -34 -320 0
-84 -125 -203 0
156 -221 332 0
-178 327 -408 0
88 -368 -404 0
-99 -346 429 0
-203 -221 -226 0
-2 -88 -399 0
-129 135 -251 0
-1 -31 143 0
-167 205 -448 0
-352 357 414 0
349 -372 -404 0
-140 213 297 0
136 -154 -409 0
-148 -337 -358 0
79 93 -310 0
159 171 -357 0
-18 -191 -288 0
52 -56 -94 0
154 156 -232 0
32 131 -293 0
339 -371 -409 0
-230 265 -433 0
129 407 -436 0
107 -152 171 0
25 317 399 0
83 90 -350 0
378 394 -400 0
32 222 -406 0
-228 -337 344 0
47 93 332 0
-210 -339 -378 0
-90 -257 295 0
-87 -176 446 0
-113 141 158 0
191 -304 -335 0
-103 207 -215 0
-149 193 213 0
-167 208 -356 0
60 -386 -431 0
357 -419 -449 0
-127 -245 343 0
102 125 -405 0
56 137 -335 0
229 271 361 0
97 173 -431 0
-90 105 -409 0
-67 79 414 0
-33 -283 345 0
-49 -68 -305 0
-5 298 -307 0
53 -139 -349 0
-42 -54 -126 0
111 -421 448 0
79 368 -416 0
-75 209 380 0
-165 250 -433 0
-41 368 436 0
-131 134 -259 0
127 -329 -384 0
116 -288 -424 0
-50 -322 -324 0
-246 247 -271 0
28 124 -178 0
-25 39 -246 0
50 -245 385 0
58 254 388 0
106 390 438 0
78 105 -120 0
-38 -408 414 0
-252 -263 -278 0
-16 -205 -437 0
-48 102 151 0
-255 357 380 0
-281 295 391 0
-165 204 -251 0
41 74 438 0
-88 -259 -411 0
154 -160 -382 0
-256 -378 412 0
321 436 446 0
-43 288 -428 0
-239 -323 378 0
33 -194 241 0
72 -137 419 0
7 -111 147 0
14 -295 -446 0
58 218 -366 0
-105 -332 391 0
114 -203 248 0
-144 222 -444 0
8 -330 -394 0
-166 -315 -408 0
183 383 -404 0
-24 139 -401 0
73 301 -409 0
270 -309 -352 0
78 99 -432 0
-184 190 -317 0
211 297 431 0
-42 124 -187 0
52 277 -407 0
13 -187 -198 0
83 -306 359 0
111 -308 318 0
248 -308 399 0
87 107 386 0
81 288 -301 0
-133 225 -323 0
79 -94 401 0
-74 -145 270 0
75 -82 -178 0
86 -250 -330 0
-87 258 397 0
59 -263 411 0
126 294 296 0
61 -226 251 0
124 -295 301 0
-29 183 414 0
6 -27 373 0
74 -226 360 0
-30 -307 385 0
191 -308 384 0
14 52 152 0
-155 -194 -260 0
118 -183 -438 0
47 49 131 0
272 -328 -442 0
-213 265 -346 0
186 -248 299 0
134 -238 434 0
102 -354 -380 0
383 -408 415 0
161 219 -419 0
38 -117 408 0
270 321 364 0
170 179 -288 0
75 -93 -349 0
24 -97 -281 0
-92 -145 377 0
9 -21 -105 0
60 -166 -341 0
-35 -54 -208 0
-71 138 154 0
-136 -267 -434 0
-14 -23 -382 0
-26 -101 -313 0
260 283 409 0
-47 81 414 0
-162 235 -423 0
-136 214 -413 0
-117 170 210 0
-239 259 -345 0
-118 251 -312 0
208 -382 -446 0
-47 272 -421 0
-86 112 -216 0
-188 408 413 0
-235 269 276 0
90 -159 268 0
313 -328 440 0
187 245 394 0
25 131 382 0
236 308 375 0
-92 -136 -437 0
51 169 208 0
65 -95 -258 0
-37 -242 -291 0
68 -88 -229 0
94 244 -417 0
194 -297 360 0
-99 141 -303 0
-173 -360 -411 0
220 251 -447 0
-106 257 -405 0
-35 -194 -223 0
-39 -74 -368 0
188 -232 -420 0
-5 279 288 0
223 232 -375 0
276 -383 449 0
-49 419 444 0
-138 193 213 0
276 -394 -438 0
-3 110 304 0
-38 -39 -309 0
278 304 -433 0
120 -258 435 0
232 318 345 0
184 -224 -421 0
176 -405 -434 0
-42 129 -148 0
75 181 -293 0
189 297 -346 0
49 -93 112 0
-30 224 444 0
-148 -344 438 0
45 72 -418 0
203 255 -414 0
83 112 -263 0
-200 222 -340 0
276 336 371 0
-155 170 269 0
-1 95 346 0
142 -273 369 0
43 71 444 0
165 236 -280 0
-131 256 -339 0
-13 204 390 0
-29 248 -374 0
-111 -288 349 0
-194 -347 -385 0
66 311 -384 0
-9 -66 -319 0
-12 363 -393 0
110 -185 -443 0
-186 -309 354 0
36 163 -429 0
49 82 -195 0
83 270 -360 0
45 -384 425 0
56 -93 128 0
41 -95 -271 0
51 153 -237 0
73 91 -278 0
154 224 449 0
-35 -383 439 0
-66 130 317 0
-64 -255 -416 0
34 -48 444 0
274 377 -444 0
84 -345 -416 0
-10 23 100 0
238 323 446 0
-68 167 -356 0
-12 -38 -343 0
-15 101 -332 0
72 193 -257 0
170 201 -297 0
-105 302 -355 0
-12 -173 389 0
-105 273 -430 0
-273 -289 -311 0
-152 -231 276 0
130 328 350 0
-142 -232 -348 0
65 308 311 0
-105 -205 -366 0
-139 -275 316 0
-79 91 -166 0
29 344 426 0
-153 -163 -249 0
-62 -228 -426 0
237 -283 -376 0
13 -170 -347 0
-26 202 265 0
51 -294 -305 0
29 162 -267 0
71 -134 233 0
166 269 362 0
220 -232 332 0
-228 279 -382 0
17 -49 -122 0
-45 243 292 0
196 249 412 0
-388 390 -427 0
230 -289 377 0
-222 -263 -296 0
-1 60 -405 0
-26 -166 -349 0
-43 -274 276 0
16 -61 -305 0
-6 40 -249 0
131 160 300 0
11 91 -393 0
-49 324 -393 0
-53 -143 -406 0
26 177 396 0
-229 -355 362 0
169 -339 -379 0
-61 233 430 0
83 -302 307 0
243 411 450 0
-39 192 -345 0
-22 -104 -264 0
-39 139 -380 0
379 -419 -440 0
-58 145 363 0
-182 -246 308 0
20 85 375 0
7 -250 -374 0
157 -209 -225 0
-47 262 -391 0
18 96 323 0
-57 -84 -207 0
-26 -111 -255 0
81 102 293 0
-181 -313 -403 0
268 -304 432 0
-131 299 412 0
-109 -132 -242 0
33 225 -377 0
116 -134 -145 0
-71 372 -379 0
65 136 -450 0
-92 194 408 0
12 -163 -373 0
256 266 366 0
-50 347 433 0
146 -203 -244 0
13 -82 -203 0
377 -418 -427 0
-109 -191 306 0
56 341 -392 0
-8 -90 197 0
315 334 -357 0
-243 397 -424 0
123 230 -332 0
11 -139 435 0
291 312 -341 0
16 109 149 0
-25 -244 256 0
-44 342 370 0
35 -193 -412 0
190 191 -376 0
-116 -280 414 0
-36 -158 -331 0
-203 206 401 0
-49 151 450 0
102 239 -245 0
78 -182 320 0
-89 132 425 0
-79 279 -311 0
-212 299 -333 0
283 298 385 0
37 -151 -234 0
192 292 390 0
-94 -225 -269 0
192 -201 262 0
287 -333 411 0
126 -167 420 0
155 332 359 0
-16 218 -428 0
-39 44 -130 0
-127 -177 231 0
51 -70 -96 0
-8 120 -296 0
3 -45 -212 0
51 232 -286 0
-51 -73 -87 0
148 348 353 0
170 262 380 0
-103 156 -354 0
339 393 439 0
-178 -293 -370 0
-239 290 418 0
-33 -136 277 0
-24 341 -406 0
98 -111 -236 0
72 -349 -369 0
-17 -89 -157 0
77 -98 -225 0
-43 56 -77 0
-104 187 -280 0
-354 413 420 0
-157 -171 264 0
-108 -169 -207 0
-36 -50 -200 0
46 156 447 0
145 286 404 0
128 -169 328 0
192 -282 412 0
-6 -191 385 0
-51 -165 304 0
-141 338 -373 0
-205 216 -333 0
77 -229 410 0
-57 311 450 0
23 -267 -368 0
217 -318 349 0
-102 -191 269 0
74 294 296 0
8 167 -308 0
7 376 -396 0
299 -305 389 0
-21 -63 -187 0
-16 -133 -379 0
-343 344 -376 0
-89 178 422 0
-62 -98 280 0
-5 -220 -443 0
-48 51 -447 0
115 195 408 0
32 -33 156 0
-271 314 -372 0
89 173 190 0
-46 86 -343 0
14 -96 441 0
-39 80 257 0
-51 -434 -450 0
-60 -117 -138 0
23 -90 -352 0
18 281 -430 0
81 -92 441 0
-279 315 377 0
-119 -273 323 0
25 -243 -402 0
-109 -129 -385 0
-68 -147 -440 0
-3 263 -398 0
-161 -357 383 0
132 183 -332 0
-108 276 -348 0
-91 -241 331 0
112 211 -354 0
-47 213 399 0
204 -297 406 0
-347 368 -399 0
-7 58 -73 0
-200 259 -381 0
219 245 -448 0
-80 153 -245 0
-255 -308 -367 0
-5 -103 366 0
65 208 -348 0
-165 -303 -408 0
-21 236 399 0
-3 191 225 0
-2 9 -266 0
-29 -42 327 0
280 -317 -449 0
26 -206 228 0
-22 369 -444 0
-33 -193 209 0
-33 81 187 0
-47 -128 250 0
182 351 438 0
-134 148 -228 0
102 190 264 0
-116 225 -336 0
-56 -267 -353 0
-70 -87 -344 0
-68 362 -394 0
-22 -107 -296 0
209 -238 289 0
-191 344 408 0
-93 238 -293 0
128 -164 -447 0
-49 -365 439 0
127 289 -354 0
117 287 353 0
66 184 -322 0
-84 -127 -434 0
196 279 414 0
-71 -331 391 0
-25 -97 263 0
55 -231 -252 0
10 115 -396 0
-32 234 267 0
-31 35 307 0
113 -126 318 0
9 -54 199 0
94 235 446 0
20 26 243 0
-177 -269 -354 0
64 -228 378 0
-96 167 -213 0
-158 199 302 0
65 -198 426 0
208 -235 284 0
6 -216 -292 0
218 435 445 0
26 174 403 0
176 211 -345 0
25 -107 381 0
298 -380 -384 0
339 -359 405 0
294 -404 -411 0
-98 -172 -406 0
-84 181 -272 0
48 -220 -435 0
170 -435 -446 0
-48 -213 -323 0
-319 -373 439 0
226 -232 260 0
-75 -148 256 0
-172 334 -336 0
108 -248 264 0
287 299 333 0
69 -284 367 0
-69 -154 -174 0
-153 -196 386 0
49 143 235 0
52 218 413 0
27 -102 212 0
-18 288 -397 0
-132 405 409 0
-159 -204 -352 0
189 -291 -381 0
199 225 -410 0
60 -143 405 0
88 98 -311 0
259 -274 361 0
153 -162 -342 0
111 248 375 0
194 -221 298 0
259 325 422 0
4 216 -366 0
-185 225 -447 0
-36 -301 -376 0
-279 -310 379 0
103 116 -394 0
72 268 -299 0
39 125 -171 0
3 -372 -409 0
186 225 235 0
-179 257 -307 0
8 128 440 0
1 -63 -140 0
56 -343 -385 0
-127 -373 -398 0
-47 -81 397 0
42 -205 276 0
97 288 -381 0
78 110 -251 0
69 410 -430 0
184 -227 340 0
89 -122 417 0
184 -355 -357 0
-89 393 417 0
-55 252 -278 0
75 -257 319 0
31 -133 261 0
204 -236 -446 0
-257 -312 333 0
6 30 -344 0
-239 286 344 0
67 359 -441 0
40 -342 410 0
131 174 -366 0
131 265 408 0
102 -166 356 0
-162 335 -420 0
-28 -79 414 0
18 146 159 0
-106 -267 -305 0
-135 -268 416 0
-207 402 -412 0
51 -237 320 0
-95 -290 308 0
75 -191 -359 0
297 363 388 0
191 229 294 0
-150 174 283 0
-104 152 399 0
-84 -93 -100 0
302 306 346 0
50 -118 379 0
-130 242 -362 0
53 -159 259 0
-108 -374 -414 0
-105 136 235 0
-105 -162 448 0
174 -215 378 0
-172 -276 399 0
158 -308 429 0
-5 -55 128 0
200 277 -368 0
-117 357 -361 0
163 -316 366 0
-31 169 391 0
8 -100 -254 0
282 -299 428 0
53 253 351 0
136 -240 -290 0
-37 -404 411 0
31 -321 381 0
207 -209 -302 0
199 -224 300 0
245 306 407 0
-102 122 -202 0
-54 255 324 0
140 167 327 0
-134 164 -362 0
-68 -141 268 0
-110 181 387 0
54 157 287 0
171 -270 -355 0
77 185 215 0
-106 231 -346 0
-210 -214 -228 0
75 207 -312 0
165 210 -292 0
159 429 441 0
40 -339 -374 0
-138 268 295 0
133 261 -430 0
-14 328 355 0
-63 264 323 0
145 238 -318 0
-75 -354 -405 0
216 250 -373 0
84 -217 -313 0
-29 -92 158 0
34 132 173 0
34 269 290 0
-42 132 417 0
-135 388 -420 0
111 350 -450 0
147 -216 354 0
-124 -151 -174 0
-174 284 392 0
60 -100 307 0
-218 -253 -391 0
-59 399 449 0
-189 -264 -346 0
112 319 384 0
15 121 273 0
92 -151 291 0
4 237 325 0
129 182 -196 0
-156 175 -383 0
114 128 276 0
-27 -304 422 0
-91 -186 -330 0
159 404 -411 0
-353 -387 432 0
-86 -206 292 0
-103 405 -427 0
142 -222 -385 0
1 -41 405 0
84 -118 370 0
90 -279 -411 0
76 191 192 0
219 370 -407 0
337 -345 373 0
-6 64 -320 0
-101 130 -209 0
-50 205 363 0
31 -156 404 0
-99 -269 449 0
78 182 249 0
181 -335 -392 0
-83 292 429 0
-35 146 431 0
-3 -279 -443 0
-27 -142 333 0
67 -196 -410 0
126 133 -271 0
-24 34 -233 0
-157 369 411 0
77 168 187 0
87 213 -281 0
-78 -137 -389 0
20 -134 -244 0
74 220 -272 0
-51 351 -405 0
227 260 363 0
27 -105 191 0
-301 307 385 0
11 106 -368 0
103 123 -200 0
177 228 -421 0
-114 156 -190 0
-34 -154 -257 0
314 345 -438 0
36 58 401 0
-121 -183 -195 0
-271 -322 -410 0
-109 -154 369 0
-8 21 96 0
-60 -279 350 0
-140 373 -437 0
-345 -381 -425 0
80 214 435 0
-358 -383 -410 0
-68 202 -444 0
-241 -339 350 0
54 -136 -146 0
-217 392 431 0
30 -307 361 0
205 -399 400 0
-37 -248 -277 0
68 -142 -173 0
-56 -183 -385 0
219 -325 -448 0
-140 282 321 0
-78 -301 330 0
-112 241 -391 0
11 181 207 0
-304 342 -422 0
-149 -238 -313 0
7 -259 -382 0
87 -217 240 0
-29 265 -406 0
48 -344 366 0
88 -177 317 0
-223 235 -323 0
-54 62 -274 0
-84 -289 311 0
206 219 -335 0
242 -379 440 0
-111 148 -229 0
111 -178 204 0
-149 249 439 0
-57 138 -375 0
74 -257 422 0
-163 369 407 0
51 80 -258 0
163 190 192 0
21 -139 -389 0
32 -136 -257 0
171 216 -407 0
213 -322 358 0
46 179 242 0
-145 -441 -442 0
64 103 -269 0
235 -236 333 0
-77 231 -441 0
43 -100 410 0
16 -206 446 0
-240 294 -428 0
-25 -310 -436 0
38 124 -220 0
42 -241 407 0
27 153 232 0
61 -105 129 0
114 204 -441 0
-178 268 -364 0
-45 -52 -175 0
61 239 439 0
-238 342 421 0
-168 -258 -437 0
169 255 339 0
71 -303 -360 0
151 -178 -220 0
271 -408 -422 0
-11 -121 344 0
168 322 -400 0
-257 282 439 0
143 388 450 0
-261 354 356 0
-175 -335 -440 0
316 370 -408 0
210 -316 417 0
-18 -150 -153 0
-50 -98 -345 0
-261 276 -333 0
-40 -69 -254 0
85 301 -320 0
174 175 -241 0
173 -198 -422 0
-63 -124 -189 0
132 -259 -264 0
-285 -312 415 0
50 -77 -195 0
35 -86 195 0
-4 -85 150 0
-57 -136 -239 0
312 -317 -372 0
-73 274 374 0
111 308 448 0
40 88 -241 0
-168 -304 -435 0
-50 282 -392 0
273 337 399 0
-24 288 346 0
-49 129 191 0
168 202 420 0
14 -32 -47 0
26 193 -251 0
-151 277 -304 0
-10 131 276 0
239 293 323 0
157 178 -363 0
305 362 -389 0
7 -31 -369 0
-70 152 307 0
51 -353 383 0
48 -243 -252 0
91 -116 190 0
-218 -241 -331 0
1 88 -200 0
265 -298 -362 0
114 254 419 0
-2 -47 -186 0
111 210 286 0
72 96 -368 0
-291 330 -367 0
-139 203 -449 0
-151 -285 411 0
-77 -91 -239 0
-215 -387 -394 0
88 -101 -369 0
30 221 -294 0
61 246 333 0
-119 138 281 0
6 198 -421 0
-87 261 -438 0
159 -283 302 0
209 -218 -242 0
43 290 440 0
58 250 -418 0
220 -236 384 0
46 -260 -442 0
-3 135 -300 0
-42 165 -426 0
-131 274 288 0
-292 414 -423 0
33 293 -442 0
119 -157 -215 0
70 -162 298 0
79 207 450 0
-319 -332 406 0
-168 169 -235 0
-109 -337 393 0
93 323 337 0
-64 143 -297 0
204 -266 -271 0
-31 74 77 0
122 171 -340 0
109 -259 409 0
189 371 444 0
158 -280 391 0
35 -240 340 0
-15 -91 -135 0
-68 196 389 0
18 63 402 0
24 -32 -46 0
-269 388 -412 0
15 -262 267 0
31 -191 -262 0
-36 43 191 0
13 231 -279 0
26 254 -321 0
-73 162 -317 0
58 419 422 0
218 -364 398 0
-269 277 427 0
90 -272 374 0
58 172 -447 0
-33 -220 277 0
67 -118 -375 0
-20 160 175 0
99 148 387 0
-46 -274 -282 0
50 177 436 0
81 -146 318 0
130 -230 271 0
120 262 329 0
213 339 366 0
-180 391 410 0
48 229 -343 0
370 400 432 0
-137 290 -332 0
191 -249 -400 0
217 -293 -346 0
-75 416 419 0
109 234 -383 0
14 -126 -245 0
-186 -234 -346 0
252 327 -387 0
-350 -440 -444 0
40 113 -224 0
190 -331 -386 0
-45 110 218 0
19 -146 -432 0
-38 -118 216 0
203 -366 391 0
-24 293 408 0
-244 299 352 0
-304 335 392 0
-25 -147 239 0
218 -248 -329 0
17 294 311 0
-201 -223 -305 0
192 294 434 0
-75 285 347 0
-108 113 178 0
48 68 -172 0
-29 -273 312 0
248 -310 -431 0
28 115 -427 0
87 -125 417 0
-8 -277 361 0
-277 371 447 0
-114 -145 179 0
72 -85 -299 0
-183 254 294 0
247 -407 422 0
26 -230 391 0
64 122 -127 0
-106 -344 365 0
161 -354 -436 0
-152 -273 -367 0
61 -106 281 0
91 209 -223 0
201 217 300 0
-49 -107 -375 0
293 329 342 0
41 162 225 0
44 216 376 0
78 118 349 0
245 -268 423 0
-148 -258 335 0
27 33 406 0
35 162 -409 0
27 -150 207 0
-200 223 295 0
-221 309 -324 0
40 80 141 0
200 -331 -430 0
-153 -299 -334 0
-174 -318 -343 0
-22 209 -283 0
1 88 217 0
249 -423 -430 0
-9 -29 370 0
28 178 419 0
-64 -177 -275 0
227 -265 436 0
101 111 190 0
-328 -352 -397 0
247 -282 414 0
-6 -190 -428 0
65 98 -155 0
127 -159 -308 0
-152 315 389 0
25 31 -177 0
6 212 -359 0
168 -204 -268 0
-8 -31 165 0
250 -325 -432 0
4 -6 -31 0
-268 301 -347 0
-34 396 -424 0
-26 -78 116 0
34 -331 -354 0
-256 316 435 0
75 99 -265 0
-42 259 368 0
-166 -263 -288 0
-23 -84 -169 0
-68 155 432 0
88 187 432 0
55 144 148 0
22 -102 -217 0
101 -108 288 0
-109 -262 368 0
-42 82 427 0
355 388 -442 0
107 163 343 0
55 78 86 0
-240 -263 -444 0
138 362 369 0
-219 -418 433 0
30 -206 -256 0
30 -245 449 0
-79 224 239 0
-133 241 -330 0
-36 -329 -362 0
-189 235 446 0
-8 140 -236 0
-131 207 -425 0
24 -188 294 0
209 323 329 0
14 243 -391 0
299 366 396 0
-172 -177 384 0
152 354 381 0
17 36 -353 0
90 -91 -393 0
-219 -284 429 0
-107 176 -399 0
-82 -94 -438 0
359 -403 441 0
-238 298 428 0
298 -423 -428 0
51 -168 -226 0
-307 -329 434 0
-51 160 -247 0
-163 -316 -368 0
169 -170 -356 0
144 200 -388 0
41 -382 443 0
73 -244 -319 0
-58 -242 295 0
-166 -267 394 0
-102 389 -431 0
171 274 -295 0
274 381 -408 0
247 -409 -447 0
-114 -197 318 0
-277 -316 -359 0
-57 -190 -263 0
53 84 -271 0
-240 -389 -413 0
35 270 429 0
154 -158 427 0
18 -26 -51 0
247 -317 -422 0
-87 122 -423 0
-20 -197 268 0
36 104 314 0
190 -391 -432 0
-247 365 -446 0
119 -220 -328 0
274 -297 -429 0
-30 -247 248 0
-283 369 424 0
38 -117 261 0
-206 299 351 0
-8 60 -201 0
1 233 -325 0
-9 211 -282 0
106 -393 445 0
97 -255 -258 0
-182 293 408 0
70 128 -301 0
-14 84 363 0
170 -188 -446 0
39 -222 364 0
134 348 420 0
95 267 -377 0
-6 46 -89 0
20 -162 246 0
-45 -208 -441 0
-137 -246 -369 0
17 -107 -431 0
150 330 -346 0
90 -301 423 0
47 -226 -398 0
136 -330 402 0
-5 -160 -188 0
-58 -137 175 0
276 292 318 0
-11 -63 428 0
-27 276 282 0
-190 201 241 0
-59 -64 -231 0
-22 62 -359 0
67 175 373 0
139 204 -242 0
38 -313 335 0
-111 -208 397 0
-53 67 336 0
-371 -387 -439 0
65 -127 -449 0
12 30 379 0
74 -200 -419 0
-36 130 220 0
63 -101 120 0
-131 246 -309 0
-344 345 387 0
10 -351 -377 0
44 -157 -159 0
-21 -153 285 0
182 -254 293 0
-203 -271 -429 0
-120 136 -331 0
135 -167 417 0
226 260 -416 0
-5 16 -284 0
-116 -289 434 0
-15 -266 302 0
83 112 -248 0
-257 299 -447 0
16 -390 415 0
17 -91 392 0
-154 -172 -231 0
17 267 -341 0
12 180 -289 0
-167 -354 -389 0
-39 -424 -435 0
164 -196 297 0
-174 -225 -250 0
212 237 272 0
57 293 -419 0
-31 -116 -447 0
69 -181 374 0
133 367 -423 0
48 -192 444 0
-113 285 -415 0
-49 156 341 0
-65 -85 -247 0
27 -189 345 0
-101 -226 -298 0
25 -250 -446 0
-306 -363 -442 0
-88 315 412 0
73 251 -257 0
-60 -353 449 0
128 364 426 0
5 -34 -308 0
14 -138 -247 0
-133 -295 371 0
131 142 320 0
-91 -164 -193 0
-63 278 -385 0
113 -208 302 0
-37 -76 -440 0
-4 -170 -181 0
72 105 -116 0
97 -363 -399 0
215 233 355 0
160 -190 199 0
-220 -318 385 0
6 -105 259 0
6 -20 148 0
170 325 357 0
100 -121 305 0
281 -408 414 0
79 158 177 0
-139 162 -276 0
42 -87 279 0
-243 -256 -425 0
-289 -294 -449 0
40 202 -293 0
-97 184 -235 0
205 -315 -328 0
195 326 -402 0
253 260 -422 0
-98 367 -408 0
-150 285 444 0
23 -254 350 0
-24 -137 -267 0
-175 -186 -274 0
157 189 264 0
-95 100 -252 0
38 -149 162 0
-144 -357 -403 0
-21 336 -403 0
263 -386 417 0
-44 -238 -442 0
297 -320 -448 0
-3 -13 -287 0
-90 372 390 0
89 112 -209 0
91 103 -428 0
75 155 -228 0
311 -312 322 0
222 289 -447 0
-221 -232 261 0
224 435 -446 0
18 124 -161 0
-80 -275 -291 0
152 -161 -198 0
-14 252 435 0
-27 -234 398 0
137 163 227 0
-175 359 -401 0
-23 -48 66 0
139 -226 419 0
-12 76 128 0
138 -245 -279 0
-286 307 -332 0
223 -362 366 0
186 -233 413 0
-127 163 -205 0
7 -383 386 0
176 -191 -195 0
6 -32 -234 0
-3 -38 -206 0
-93 -260 387 0
-99 -303 436 0
271 356 -437 0
169 179 188 0
1 256 -300 0
66 -239 303 0
187 208 346 0
-129 -317 391 0
109 -195 -260 0
-71 -320 -335 0
231 -328 410 0
47 307 -421 0
13 -258 -314 0
-42 73 -381 0
-105 319 -384 0
4 -65 -371 0
-67 -400 -430 0
137 150 443 0
-164 -233 -352 0
-288 -354 -442 0
25 -82 -391 0
112 -134 -168 0
201 -438 450 0
347 358 -408 0
125 -148 431 0
95 -156 -206 0
-109 -375 384 0
-316 413 419 0
1 179 309 0
-152 -175 181 0
179 -256 387 0
-254 296 321 0
228 327 -447 0
-165 -314 372 0
-3 -93 136 0
-65 -75 -355 0
-237 352 431 0
-67 -312 337 0
73 -169 378 0
67 -166 231 0
-307 -316 -443 0
122 236 317 0
97 266 283 0
-48 -341 378 0
111 -208 396 0
56 -157 -351 0
-163 193 -238 0
-35 225 258 0
-88 -341 -350 0
-315 -394 -445 0
-75 346 -379 0
-19 -112 314 0
-52 -189 297 0
-288 -330 372 0
85 242 400 0
50 371 450 0
162 -212 354 0
-179 -367 -391 0
-128 -256 288 0
-24 67 150 0
73 166 274 0
-18 -72 252 0
37 260 -381 0
220 285 -346 0
-55 157 -261 0
217 254 394 0
-22 -109 -448 0
-362 -430 -442 0
-196 -230 -240 0
28 -53 -292 0
-235 253 404 0
-146 -243 266 0
-141 163 -424 0
-179 341 -368 0
-42 -331 416 0
-82 -200 -348 0
147 -267 -320 0
32 46 -384 0
-46 -354 362 0
-143 -279 -378 0
-199 280 363 0
84 182 -312 0
52 67 442 0
152 -165 -396 0
95 -190 -291 0
-43 176 -406 0
118 -208 312 0
171 389 -440 0
177 -184 -420 0
-86 400 427 0
126 -148 -358 0
-54 -129 -177 0
-130 -165 223 0
21 208 -280 0
92 -126 -339 0
-106 -279 435 0
-37 -82 293 0
-121 -167 -267 0
-31 44 -76 0
52 -205 -369 0
93 109 235 0
39 302 311 0
119 127 -294 0
225 227 -299 0
73 302 325 0
-257 339 -368 0
-73 -267 335 0
32 -105 -298 0
-132 259 -393 0
-197 -267 -386 0
61 205 -266 0
-248 -264 -390 0
-104 171 -210 0
-111 119 -197 0
-173 -207 449 0
109 150 -182 0
-254 -324 -349 0
119 -307 -346 0
-134 -140 -365 0
157 -263 335 0
122 -159 298 0
2 213 -306 0
-9 -308 -374 0
-76 253 314 0
181 288 305 0
-185 -290 -381 0
-158 -182 266 0
-15 105 141 0
-287 346 -365 0
-92 -207 211 0
108 -321 -425 0
-254 -401 -435 0
-177 380 414 0
-89 127 288 0
-163 286 -409 0
3 248 356 0
11 76 -156 0
-89 -336 -444 0
-101 -338 -342 0
10 -257 450 0
170 416 445 0
29 -152 299 0
172 208 273 0
30 -150 331 0
9 111 -119 0
242 -296 -424 0
92 374 378 0
50 51 186 0
-53 223 -338 0
-10 102 163 0
-79 192 343 0
213 239 335 0
-142 332 -397 0
-72 200 -298 0
212 -277 358 0
42 55 90 0
228 -294 407 0
-370 377 -423 0
12 186 439 0
-12 -97 -224 0
9 -204 398 0
310 -333 -388 0
-139 220 -418 0
71 -137 447 0
61 106 271 0
-17 -206 -259 0
-129 171 -269 0
158 371 -435 0
130 372 411 0
-171 230 -378 0
37 67 -397 0
77 270 421 0
-27 -273 -307 0
-93 -371 399 0
-143 -221 -230 0
-213 259 -400 0
-114 127 -429 0
-117 -315 427 0
35 -58 -338 0
40 -199 423 0
-98 -234 245 0
-409 -412 -442 0
-87 -120 189 0
-158 365 417 0
-20 244 -411 0
101 -270 -389 0
24 219 -277 0
35 220 228 0
-58 -59 -204 0
73 -76 -327 0
36 -329 357 0
112 330 -444 0
66 258 348 0
-249 267 380 0
131 287 340 0
-299 302 386 0
-24 188 -364 0
-15 -218 274 0
179 207 438 0
147 188 392 0
78 -162 -279 0
173 -195 429 0
85 -249 -289 0
-78 -227 270 0
30 -59 92 0
99 -118 222 0
78 372 391 0
-29 78 -414 0
-84 384 -449 0
-15 -67 -107 0
190 376 413 0
112 354 -422 0
-21 -117 133 0
100 244 -277 0
23 -199 231 0
73 -261 -364 0
-38 81 106 0
424 431 -442 0
-84 -337 -355 0
-251 -259 432 0
-166 -378 446 0
100 -310 -317 0
-16 254 -261 0
139 -223 228 0
-182 -304 -376 0
34 -233 -327 0
-131 144 377 0
326 -349 372 0
36 396 443 0
76 -297 387 0
-41 92 228 0
-12 230 265 0
-56 98 -156 0
-100 137 -295 0
-243 257 298 0
-1 -242 -245 0
9 70 -397 0
18 123 235 0
-64 267 -304 0
-186 -209 -324 0
65 161 -302 0
-57 -109 -215 0
11 -363 -378 0
50 173 177 0
-117 -151 189 0
116 -212 -445 0
19 231 375 0
200 -327 394 0
-18 -54 253 0
22 95 -385 0
27 29 -139 0
194 -317 393 0
222 -249 -270 0
80 125 145 0
-232 234 243 0
-70 -213 -354 0
14 25 211 0
-103 183 -218 0
-287 -300 -428 0
37 336 -363 0
149 294 -310 0
-155 -156 406 0
-198 234 -440 0
25 249 -258 0
-182 260 -448 0
-15 46 -154 0
65 -195 363 0
259 -345 -428 0
5 -190 427 0
-24 255 280 0
53 161 424 0
-58 141 -198 0
-266 295 407 0
-6 -213 -339 0
74 94 200 0
-1 86 -230 0
-207 282 -373 0
107 -272 -287 0
-31 127 -322 0
-134 -298 357 0
-56 384 408 0
91 -410 441 0
-253 -402 435 0
127 -150 349 0
200 -269 428 0
17 173 212 0
-169 191 413 0
17 120 -357 0
298 -349 -402 0
95 -111 -318 0
-28 98 329 0
-73 -104 397 0
-18 29 -33 0
-344 -412 -416 0
-92 141 214 0
-85 -117 -224 0
-193 225 -272 0
5 -329 -427 0
-132 324 341 0
-223 -291 -427 0
99 -141 -441 0
43 -79 -314 0
247 338 -394 0
36 52 -370 0
106 -140 417 0
45 111 -334 0
-141 211 376 0
-70 -183 -201 0
99 188 226 0
163 -236 -427 0
19 191 249 0
-65 -173 -269 0
-2 189 338 0
81 237 291 0
-169 287 -307 0
-17 -70 -206 0
-103 168 -406 0
122 -212 -273 0
-109 246 -263 0
-55 -99 -342 0
