p cnf 450 1917
-301 320 433 0
-144 161 216 0
20 -202 -433 0
-191 214 386 0
121 -158 -307 0
92 213 -392 0
319 342 388 0
137 326 349 0
-34 221 260 0
-77 -220 230 0
6 102 -384 0
1 -26 224 0
-16 230 440 0
55 146 -170 0
-65 94 -370 0
126 256 -270 0
-24 -41 154 0
236 248 -258 0
-68 99 -193 0
80 148 440 0
-150 -225 238 0
-11 -136 -445 0
393 -407 418 0
-53 -106 -392 0
266 303 448 0
-257 -310 318 0
72 290 -387 0
94 -229 320 0
-10 -318 -399 0
-346 -371 -420 0
-265 321 409 0
2 -38 396 0
112 -145 314 0
-137 -182 -376 0
-75 110 -261 0
-287 -338 -362 0
-28 -80 256 0
-276 -307 -444 0
-75 -159 388 0
-20 310 -422 0
-129 -268 412 0
182 -353 421 0
-2 -301 401 0
85 264 -272 0
302 -420 444 0
259 403 447 0
-199 -255 384 0
69 -110 -385 0
237 238 -283 0
1 54 277 0
-63 -81 180 0
-142 -275 -345 0
129 256 364 0
23 -30 -368 0
-288 338 -345 0
55 296 378 0
-54 -68 -348 0
240 -390 -403 0
-33 176 -440 0
-1 -216 218 0
-59 375 439 0
-36 -243 -294 0
159 425 449 0
-252 -394 -431 0
257 368 421 0
-43 133 -180 0
133 -185 264 0
77 143 196 0
-103 -151 -311 0
-40 -88 408 0
-188 397 -422 0
274 -367 441 0
-91 301 -437 0
-112 -113 427 0
-92 205 438 0
-89 221 294 0
81 -170 -279 0
116 372 -442 0
-289 -401 408 0
-162 -319 343 0
-80 -113 358 0
-156 -328 -450 0
83 -140 -281 0
-13 -110 374 0
73 204 -443 0
-6 -91 344 0
183 295 311 0
304 -339 -350 0
-9 31 280 0
-114 -166 349 0
54 227 -269 0
-77 -171 -376 0
154 368 -381 0
-137 -153 264 0
-90 205 410 0
18 -289 -365 0
41 -50 -249 0
51 92 -162 0
19 102 156 0
142 370 385 0
70 -90 -426 0
151 -207 -318 0
-11 -44 142 0
-4 199 -432 0
-40 -67 -177 0
-63 -201 219 0
191 -226 438 0
177 -297 -390 0
92 362 -434 0
-64 103 433 0
-69 -367 -378 0
32 -381 -430 0
18 202 429 0
52 -138 394 0
-406 428 431 0
28 316 -409 0
-7 -184 219 0
118 211 -404 0
30 -274 -296 0
204 -325 -368 0
-60 110 -370 0
177 -337 393 0
220 -351 439 0
141 257 -313 0
57 -143 357 0
-118 -158 169 0
22 59 416 0
-41 147 -177 0
-190 -366 408 0
-120 -160 258 0
36 -134 -274 0
21 -221 -260 0
-84 -182 -443 0
-244 -261 -319 0
-52 87 -188 0
180 237 -247 0
34 123 427 0
150 282 370 0
-153 -293 -323 0
186 407 -421 0
149 301 -421 0
-193 244 -400 0
168 -266 427 0
29 207 316 0
-220 -358 439 0
-176 236 -337 0
196 -219 287 0
-33 162 178 0
62 115 215 0
70 117 437 0
-70 -140 -449 0
-16 -158 289 0
117 -188 -349 0
-183 202 -432 0
-12 -161 330 0
27 64 443 0
-16 113 -304 0
36 183 -277 0
-11 -184 -280 0
-13 109 -348 0
226 -372 384 0
-40 79 -416 0
157 255 304 0
-253 -360 385 0
-205 230 -277 0
82 295 309 0
17 72 -331 0
-124 240 416 0
95 -242 -401 0
-75 -139 -234 0
35 88 -406 0
-251 319 -356 0
39 -184 -364 0
-183 392 -441 0
-194 212 424 0
-3 125 -295 0
250 -313 398 0
-226 -273 -342 0
20 271 -312 0
35 133 172 0
8 -261 -275 0
130 -335 -336 0
178 227 -420 0
137 -238 -411 0
-29 179 231 0
28 188 229 0
45 71 250 0
-241 -317 409 0
-44 253 291 0
-92 284 404 0
51 -76 155 0
1 273 438 0
18 350 444 0
-83 -171 -313 0
-47 96 -449 0
137 -168 371 0
-47 -300 328 0
-79 -148 268 0
49 -255 365 0
78 179 -290 0
-1 -29 -87 0
99 -105 -383 0
6 -97 -245 0
-90 175 -176 0
-55 -97 115 0
41 -65 -230 0
226 -324 439 0
-41 -129 -211 0
-127 189 -449 0
54 -246 -339 0
57 259 -435 0
50 -148 445 0
-44 266 -341 0
-182 447 448 0
120 -303 -371 0
90 -426 437 0
88 144 -432 0
-112 130 140 0
95 203 -443 0
4 117 287 0
-71 -120 -332 0
236 -284 320 0
39 -247 -413 0
24 -185 381 0
-164 252 380 0
67 -321 -344 0
365 -427 437 0
-85 109 337 0
-5 178 274 0
64 142 243 0
181 219 -405 0
-251 -348 -363 0
325 379 -418 0
-241 -297 -392 0
143 175 268 0
186 335 -420 0
7 -257 -293 0
105 -370 -422 0
230 319 -380 0
-32 111 -112 0
51 79 -165 0
-25 -117 -331 0
-100 307 356 0
-103 294 314 0
-14 -26 -371 0
57 -255 -352 0
136 162 -442 0
-130 -256 388 0
-119 224 368 0
-70 -276 -365 0
-16 232 417 0
56 67 -375 0
18 112 339 0
-90 -114 313 0
-26 -328 -442 0
-307 -335 341 0
-83 -157 284 0
-67 193 -349 0
75 -260 -372 0
-4 222 395 0
79 171 -249 0
227 231 -318 0
114 -337 382 0
206 -237 343 0
-13 257 394 0
132 279 342 0
200 -225 239 0
-180 -368 -415 0
81 315 -347 0
112 238 397 0
129 146 283 0
-114 -125 -219 0
-57 -218 270 0
-5 12 -180 0
50 -172 -351 0
-64 -395 -411 0
184 196 -337 0
-145 218 335 0
-297 301 439 0
199 -396 -426 0
92 -150 216 0
-13 -95 230 0
148 -156 -298 0
268 -393 430 0
55 89 -292 0
-224 227 324 0
35 -217 -353 0
31 -237 396 0
-194 -281 422 0
-243 -310 -421 0
37 -282 -380 0
-55 306 323 0
-79 389 424 0
-39 233 -353 0
-24 177 -182 0
128 -199 -275 0
-220 244 -435 0
-10 -67 -143 0
178 319 -438 0
-2 -101 -390 0
71 91 -272 0
353 -374 -419 0
87 -172 273 0
-43 296 -344 0
85 362 -441 0
-135 -338 -450 0
-118 -123 162 0
42 292 361 0
29 169 -316 0
34 40 -80 0
164 -194 -241 0
-18 342 379 0
115 -190 -361 0
17 -64 123 0
-111 -128 408 0
-59 366 441 0
53 -361 395 0
197 289 410 0
25 -202 -302 0
-106 -165 423 0
138 181 -265 0
-37 -113 -312 0
321 376 418 0
-225 385 431 0
113 188 403 0
241 443 447 0
227 -390 -424 0
25 265 298 0
-168 259 -393 0
-94 -118 328 0
23 -170 -265 0
49 185 -319 0
-197 334 -372 0
-268 285 -309 0
121 262 -401 0
144 -229 -251 0
165 293 413 0
31 227 -323 0
14 -127 -435 0
-265 -296 -325 0
-370 -383 -408 0
-206 258 -442 0
-46 123 247 0
-69 -342 -448 0
97 -191 -252 0
-298 305 -318 0
75 185 -365 0
18 66 -388 0
-8 -19 -328 0
-92 98 312 0
-234 -380 440 0
88 219 -265 0
64 119 442 0
18 -157 -355 0
61 -145 -194 0
145 265 -351 0
179 246 -424 0
-74 -249 444 0
42 190 -418 0
-70 285 419 0
10 242 -275 0
254 -277 -342 0
217 366 -395 0
-222 294 357 0
-12 -116 -140 0
-32 194 -385 0
206 431 -449 0
-98 226 -294 0
142 266 -388 0
10 -144 -170 0
74 -280 331 0
-28 104 -404 0
-147 283 357 0
38 -334 -378 0
-244 261 -374 0
108 244 287 0
-47 109 352 0
89 -388 408 0
54 207 406 0
-66 259 325 0
-56 -383 -444 0
140 -273 -288 0
38 -303 -370 0
-327 -429 440 0
-26 -53 91 0
-4 -87 377 0
-51 -262 -438 0
-4 -93 154 0
-24 -302 -416 0
149 -170 -225 0
20 122 -326 0
-221 290 -416 0
166 186 -435 0
63 -104 -236 0
-95 -199 310 0
112 131 372 0
227 -266 394 0
21 55 71 0
50 233 323 0
119 -296 300 0
-307 -378 -388 0
-167 308 335 0
42 -96 409 0
-107 -237 270 0
12 124 -153 0
-8 367 425 0
-140 -166 -399 0
-84 -183 -285 0
92 -334 -359 0
23 265 418 0
182 -356 434 0
29 -214 -448 0
119 -343 -375 0
18 319 339 0
102 -259 -294 0
159 314 -447 0
-14 -260 -328 0
174 -272 347 0
148 161 -359 0
46 322 341 0
-10 -56 230 0
-128 -390 404 0
174 213 382 0
7 110 360 0
100 220 221 0
80 -84 -169 0
-29 328 -440 0
97 -151 434 0
-68 353 365 0
-81 168 411 0
169 181 -434 0
-132 193 448 0
226 319 388 0
107 142 418 0
-51 262 450 0
21 -247 380 0
-33 176 -318 0
294 347 -384 0
170 176 413 0
253 -284 -437 0
-231 254 264 0
-83 -135 -410 0
-36 425 430 0
-113 -239 262 0
52 -198 235 0
36 -253 418 0
30 -202 -310 0
-29 -206 330 0
-169 -203 -417 0
-1 121 243 0
14 -126 -379 0
140 -202 283 0
43 -210 -261 0
9 98 -346 0
-244 -429 446 0
-114 186 232 0
-242 -267 274 0
-20 72 362 0
47 219 -275 0
148 -350 398 0
231 282 -443 0
-170 226 -413 0
-154 -316 323 0
5 -125 -323 0
-240 278 -308 0
7 -273 445 0
110 -149 420 0
24 291 392 0
-182 -192 199 0
146 -205 333 0
157 288 -345 0
184 302 359 0
-31 -278 422 0
68 121 244 0
-54 313 423 0
-14 184 -355 0
77 105 -285 0
30 55 258 0
-52 233 -303 0
-74 297 -363 0
-25 305 371 0
19 33 -285 0
29 370 371 0
-204 -334 -388 0
-102 336 359 0
29 -298 423 0
130 167 -269 0
134 -233 -246 0
40 170 267 0
-37 -93 -358 0
21 66 -86 0
168 -173 253 0
19 358 445 0
208 -287 387 0
215 -321 -324 0
-177 -211 351 0
96 -167 -319 0
-71 -257 -323 0
166 -214 297 0
227 246 -315 0
43 212 223 0
-277 -296 -440 0
171 -249 -300 0
-182 350 450 0
297 -403 434 0
75 -120 311 0
139 185 -314 0
-50 109 -348 0
238 262 390 0
-32 -73 447 0
-50 -234 -294 0
-90 151 -211 0
9 -202 253 0
121 200 -290 0
-221 263 -340 0
10 -275 366 0
122 -227 -441 0
13 33 -116 0
-185 -192 -247 0
110 -202 410 0
118 -398 -441 0
278 -282 -446 0
93 -159 -172 0
-5 84 426 0
300 358 423 0
18 312 323 0
-149 -243 262 0
291 304 375 0
24 28 -268 0
-1 162 191 0
177 -178 348 0
24 -188 -238 0
80 275 -443 0
-290 304 382 0
-12 101 387 0
-55 111 -180 0
-218 293 402 0
30 -89 -227 0
-271 -280 -430 0
217 -308 435 0
47 -180 400 0
-93 -184 -218 0
-127 363 -367 0
-224 -269 334 0
-62 -63 -320 0
233 -288 367 0
-175 -416 420 0
-37 199 -280 0
-58 -90 -274 0
85 221 401 0
34 -305 426 0
-17 65 192 0
-170 -300 -304 0
-101 140 -328 0
119 203 -440 0
-96 -414 415 0
-42 74 -91 0
52 97 296 0
-74 -117 -318 0
39 57 -220 0
-91 346 -382 0
179 -348 -438 0
142 -225 -440 0
77 132 -314 0
-196 331 445 0
-298 308 -407 0
35 -233 361 0
-75 -309 396 0
-130 -139 -433 0
146 -218 446 0
-63 233 -340 0
58 94 385 0
242 -260 347 0
5 -87 420 0
146 212 404 0
28 -303 343 0
14 52 194 0
-50 93 -164 0
151 180 413 0
-16 -288 386 0
72 -134 -247 0
-106 139 -274 0
-18 188 432 0
82 326 347 0
49 236 -308 0
57 -144 -344 0
-50 125 -187 0
108 -115 270 0
-82 -295 364 0
173 203 362 0
-128 -272 -300 0
114 346 424 0
234 300 -338 0
-33 -148 -153 0
-226 229 -423 0
-189 -353 -367 0
120 266 -445 0
187 254 -448 0
39 234 -336 0
200 -211 379 0
134 184 -391 0
-148 310 339 0
-284 432 446 0
-126 -184 -212 0
4 -178 -263 0
-140 -189 -411 0
-120 187 409 0
109 -307 445 0
-275 334 442 0
130 -367 407 0
-184 -300 384 0
-103 -119 266 0
-274 316 -363 0
-63 -164 -344 0
162 -281 -367 0
157 341 378 0
10 -166 -211 0
-166 284 386 0
171 -204 -243 0
-13 -84 346 0
215 231 282 0
-7 -24 -360 0
-25 33 257 0
326 356 -421 0
-242 263 -444 0
-14 -281 293 0
-95 -276 450 0
305 -383 -445 0
-56 59 396 0
-238 242 -246 0
-98 -187 -401 0
91 -95 129 0
23 304 405 0
-152 256 -317 0
21 112 -371 0
-107 -295 -433 0
-128 -288 397 0
76 142 -268 0
29 -186 -238 0
-36 323 429 0
228 233 299 0
-141 374 -404 0
-56 -403 412 0
-77 -99 -225 0
-101 320 406 0
61 -85 187 0
246 287 -290 0
20 118 386 0
62 166 229 0
26 -333 -345 0
-95 -98 -288 0
16 -193 -267 0
38 -318 405 0
-118 361 385 0
-43 -104 386 0
-10 240 287 0
-215 -389 -391 0
-89 -277 -318 0
221 382 428 0
-99 227 288 0
-59 -61 317 0
-360 370 -407 0
29 71 321 0
12 -144 -333 0
-18 233 263 0
191 -353 -387 0
24 329 -344 0
143 -181 287 0
-102 -177 231 0
236 267 -379 0
-54 65 -88 0
74 -230 365 0
-198 -329 437 0
223 232 -369 0
254 287 337 0
-33 -308 422 0
-1 -165 -172 0
-15 -250 -262 0
-114 288 367 0
17 -216 -302 0
-247 -259 -359 0
-122 -212 269 0
227 303 370 0
-45 56 -220 0
-24 -27 230 0
-197 365 370 0
-223 -241 -329 0
14 -234 -448 0
355 435 443 0
111 -165 430 0
-84 -220 450 0
-144 -315 404 0
-97 216 307 0
-42 -185 -385 0
154 194 388 0
102 -295 -346 0
122 -298 -359 0
71 -115 373 0
-34 81 392 0
-44 249 432 0
-214 302 443 0
144 -359 -391 0
146 208 228 0
-10 -38 333 0
18 125 -339 0
208 293 -349 0
127 217 -306 0
-85 146 -297 0
170 -171 374 0
-12 58 102 0
-172 -200 245 0
-127 339 440 0
79 -395 -402 0
118 149 -433 0
261 359 -393 0
165 -176 -309 0
50 163 179 0
-71 -77 84 0
26 -325 377 0
189 300 311 0
-86 371 437 0
30 378 380 0
-15 -54 249 0
201 388 -447 0
76 -122 -371 0
-209 -339 424 0
-200 306 -319 0
114 192 404 0
135 -235 -299 0
-325 -328 -377 0
22 23 -278 0
83 -167 405 0
357 366 -396 0
166 193 340 0
-155 -222 -409 0
-161 427 441 0
-66 -317 -356 0
-67 -127 -206 0
199 319 -333 0
216 358 -403 0
43 209 -414 0
44 -89 -150 0
21 -322 393 0
122 203 360 0
206 255 444 0
-136 -331 355 0
292 296 -303 0
-255 256 -269 0
-81 -113 -288 0
50 -170 224 0
108 111 -430 0
-14 -219 387 0
145 -280 -302 0
-345 -355 396 0
223 244 -321 0
172 -251 270 0
-113 -229 -417 0
-111 298 367 0
40 -248 -381 0
74 112 -333 0
-3 -292 -326 0
17 37 -431 0
313 319 -438 0
26 -49 81 0
36 318 -376 0
55 -89 345 0
-29 191 327 0
19 -157 -448 0
45 -72 355 0
184 190 397 0
215 299 443 0
55 212 -334 0
-28 195 430 0
-74 238 373 0
42 210 222 0
-75 -105 -355 0
-121 -205 379 0
-87 -152 248 0
-3 258 -413 0
10 -402 442 0
157 -177 317 0
-124 -243 -379 0
2 -70 408 0
-245 -365 -427 0
65 -191 -204 0
13 46 398 0
-80 133 221 0
-180 345 446 0
83 117 213 0
62 -82 -137 0
164 -203 388 0
-352 -373 417 0
95 -122 312 0
4 112 -235 0
145 -189 -442 0
252 -302 435 0
203 -255 313 0
-16 -219 378 0
27 221 -444 0
96 230 -305 0
-1 -301 -412 0
-41 -145 -372 0
-92 -221 -391 0
-111 -324 417 0
179 284 -302 0
-280 380 448 0
110 -179 213 0
52 -191 -341 0
-36 313 -428 0
-41 -313 -383 0
84 -239 -429 0
125 273 -441 0
79 292 -375 0
95 254 -338 0
-102 138 231 0
-75 108 -366 0
-156 215 434 0
76 167 331 0
-54 -297 -334 0
30 -43 296 0
82 137 176 0
-47 -82 406 0
24 -104 -433 0
77 176 -311 0
-200 229 291 0
-40 129 -437 0
-35 -102 -170 0
345 -367 -391 0
-358 -369 425 0
-142 252 -328 0
-54 -211 227 0
-244 279 345 0
-101 -246 287 0
-29 -265 -321 0
-25 294 -405 0
93 262 -293 0
42 171 391 0
48 210 -229 0
48 138 441 0
-103 -225 266 0
117 -207 -385 0
50 406 -418 0
12 -81 -89 0
-285 -330 439 0
-26 283 -389 0
190 -233 -278 0
-91 281 382 0
-129 -179 -370 0
-22 98 122 0
-9 -53 -139 0
72 -326 327 0
14 -140 -163 0
-2 -329 -379 0
262 -267 -309 0
83 -437 -442 0
9 -293 421 0
317 332 357 0
-14 15 241 0
-203 -313 -442 0
-182 346 414 0
-185 296 335 0
154 -243 -355 0
33 -68 216 0
-218 -337 381 0
-39 -238 -282 0
80 206 227 0
245 -260 387 0
-48 -53 435 0
53 161 286 0
-142 -220 356 0
100 206 239 0
-26 -123 384 0
-94 -155 268 0
44 -334 380 0
-105 -153 202 0
-330 -366 449 0
28 247 385 0
25 -135 198 0
-13 281 420 0
127 203 -338 0
-139 -336 369 0
35 356 392 0
-34 -287 301 0
135 321 435 0
114 300 427 0
11 -109 -394 0
198 -222 -280 0
70 -165 318 0
190 -395 -437 0
-35 -72 -230 0
-100 104 416 0
-287 -330 -337 0
75 -80 -379 0
-15 81 -141 0
-233 277 422 0
172 -187 407 0
49 -116 -144 0
127 240 286 0
239 -373 396 0
-125 -129 -182 0
-13 -185 -242 0
18 52 -240 0
-63 343 447 0
272 -381 -429 0
156 -215 373 0
-74 -102 151 0
-46 77 -245 0
137 -146 -256 0
-115 188 367 0
116 203 425 0
-3 180 -344 0
-54 283 -333 0
61 -70 -168 0
-207 -265 368 0
19 301 349 0
-112 -231 414 0
106 -120 -193 0
-174 -190 432 0
-370 -375 407 0
193 -241 -413 0
-177 308 -418 0
-146 -167 193 0
22 23 -236 0
-2 -173 208 0
-7 161 318 0
-20 278 419 0
-46 -180 -322 0
314 315 426 0
-284 -344 -355 0
189 237 -361 0
6 -173 -338 0
200 317 326 0
-100 -230 -385 0
6 107 275 0
-28 243 -387 0
-65 -264 400 0
-145 203 344 0
41 256 -277 0
8 68 411 0
-70 212 -387 0
11 -75 77 0
39 40 -326 0
75 343 376 0
-89 264 -448 0
69 192 274 0
103 -200 403 0
-193 -251 418 0
-194 -278 -385 0
-52 -58 -240 0
-87 -162 -431 0
45 -236 277 0
-13 -282 386 0
79 -189 -361 0
-291 316 360 0
-172 263 305 0
-47 282 401 0
-74 210 -391 0
-304 420 438 0
92 268 299 0
158 -216 348 0
391 404 -410 0
91 -317 -421 0
70 -247 409 0
-196 203 365 0
-1 22 376 0
-180 247 299 0
34 -91 -306 0
-144 -185 287 0
-67 -259 370 0
36 -83 342 0
-188 404 -420 0
-135 367 -395 0
-28 -240 278 0
-52 -112 351 0
-30 -319 -324 0
-30 243 391 0
-310 -321 -373 0
169 170 223 0
-81 -171 194 0
56 -241 450 0
121 -226 -323 0
204 -228 -342 0
-48 -291 421 0
-70 -214 242 0
325 -351 -414 0
38 -244 421 0
183 220 -368 0
12 220 290 0
-7 -128 190 0
-69 -272 352 0
-113 -262 312 0
22 112 -441 0
-81 111 -281 0
-190 212 -245 0
-12 54 -174 0
-42 343 400 0
-15 308 -390 0
1 29 361 0
51 167 190 0
-73 -88 232 0
-66 -373 403 0
12 -297 329 0
88 -182 254 0
40 -166 201 0
168 -277 -374 0
163 -177 338 0
-12 -84 -261 0
-89 105 411 0
-90 181 -335 0
2 321 402 0
-137 -176 392 0
223 -365 427 0
133 176 -319 0
-62 256 -291 0
-233 376 -405 0
1 203 -398 0
67 115 448 0
-209 305 336 0
-230 -293 418 0
70 -191 -403 0
24 -84 -323 0
-51 63 -438 0
281 372 -437 0
-92 324 -350 0
215 349 406 0
-94 -195 -403 0
-116 -158 -316 0
1 -18 -381 0
-145 296 438 0
36 319 -432 0
61 -80 -403 0
-76 82 146 0
149 -230 431 0
-312 318 421 0
99 -162 305 0
-286 -306 375 0
-49 -231 257 0
-104 -363 431 0
109 211 360 0
27 -204 263 0
267 -333 -386 0
166 -323 337 0
-12 -259 317 0
41 296 437 0
36 -208 298 0
-9 131 301 0
-130 -358 -416 0
41 366 -386 0
-25 62 396 0
34 -117 -205 0
161 -234 -431 0
70 129 281 0
61 -80 -198 0
41 -236 309 0
-142 163 432 0
-299 425 -433 0
95 -257 308 0
-40 -75 374 0
-191 209 -441 0
-195 201 443 0
-218 -228 358 0
116 -273 -300 0
-195 239 324 0
-24 390 392 0
63 84 279 0
203 370 436 0
79 391 439 0
-61 -279 -373 0
183 188 223 0
-20 321 -383 0
268 324 -332 0
269 281 -413 0
26 -51 55 0
-55 217 -338 0
-135 160 210 0
243 264 -428 0
-361 -380 -443 0
-25 -163 -332 0
295 377 -434 0
-85 211 -435 0
-82 -138 -350 0
165 -403 -437 0
-17 117 359 0
156 -273 344 0
101 260 -265 0
-123 176 354 0
-51 200 -308 0
-142 -218 -219 0
-251 -376 426 0
-149 -187 -360 0
-56 359 -419 0
-37 38 -446 0
49 -179 286 0
-128 -180 436 0
-144 173 -419 0
-36 102 -399 0
54 200 -208 0
-135 -258 -445 0
-199 349 -390 0
79 -125 343 0
-68 178 -373 0
344 394 -395 0
-271 -299 -427 0
-12 -55 57 0
123 174 -201 0
185 -303 -332 0
-125 -333 -436 0
75 128 405 0
-44 113 -243 0
-176 -302 -390 0
71 161 348 0
95 104 -157 0
-282 -388 -397 0
249 341 395 0
96 289 375 0
-65 276 -365 0
134 -199 348 0
81 -201 -307 0
-58 -77 -120 0
-188 -249 -344 0
-19 -33 272 0
155 -203 -416 0
180 379 392 0
-111 325 -434 0
98 142 434 0
-36 -82 450 0
238 -408 429 0
-170 -389 408 0
201 -246 -412 0
177 256 -301 0
-249 281 318 0
-50 -77 -117 0
-69 213 440 0
229 -279 -307 0
37 -120 133 0
327 -363 375 0
-117 367 371 0
295 336 -429 0
-121 210 281 0
136 172 400 0
102 -217 -308 0
20 154 -432 0
-341 -428 -447 0
24 -139 163 0
-306 344 -391 0
-217 -418 -445 0
-299 -355 402 0
-207 277 349 0
233 264 -330 0
-117 -275 385 0
138 202 -208 0
168 197 -380 0
314 399 -438 0
-195 -215 400 0
45 -95 -375 0
110 -303 -383 0
-44 -180 -351 0
187 -190 -434 0
-23 264 284 0
160 196 369 0
104 389 398 0
-81 -345 435 0
-232 416 -435 0
43 141 -252 0
65 334 -354 0
-226 -272 374 0
-53 124 208 0
-34 96 223 0
205 212 430 0
-85 121 400 0
-229 302 448 0
3 63 344 0
-131 231 276 0
-244 345 412 0
140 -208 412 0
-35 270 397 0
-17 -187 -323 0
-146 257 387 0
22 256 -273 0
-72 -179 -446 0
-145 -242 245 0
-318 351 422 0
-59 -78 98 0
-179 -203 286 0
44 -201 -253 0
-88 -169 -419 0
-274 -355 -422 0
13 36 314 0
-53 -75 96 0
72 -86 340 0
1 37 -280 0
314 342 358 0
63 296 334 0
-44 -352 -363 0
-126 -162 -337 0
-184 408 440 0
-144 273 339 0
205 -218 243 0
-7 -162 -253 0
152 -263 338 0
-275 323 -425 0
-231 293 322 0
36 -283 371 0
295 -345 444 0
-130 138 -175 0
107 132 -171 0
200 331 335 0
52 -73 -395 0
-202 -211 357 0
53 274 -359 0
190 299 333 0
-179 331 -379 0
38 223 -313 0
166 290 420 0
99 264 269 0
118 220 -282 0
-150 -239 327 0
102 -235 -347 0
129 -315 -332 0
51 -109 310 0
-108 257 423 0
100 159 196 0
394 435 -445 0
24 -281 408 0
-45 -265 -319 0
-92 109 -441 0
21 113 428 0
-146 -347 -372 0
-35 -120 328 0
161 -374 -406 0
-118 183 430 0
41 -340 377 0
-233 -249 -397 0
290 -375 -421 0
101 140 323 0
3 132 -372 0
-159 -280 397 0
-123 267 -436 0
-169 248 408 0
78 123 -401 0
30 203 -257 0
-150 177 -379 0
35 78 99 0
1 -14 162 0
-76 275 -399 0
78 330 381 0
-25 160 -339 0
166 -313 -326 0
140 -271 -335 0
254 -350 -411 0
-232 260 268 0
-122 -423 -429 0
-305 380 422 0
-300 -322 374 0
-126 -159 338 0
179 278 445 0
197 221 422 0
96 -286 328 0
163 -189 -403 0
92 -255 -409 0
-81 -103 -386 0
52 186 372 0
47 -301 371 0
29 294 303 0
-237 -352 -439 0
16 -181 -414 0
-225 235 -423 0
49 172 282 0
67 221 -293 0
-23 65 -403 0
-61 103 -225 0
-43 -189 378 0
197 -313 -369 0
-65 193 411 0
-112 -286 -438 0
104 -109 -278 0
-16 206 326 0
39 -118 -242 0
196 -208 299 0
-57 -169 241 0
316 333 338 0
-67 -283 287 0
-171 224 -367 0
180 299 425 0
286 -358 431 0
120 -368 413 0
-153 217 -439 0
35 -103 424 0
-244 -369 440 0
-46 -276 -380 0
123 261 366 0
-10 -279 -362 0
-10 157 350 0
128 -346 360 0
219 316 412 0
136 -378 -437 0
-136 -142 185 0
-17 -216 303 0
5 84 146 0
-50 155 338 0
177 228 -317 0
-53 151 -432 0
102 325 -415 0
153 163 -313 0
-159 386 387 0
257 -275 -294 0
-269 344 381 0
-60 175 196 0
42 142 -414 0
56 247 397 0
-16 -62 -93 0
26 145 -216 0
-22 -151 -165 0
24 -235 -307 0
200 -217 -380 0
162 -310 -323 0
15 -124 -159 0
-120 -370 374 0
-31 75 83 0
-241 -385 399 0
-182 -358 436 0
107 233 448 0
234 -373 -415 0
30 32 -49 0
-36 275 431 0
88 -213 257 0
99 166 194 0
-41 -98 208 0
-83 154 262 0
81 155 339 0
-50 254 435 0
-160 225 -346 0
4 -118 -185 0
189 223 322 0
-97 344 396 0
-63 228 249 0
-162 172 333 0
-70 109 399 0
-18 -92 378 0
-70 253 -431 0
218 -221 324 0
-128 -235 318 0
31 147 394 0
160 177 -241 0
-98 147 162 0
45 187 -352 0
-349 359 -443 0
-195 -284 327 0
-150 -192 327 0
53 107 119 0
35 72 262 0
-108 -342 373 0
-119 142 -148 0
-49 160 -164 0
195 404 438 0
98 246 284 0
-120 -154 438 0
191 333 342 0
-61 -88 -339 0
88 -129 234 0
-82 -154 323 0
32 -76 -164 0
-228 -229 394 0
-114 -300 -386 0
-27 -101 -284 0
116 268 -279 0
-68 253 383 0
198 -365 378 0
7 203 -210 0
138 287 293 0
47 -325 370 0
112 -340 -377 0
-53 129 445 0
-281 284 449 0
165 -234 -450 0
42 -134 -448 0
71 135 212 0
-42 196 -431 0
-112 346 -447 0
120 249 299 0
-118 -213 444 0
-167 -229 432 0
17 195 -295 0
-72 -118 -288 0
-116 -179 398 0
157 179 -440 0
246 -300 390 0
-129 -317 -411 0
202 -427 -433 0
3 -153 429 0
-13 -75 442 0
-85 -164 364 0
-69 -292 406 0
-14 -300 340 0
35 84 -398 0
-101 -113 -285 0
-231 -352 -386 0
-112 -290 -313 0
19 200 -331 0
-150 188 307 0
-202 304 -366 0
8 -69 431 0
-15 28 -48 0
88 189 -318 0
-78 -228 -307 0
178 349 355 0
-74 -119 297 0
168 399 -414 0
1 116 -304 0
-261 326 342 0
-1 -131 -184 0
70 144 -298 0
-138 -142 -375 0
-36 -48 125 0
-63 -248 -412 0
121 -239 -260 0
152 330 379 0
201 -313 351 0
-223 271 -444 0
-118 197 346 0
196 298 392 0
-344 359 391 0
-253 -352 416 0
31 -225 425 0
15 89 267 0
-19 -143 -304 0
61 -98 -185 0
-70 -262 382 0
-44 -296 -379 0
-42 202 317 0
61 109 360 0
-107 231 -360 0
-126 -293 354 0
-44 -83 394 0
-220 -332 382 0
-56 217 254 0
-32 215 433 0
-105 -180 -204 0
-233 287 -421 0
-230 -237 -431 0
-308 -368 430 0
-148 353 -388 0
-10 -344 445 0
93 97 363 0
-8 -125 -436 0
147 -235 -293 0
73 -213 303 0
-87 133 280 0
-319 377 414 0
78 111 130 0
-183 -391 -402 0
55 -362 432 0
31 193 -345 0
17 157 -212 0
-138 231 383 0
95 293 410 0
85 -378 -427 0
-123 -244 -371 0
-1 43 -218 0
325 332 406 0
53 178 388 0
-199 -254 441 0
15 -250 -287 0
-388 398 431 0
28 -310 364 0
127 237 -415 0
-27 -64 281 0
39 -78 -298 0
-24 175 241 0
82 -173 259 0
115 -170 -289 0
-203 208 359 0
240 281 444 0
-38 215 -269 0
48 69 -393 0
-183 -203 414 0
-53 -220 233 0
412 -433 437 0
-8 -298 393 0
-111 179 -338 0
135 270 -275 0
-20 -49 -68 0
-38 -67 229 0
191 -240 300 0
4 72 269 0
-78 127 -357 0
-47 211 -373 0
8 -159 -446 0
59 -224 341 0
76 -240 -317 0
-29 201 -400 0
320 -345 -415 0
141 240 243 0
287 335 434 0
-187 -339 -450 0
34 -48 183 0
-63 -87 -386 0
-14 -183 -412 0
-119 -187 -283 0
110 140 296 0
-273 385 434 0
180 -188 -228 0
303 370 411 0
-198 373 -420 0
-69 -315 -322 0
72 196 -254 0
-12 -153 439 0
-6 -55 443 0
-39 424 -443 0
133 142 392 0
54 -312 -386 0
-162 402 -422 0
-25 -157 -444 0
-199 -218 -229 0
226 -336 -419 0
-32 141 -377 0
31 -199 289 0
182 -196 -435 0
-166 290 -317 0
-99 160 447 0
108 -261 -419 0
-86 -431 440 0
114 -240 -271 0
-21 -177 349 0
-71 143 -413 0
-37 -406 441 0
146 -299 -405 0
99 279 316 0
24 44 -167 0
-137 255 -386 0
186 -216 -321 0
50 -184 347 0
135 -180 213 0
-188 -382 443 0
191 -299 -342 0
-303 378 392 0
-265 338 442 0
285 334 340 0
152 245 -266 0
305 321 375 0
102 269 388 0
79 172 274 0
-82 -382 425 0
-47 109 -437 0
-100 -241 254 0
50 368 -431 0
225 -369 389 0
82 -98 408 0
103 239 342 0
18 -326 402 0
-35 42 156 0
86 375 -426 0
-129 226 304 0
121 297 -327 0
49 -53 203 0
171 271 -436 0
-164 -240 -269 0
155 287 -405 0
-147 230 335 0
148 -167 -443 0
-51 60 -430 0
133 174 -224 0
-209 252 -441 0
33 298 -430 0
-64 165 -391 0
-59 150 254 0
63 142 238 0
-28 236 -412 0
-53 122 326 0
168 251 272 0
39 169 217 0
16 295 -368 0
179 237 -395 0
-43 -114 383 0
-47 -57 426 0
-302 -399 429 0
114 -207 -426 0
186 -191 311 0
-132 198 431 0
-251 -341 -426 0
-121 335 445 0
-232 -299 -357 0
-318 350 -369 0
145 212 -354 0
151 222 439 0
-5 -71 368 0
221 -273 -311 0
-160 259 -276 0
105 148 -433 0
332 387 -444 0
212 -243 -304 0
-56 -184 371 0
59 -180 190 0
304 -439 448 0
-45 74 432 0
-97 362 425 0
44 -339 -356 0
52 176 -343 0
-27 201 292 0
-66 -77 -435 0
20 -334 410 0
-142 258 -261 0
-232 407 -431 0
34 291 -321 0
127 -198 -240 0
209 213 390 0
-146 297 -376 0
310 -311 428 0
28 33 -90 0
-91 -102 234 0
126 422 -424 0
-13 -54 -196 0
121 -396 -412 0
12 -43 116 0
-13 115 -289 0
-82 326 -365 0
126 184 236 0
-131 237 -352 0
99 276 -355 0
-19 -258 -443 0
-43 390 -425 0
339 -398 -434 0
-115 312 -436 0
-54 316 404 0
3 263 -394 0
-122 -143 -169 0
-20 -231 -300 0
-17 -25 -420 0
53 -93 325 0
44 -120 -142 0
91 -194 -302 0
-11 -30 301 0
346 -372 -401 0
-208 -267 279 0
-221 -431 -432 0
-11 53 303 0
243 -285 -409 0
-179 188 304 0
42 246 -320 0
-48 166 -261 0
243 406 435 0
-15 301 -436 0
-14 229 -407 0
-166 316 389 0
133 -249 344 0
144 186 -193 0
-41 -68 -238 0
69 -304 379 0
-193 383 423 0
74 -79 -106 0
-46 -247 263 0
207 -234 -372 0
23 112 -169 0
49 164 259 0
229 400 444 0
17 133 300 0
-100 145 -421 0
-326 -384 -440 0
-103 -208 -286 0
-19 44 -360 0
-75 128 -409 0
-59 152 -405 0
-203 -395 -405 0
-108 176 439 0
-241 -282 326 0
-204 236 255 0
-34 -41 200 0
159 197 289 0
260 -352 373 0
280 308 -411 0
184 322 -362 0
-28 222 255 0
140 207 -304 0
74 228 351 0
-47 169 266 0
-26 -236 -395 0
-136 319 -358 0
-117 -410 437 0
327 346 385 0
-111 -328 440 0
333 -341 417 0
45 -128 -278 0
12 -163 209 0
-60 231 -232 0
18 -323 -430 0
104 213 357 0
19 -43 -219 0
71 92 -348 0
-204 -271 362 0
37 -244 -290 0
187 199 389 0
237 259 -308 0
130 280 296 0
74 342 357 0
73 112 371 0
20 -42 -138 0
-22 -48 -111 0
152 -317 402 0
234 -306 -419 0
-21 -390 440 0
-284 347 -443 0
-300 -316 444 0
-241 -245 -322 0
-52 -314 -343 0
27 194 -297 0
243 -246 -322 0
-14 -85 -282 0
233 247 330 0
-149 -365 -399 0
172 -359 -390 0
141 -162 264 0
-28 96 -401 0
-27 70 188 0
24 210 353 0
81 316 -437 0
82 104 248 0
49 -241 346 0
-232 -312 329 0
66 147 175 0
-157 -233 380 0
87 258 394 0
44 -48 -141 0
84 202 -228 0
-111 179 -356 0
50 -199 367 0
-272 319 328 0
-51 123 -415 0
-14 120 286 0
22 59 -264 0
3 348 406 0
16 -35 -244 0
30 -294 385 0
-97 112 -319 0
-341 368 426 0
-177 -251 290 0
-27 162 -399 0
-34 141 -202 0
201 -354 410 0
-179 -346 -380 0
25 -134 320 0
-230 -347 433 0
59 -334 417 0
-60 -203 -323 0
-170 -192 -213 0
21 -242 -291 0
15 120 290 0
-59 100 -247 0
237 299 344 0
147 252 -335 0
-32 -76 202 0
-126 -224 -352 0
97 360 -393 0
-199 -260 -443 0
-193 -254 446 0
-105 -147 -190 0
-9 297 -400 0
-8 163 -404 0
239 -370 395 0
-62 152 -305 0
-9 136 401 0
-150 169 -234 0
251 -267 -444 0
-145 -294 309 0
25 239 274 0
-48 -72 -279 0
-18 116 -371 0
-58 119 232 0
-30 269 -413 0
-189 224 -416 0
-170 -206 210 0
-70 95 -225 0
-95 -101 368 0
118 -258 -359 0
108 -349 368 0
166 344 388 0
-208 -226 365 0
-89 181 357 0
-10 86 348 0
73 -138 237 0
28 131 -172 0
-160 -169 -238 0
-346 359 -438 0
-133 159 -162 0
74 105 -368 0
-33 -311 425 0
-3 49 235 0
121 147 172 0
-254 258 383 0
319 362 403 0
-150 -175 222 0
-275 -370 441 0
-174 -234 443 0
-14 -130 -272 0
91 -104 -256 0
-75 310 -391 0
-165 227 -434 0
-237 290 395 0
-202 229 378 0
-20 102 -178 0
-14 -106 198 0
-137 -264 -362 0
187 -310 -336 0
18 -350 413 0
79 -164 -336 0
-159 -255 376 0
-83 -226 276 0
209 -309 -417 0
10 -391 439 0
266 299 -319 0
65 -107 408 0
162 -211 -255 0
-4 7 -233 0
-185 194 -320 0
-63 -199 -325 0
-101 -178 407 0
-133 -176 321 0
-119 -205 -396 0
-378 406 419 0
-70 341 432 0
106 261 -373 0
61 318 -368 0
187 219 333 0
-108 -129 154 0
73 -165 318 0
4 -120 -227 0
-74 -125 158 0
-294 -321 -335 0
64 194 -404 0
83 183 341 0
-176 422 441 0
140 158 -357 0
-67 -102 -137 0
46 266 450 0
44 60 428 0
-57 -274 303 0
48 -99 -438 0
-139 -200 -286 0
-48 -54 222 0
118 193 -381 0
-184 308 -410 0
-327 356 434 0
64 -84 -374 0
-103 -107 -111 0
117 -229 353 0
-34 -94 270 0
-53 -211 327 0
-159 -256 -303 0
-45 -71 235 0
-391 -393 439 0
10 -17 -354 0
122 302 -382 0
-54 -57 -207 0
-55 139 196 0
259 419 -432 0
-204 -354 431 0
-68 -185 283 0
202 247 372 0
-134 326 -410 0
211 281 -431 0
-171 -257 264 0
-107 320 360 0
128 -253 448 0
-169 290 342 0
112 -269 320 0
-154 247 336 0
-23 -220 340 0
-289 299 -410 0
36 89 403 0
-29 -188 -387 0
106 -372 -433 0
-197 291 303 0
378 395 -399 0
81 -337 425 0
-146 -361 439 0
267 -283 331 0
12 -243 256 0
-132 284 -306 0
27 -250 -279 0
-129 131 175 0
16 55 -371 0
-164 -227 385 0
21 65 -85 0
-7 146 227 0
-131 -302 317 0
335 -350 -373 0
182 -189 265 0
131 136 335 0
-259 -340 431 0
-9 -349 367 0
-136 342 -417 0
-115 -147 -286 0
-263 348 375 0
-246 312 417 0
-176 263 410 0
-255 263 299 0
-224 -236 -356 0
246 -388 -389 0
206 291 328 0
-125 381 444 0
240 251 368 0
225 246 -443 0
152 161 183 0
69 232 -405 0
-140 -195 311 0
366 -382 422 0
12 -133 401 0
-162 -275 -325 0
133 -287 305 0
-156 329 428 0
210 286 -435 0
-314 383 433 0
35 78 292 0
-82 -246 383 0
-135 -277 -429 0
-8 -184 329 0
283 -327 -419 0
65 357 362 0
