p cnf 450 1917
37 -286 373 0
41 -220 317 0
-119 -178 233 0
-146 261 415 0
-103 -170 445 0
-148 -345 -358 0
60 126 -372 0
-44 88 -183 0
-93 230 318 0
1 87 171 0
210 -343 430 0
7 -114 -355 0
-40 127 -384 0
-176 296 329 0
-240 -316 -448 0
-61 299 -347 0
92 -272 -401 0
-6 -135 -312 0
-65 109 -204 0
-159 301 315 0
-116 -278 365 0
81 187 428 0
-55 98 368 0
56 -236 -417 0
176 -240 419 0
-82 -151 190 0
-144 -149 -341 0
88 -231 348 0
134 -279 -340 0
102 198 235 0
218 231 -252 0
-61 -216 -374 0
15 411 -423 0
77 -135 327 0
299 318 -362 0
1 114 -409 0
-186 193 -243 0
92 -177 386 0
-263 281 383 0
30 130 415 0
-120 221 -395 0
197 -346 357 0
118 404 -410 0
-23 262 -369 0
-20 -285 344 0
-72 135 -292 0
247 310 -369 0
-28 68 -429 0
-183 216 -450 0
-28 182 -353 0
-56 -220 359 0
85 95 -311 0
194 300 -445 0
67 -130 290 0
-137 201 -439 0
-194 -248 382 0
257 297 -318 0
44 104 184 0
51 246 -248 0
-29 135 -187 0
172 -198 344 0
-110 271 377 0
-128 -233 392 0
98 253 -363 0
-4 -123 -343 0
-46 230 -371 0
-100 -318 333 0
147 -180 -326 0
-30 -171 368 0
67 139 298 0
119 190 -360 0
94 -95 445 0
-150 -392 445 0
-68 -152 -246 0
35 -151 235 0
-50 -118 -433 0
98 117 446 0
-46 -109 -278 0
50 68 266 0
-51 -214 236 0
136 238 412 0
124 -128 -258 0
-17 20 -430 0
269 329 369 0
295 -427 -434 0
-316 330 433 0
-135 173 432 0
-122 196 415 0
-13 -267 352 0
134 -382 -413 0
-15 -190 -206 0
-287 -353 393 0
-19 -254 -301 0
-249 -283 -320 0
125 -210 230 0
-42 216 287 0
314 -366 -395 0
84 85 -94 0
19 80 103 0
-52 -209 -260 0
-148 -194 -373 0
157 -171 -292 0
39 -251 426 0
-26 148 428 0
159 -252 363 0
31 -64 -123 0
-126 274 -429 0
-65 -261 -378 0
129 -260 -402 0
96 -324 -404 0
-130 195 215 0
-244 282 -340 0
42 -100 -169 0
-7 -242 323 0
71 181 -414 0
325 -357 -384 0
233 -322 -364 0
17 -275 323 0
9 -87 -414 0
-127 -200 -292 0
-23 75 316 0
3 118 316 0
231 -278 -395 0
76 173 371 0
129 324 375 0
156 -232 -315 0
54 92 344 0
84 -115 -263 0
84 167 424 0
-175 -217 293 0
-41 -109 377 0
-280 -443 -447 0
-8 -169 -333 0
-61 113 194 0
7 -32 -123 0
286 322 -395 0
137 -165 379 0
19 -161 -358 0
209 216 340 0
-144 -156 -201 0
-119 185 -204 0
32 -248 371 0
114 -193 -277 0
-124 -225 446 0
-19 -81 277 0
-361 -441 -442 0
76 114 297 0
-260 276 393 0
-77 -311 325 0
7 -33 127 0
-59 91 -298 0
-186 295 -352 0
63 -271 420 0
-239 287 -380 0
-307 344 -404 0
134 343 370 0
-102 215 -293 0
-174 -177 221 0
-41 -207 270 0
262 -348 417 0
106 145 409 0
205 395 -413 0
81 129 -314 0
179 349 -360 0
256 285 -350 0
-65 265 368 0
188 286 437 0
73 -214 -428 0
220 -304 -427 0
127 -376 419 0
-260 281 332 0
103 -200 -409 0
38 114 -215 0
81 89 -405 0
1 -159 274 0
-52 81 168 0
-89 102 383 0
81 -151 364 0
-20 -176 431 0
-44 -68 321 0
-113 -281 422 0
137 321 447 0
16 -148 175 0
141 177 278 0
-41 50 256 0
224 261 -407 0
161 -195 -445 0
-111 183 -298 0
-34 -315 -439 0
-20 -233 -410 0
17 225 -327 0
-131 -171 -371 0
98 131 -270 0
124 -136 -238 0
-98 -236 421 0
-42 227 -262 0
-61 -277 312 0
-323 439 446 0
-13 -15 -124 0
198 228 -332 0
-117 374 -376 0
-8 -173 283 0
-174 351 -371 0
104 -121 -317 0
-172 180 220 0
23 130 -248 0
-18 -226 -228 0
-50 -136 155 0
-133 202 237 0
70 211 401 0
20 339 -431 0
-72 -134 -140 0
46 -144 -273 0
-359 390 412 0
-22 -387 -424 0
17 -247 -308 0
76 -193 448 0
52 -225 -273 0
-299 320 389 0
92 272 329 0
190 232 375 0
-50 -276 -322 0
-1 -25 177 0
137 -382 411 0
324 -354 427 0
7 -211 282 0
109 -138 338 0
-5 94 -129 0
218 -286 -360 0
-45 68 -379 0
-9 -19 440 0
189 -203 347 0
176 -217 390 0
50 -192 236 0
-88 -123 -317 0
244 -251 299 0
1 106 -236 0
47 -103 -346 0
-105 -121 168 0
74 -264 -445 0
-13 45 -57 0
245 -254 -416 0
39 204 -440 0
-115 -195 372 0
-123 241 264 0
-144 214 239 0
171 248 342 0
-210 -228 -322 0
-107 175 223 0
84 -161 -367 0
114 -162 410 0
-14 74 -344 0
304 -354 415 0
-48 -245 -259 0
-195 350 412 0
7 113 -442 0
207 259 396 0
-90 103 107 0
174 -229 -271 0
118 393 447 0
-127 -259 427 0
-201 274 -364 0
-87 218 246 0
61 360 -370 0
-355 442 449 0
273 357 426 0
66 134 -204 0
-190 -208 -412 0
-4 151 -173 0
163 223 292 0
-23 246 -287 0
245 -403 443 0
136 -173 244 0
222 -352 358 0
292 318 -362 0
146 -166 -269 0
-132 -205 259 0
54 133 448 0
-66 301 -357 0
-57 -77 392 0
171 335 345 0
112 236 344 0
-232 347 432 0
-176 207 223 0
-10 -65 -131 0
290 319 -357 0
-7 -192 -400 0
-328 329 -384 0
4 149 -335 0
-120 342 -352 0
237 269 313 0
-90 277 -409 0
41 -324 333 0
54 100 355 0
204 -219 383 0
-160 174 -221 0
272 -313 -395 0
127 -217 317 0
-15 55 -235 0
6 11 414 0
-235 304 400 0
136 -152 -292 0
-129 322 -348 0
-1 -210 287 0
-6 -327 428 0
-35 -216 226 0
-52 288 334 0
-93 -234 -293 0
-30 226 -329 0
-159 293 -321 0
-23 222 369 0
-55 320 -340 0
43 -265 353 0
-160 241 -306 0
47 125 -272 0
-59 317 -426 0
-8 295 446 0
-66 84 99 0
211 -304 420 0
126 -168 287 0
-151 -182 -219 0
25 77 -106 0
12 207 -253 0
-13 -47 -71 0
-211 395 403 0
150 222 -307 0
80 290 -308 0
-46 123 -291 0
82 -325 -390 0
69 84 341 0
-35 -65 367 0
89 103 -344 0
125 -146 -195 0
30 131 -313 0
245 -251 330 0
-50 132 -175 0
209 -361 -371 0
-98 -249 372 0
134 164 233 0
-101 -183 205 0
-103 233 -290 0
-13 -120 -167 0
-26 -74 -444 0
-166 214 -370 0
-222 303 -406 0
193 264 268 0
-32 -79 -113 0
-45 -105 192 0
-1 54 390 0
136 -169 -426 0
-16 -31 126 0
-71 -222 316 0
62 216 426 0
135 -138 346 0
-297 304 307 0
93 -192 262 0
88 -185 275 0
-56 191 420 0
182 -263 -400 0
35 -299 -440 0
355 -375 -385 0
-33 -105 -107 0
51 -131 146 0
141 -322 443 0
-35 -82 -333 0
-89 133 357 0
46 -176 -360 0
146 -400 -425 0
-56 -91 379 0
28 88 -203 0
-8 -263 -412 0
107 -194 -441 0
-246 334 -356 0
-78 -150 -274 0
-310 312 -394 0
-107 223 258 0
-31 289 299 0
240 -299 388 0
20 80 -228 0
145 -386 426 0
15 332 -344 0
-289 -429 449 0
-230 361 449 0
94 127 -333 0
-101 364 -368 0
96 -127 -146 0
-43 396 -406 0
126 305 329 0
255 279 -327 0
164 280 364 0
148 -195 347 0
35 -183 -347 0
-28 31 171 0
-140 -156 180 0
-105 -169 -191 0
90 138 291 0
220 234 370 0
-142 -176 319 0
-2 228 -355 0
-7 151 445 0
274 280 371 0
243 281 394 0
-42 -328 -429 0
184 -387 -435 0
-68 -129 391 0
31 -130 251 0
195 293 -389 0
126 -210 -301 0
162 244 420 0
-276 283 -382 0
4 -127 -156 0
191 -267 330 0
-151 -281 408 0
16 -18 -405 0
-190 211 311 0
-281 -299 449 0
5 221 -307 0
81 -226 -246 0
155 185 -260 0
-28 214 -331 0
318 -323 379 0
-4 271 -375 0
-287 -325 -355 0
62 111 -213 0
-322 346 369 0
-6 -285 403 0
11 267 400 0
71 248 -381 0
-83 -436 -446 0
-112 -367 -428 0
-288 -318 -432 0
41 91 -203 0
-31 -293 303 0
133 146 -400 0
-81 -190 447 0
225 -227 378 0
-67 -289 436 0
-22 85 399 0
15 85 221 0
80 136 213 0
28 -85 -151 0
-88 326 428 0
102 -123 -260 0
-104 141 271 0
-125 136 -141 0
142 -297 -376 0
-12 -193 198 0
-92 364 -440 0
53 265 445 0
31 -109 -178 0
-157 -192 -350 0
-218 223 -278 0
47 -78 312 0
-153 -174 -290 0
-13 -238 -274 0
-222 -364 450 0
-169 256 409 0
-209 -305 445 0
140 -240 269 0
13 -256 -403 0
-372 401 429 0
38 -186 -303 0
182 210 -226 0
55 -185 417 0
-36 125 -149 0
-340 -378 -382 0
-93 441 446 0
-112 135 -260 0
131 182 -312 0
-138 202 -260 0
199 308 -311 0
-65 -87 338 0
86 99 397 0
-62 132 263 0
-97 138 296 0
-11 142 372 0
128 -182 264 0
61 253 -282 0
267 296 -416 0
34 -246 -429 0
-51 -135 -432 0
70 -347 386 0
-9 -38 420 0
100 -196 -210 0
-91 -371 -406 0
-120 303 -345 0
-83 -136 -397 0
183 -217 -282 0
277 366 -389 0
-69 -204 -373 0
304 -318 440 0
-42 -205 328 0
-101 122 -334 0
-187 212 328 0
-140 374 -395 0
60 221 383 0
7 50 -212 0
232 -292 436 0
-206 416 -432 0
-195 285 369 0
266 -361 419 0
88 -145 223 0
62 259 438 0
-16 -130 138 0
30 186 -362 0
-10 -180 229 0
-187 321 -361 0
58 251 -419 0
-103 127 304 0
-350 354 431 0
-130 442 443 0
25 -133 -232 0
255 379 -410 0
23 -38 -418 0
52 126 195 0
76 206 297 0
-231 353 367 0
-199 -263 -406 0
39 109 257 0
10 -237 337 0
241 267 385 0
-302 406 -436 0
-93 -130 330 0
-22 339 -411 0
24 34 174 0
103 156 450 0
6 -12 403 0
35 -273 -425 0
110 354 -398 0
-43 -226 -258 0
49 -55 -192 0
-208 -272 291 0
-75 -79 191 0
-94 118 188 0
199 -211 -330 0
101 279 328 0
-291 -349 -416 0
-393 396 -415 0
194 -207 -249 0
-159 -181 209 0
-50 194 220 0
81 -269 -367 0
55 96 -295 0
-46 -66 359 0
29 -290 383 0
32 -244 -384 0
-202 399 -431 0
-121 -128 -154 0
-78 -104 -274 0
227 355 -391 0
8 -112 -378 0
-61 -112 369 0
-138 -415 -424 0
-208 -238 -263 0
125 -256 -293 0
-18 -56 -436 0
163 -340 343 0
55 217 375 0
-85 -223 232 0
168 234 -421 0
-259 279 341 0
-162 193 -355 0
-9 25 166 0
79 132 385 0
-353 391 449 0
-64 89 179 0
-87 100 -232 0
22 270 -440 0
11 99 -287 0
274 -337 410 0
-1 9 -174 0
215 -301 417 0
-52 -121 241 0
-209 224 393 0
221 -252 308 0
-46 -166 -217 0
19 384 449 0
-159 292 319 0
3 179 181 0
-171 -311 393 0
-112 351 361 0
-91 95 299 0
-111 241 420 0
-386 415 427 0
226 390 -408 0
23 -140 -442 0
-101 -244 -302 0
262 321 -339 0
-239 291 -432 0
169 201 348 0
12 -173 279 0
-274 276 406 0
-282 360 -380 0
202 -253 447 0
58 -201 -221 0
118 156 163 0
26 -243 257 0
-98 -341 -342 0
-87 147 242 0
82 245 309 0
-60 134 -215 0
81 -311 -429 0
-61 219 242 0
116 252 254 0
-84 214 -304 0
111 235 -270 0
100 -225 -280 0
-29 -272 -361 0
187 248 263 0
-84 149 -376 0
336 358 444 0
-38 118 -354 0
-55 -66 -274 0
74 330 -438 0
117 229 -296 0
-43 -264 -325 0
141 423 -428 0
86 161 444 0
-87 -234 -282 0
13 36 116 0
17 -100 432 0
86 -115 -281 0
-14 -85 -228 0
-21 -50 -204 0
100 -119 345 0
-11 24 -140 0
72 325 435 0
8 119 -198 0
42 89 -151 0
26 -152 447 0
91 139 327 0
-90 -177 -378 0
-79 -301 -366 0
33 99 225 0
-272 291 -370 0
139 160 378 0
-134 -238 432 0
96 -145 299 0
35 52 393 0
-167 -237 -247 0
-15 -131 140 0
29 416 449 0
229 -339 -430 0
-81 -178 206 0
219 245 -334 0
105 -293 -425 0
30 -38 -221 0
23 29 351 0
171 240 -384 0
5 11 -369 0
-33 237 -352 0
122 -125 -228 0
63 -150 -187 0
17 -205 -435 0
-179 227 -282 0
-59 102 449 0
30 -297 425 0
1 -42 -446 0
82 -93 -335 0
-152 -223 -237 0
-37 -236 -315 0
65 92 -173 0
38 -56 -431 0
-58 -322 -368 0
-72 210 445 0
28 -298 -311 0
-29 370 411 0
-90 167 238 0
3 -111 -155 0
-73 77 332 0
43 -255 -332 0
166 -193 -296 0
18 211 -257 0
-212 337 -338 0
166 341 -362 0
-168 -246 329 0
-112 142 -283 0
203 -348 -431 0
187 263 -319 0
-145 231 373 0
56 205 264 0
-115 -243 414 0
-83 351 -449 0
-50 -96 382 0
-333 -422 434 0
-45 -253 -281 0
-188 300 304 0
-329 406 -446 0
-69 222 -263 0
-21 123 -322 0
180 -420 -448 0
-83 -309 -441 0
50 219 -361 0
96 -212 311 0
25 -167 329 0
245 -260 -405 0
74 -277 -423 0
-86 182 231 0
17 -414 419 0
-178 405 422 0
71 -123 -170 0
248 -266 401 0
9 273 -369 0
112 169 379 0
14 45 -301 0
59 -100 -212 0
-71 201 -311 0
265 376 -426 0
-173 222 -277 0
-156 -285 426 0
-171 324 -403 0
25 126 323 0
27 341 406 0
153 -278 326 0
-344 359 405 0
-56 191 -249 0
54 -106 411 0
273 -371 448 0
-89 -114 401 0
-120 284 310 0
80 -94 -184 0
71 -85 364 0
-68 70 -321 0
246 307 411 0
104 -292 392 0
-352 405 416 0
73 308 421 0
-319 -326 -330 0
191 -195 282 0
-138 -193 -309 0
184 -310 -363 0
-285 375 -389 0
-37 -63 396 0
-353 381 439 0
-60 -337 413 0
23 45 -307 0
-127 233 -395 0
-69 -212 -298 0
275 -414 421 0
192 196 359 0
-223 -229 368 0
-51 -201 -430 0
216 376 440 0
-30 173 -418 0
104 133 431 0
120 -123 310 0
94 96 312 0
-41 -111 404 0
223 -281 -346 0
296 316 364 0
15 93 186 0
333 337 351 0
179 366 435 0
9 89 -249 0
-92 150 -195 0
-25 249 291 0
-24 71 181 0
67 161 -191 0
-103 -196 399 0
137 234 396 0
243 -354 -377 0
67 148 367 0
-145 -236 448 0
35 -41 391 0
291 322 380 0
-34 -132 340 0
87 116 -394 0
30 372 435 0
-144 -178 -266 0
183 -319 327 0
43 409 412 0
46 -120 -350 0
7 105 -137 0
-99 -217 444 0
177 -346 -395 0
-124 135 410 0
179 304 435 0
120 183 -235 0
78 157 -334 0
5 396 421 0
-84 -261 -446 0
43 -272 -433 0
-24 179 -437 0
-102 -166 -236 0
209 262 276 0
186 214 -442 0
-50 -287 410 0
-180 308 -440 0
82 -285 428 0
-226 232 413 0
21 -343 -356 0
159 271 413 0
-99 -144 279 0
175 187 213 0
84 -300 -428 0
130 -135 425 0
-242 264 -421 0
-28 -132 448 0
-32 165 -267 0
5 -333 450 0
-6 98 -337 0
189 -299 -326 0
-177 246 -348 0
182 -259 432 0
-308 314 347 0
-126 -233 361 0
84 -165 241 0
135 300 -339 0
-17 -426 -427 0
113 229 -439 0
390 -429 -430 0
84 -174 183 0
235 250 410 0
-290 -377 -444 0
-16 -187 397 0
94 -313 377 0
34 -169 338 0
56 101 201 0
36 75 -319 0
194 -314 431 0
284 -361 -383 0
30 -70 202 0
22 -155 432 0
-271 273 -394 0
-111 -227 -310 0
93 -200 399 0
-175 266 349 0
-76 363 -376 0
-176 -238 349 0
-112 -232 -406 0
-112 -325 -417 0
-19 -154 -291 0
47 186 372 0
-54 -85 430 0
8 198 -409 0
2 -43 215 0
-67 89 -135 0
-15 -240 -308 0
46 294 -373 0
-218 321 -424 0
79 -104 164 0
-292 298 370 0
-115 120 223 0
-132 283 421 0
-116 228 -237 0
112 -186 207 0
135 352 446 0
239 297 371 0
-221 390 -449 0
-15 -311 353 0
11 -70 -210 0
-74 287 378 0
50 -190 -201 0
50 221 257 0
-101 -132 -197 0
-380 385 -430 0
-216 -387 399 0
216 243 -340 0
-21 39 -164 0
-87 249 350 0
22 286 -341 0
17 162 -412 0
23 -56 -202 0
-11 145 -328 0
-170 214 -299 0
-167 -252 -428 0
-20 -49 383 0
94 287 318 0
-5 -44 345 0
142 276 290 0
-37 87 218 0
170 177 184 0
-328 334 434 0
27 -136 -261 0
6 -92 -318 0
54 200 340 0
-67 -101 164 0
87 178 -313 0
110 243 -382 0
-76 -140 -278 0
24 206 -246 0
282 -285 -371 0
232 247 311 0
112 131 -184 0
-151 -305 436 0
-108 372 436 0
70 193 -400 0
-108 -222 332 0
108 301 -306 0
144 -215 315 0
-343 -348 414 0
-174 208 -378 0
-206 225 375 0
88 -172 431 0
-76 143 -368 0
-18 -195 -449 0
-259 271 393 0
-78 -262 -411 0
24 -370 434 0
65 -345 -350 0
-254 326 -447 0
-192 -221 -419 0
-25 -238 -320 0
-23 -199 409 0
15 23 140 0
-180 262 -295 0
-217 321 -432 0
-125 -298 417 0
-201 -259 316 0
-126 233 365 0
-74 -271 -308 0
227 368 -421 0
-174 184 -425 0
-148 -211 -325 0
185 -275 -365 0
-109 138 189 0
120 -130 -292 0
-325 -331 -380 0
-35 36 -199 0
-73 -257 432 0
-335 354 -380 0
-125 -372 -405 0
75 -324 405 0
97 -263 -274 0
30 -366 419 0
29 -50 203 0
-27 54 361 0
-107 -170 441 0
-67 87 292 0
-56 -134 422 0
34 131 335 0
-62 -92 -259 0
176 -291 361 0
182 -194 -222 0
-77 -145 -205 0
-2 176 -314 0
-149 -165 344 0
146 196 -284 0
-321 368 404 0
310 322 -373 0
-291 -346 405 0
-59 -177 -383 0
-147 -261 374 0
-66 256 -430 0
103 308 348 0
160 219 266 0
-203 236 -414 0
-60 74 405 0
88 -283 429 0
181 -337 -340 0
-80 241 -317 0
-170 -424 438 0
-48 118 -220 0
-112 311 -332 0
-58 -139 298 0
28 -286 -433 0
-111 262 446 0
-203 -440 449 0
290 -348 -444 0
-129 -282 -448 0
19 212 363 0
-28 157 205 0
137 -153 -342 0
27 -206 -377 0
-301 -350 -438 0
-13 -200 282 0
-63 227 -429 0
-183 193 221 0
-107 -189 -356 0
-55 -133 440 0
217 237 341 0
37 -115 262 0
89 239 -244 0
-108 125 -272 0
12 232 283 0
-77 -224 -399 0
95 -201 397 0
-87 -225 -369 0
247 -273 369 0
-139 267 312 0
73 85 422 0
-216 419 430 0
-189 191 -404 0
-34 -332 380 0
48 217 -310 0
122 178 -345 0
208 211 -388 0
73 -178 -351 0
260 363 -393 0
104 -122 135 0
-95 220 313 0
109 -144 -299 0
-12 -56 -111 0
-17 117 -122 0
-32 -205 -235 0
-113 244 370 0
231 -344 -395 0
149 155 244 0
58 283 291 0
-189 271 315 0
-2 -25 -404 0
-4 -76 225 0
1 -228 -286 0
-83 -256 270 0
-180 259 -278 0
93 -119 241 0
-250 276 398 0
-155 325 348 0
-105 -177 383 0
2 -347 -380 0
83 139 155 0
-61 -190 -204 0
-17 74 -250 0
-100 233 282 0
18 -110 448 0
106 156 386 0
-262 -342 -391 0
29 218 352 0
-66 -250 -361 0
54 65 404 0
-121 236 -276 0
94 -151 -156 0
5 -236 -335 0
5 -315 -410 0
-13 129 -158 0
98 -302 -398 0
-152 -286 -430 0
15 291 396 0
55 -134 -238 0
-23 -132 -221 0
10 118 243 0
-210 -340 376 0
61 -159 178 0
-107 -323 374 0
-49 395 407 0
89 348 -377 0
-160 223 -345 0
-48 -117 -394 0
-218 -357 434 0
43 313 -320 0
82 -241 244 0
213 -301 -369 0
-103 -180 -205 0
165 -191 -192 0
405 -419 433 0
51 209 -289 0
-18 116 -158 0
86 -202 237 0
-137 -167 -237 0
262 -342 389 0
319 350 -424 0
-81 326 -345 0
135 166 -420 0
-374 -379 415 0
-118 -262 -406 0
-33 74 189 0
66 130 202 0
199 -313 -315 0
85 181 -184 0
-23 56 -320 0
-129 385 -425 0
-223 272 335 0
-103 150 -202 0
-100 242 -344 0
346 -392 -430 0
-229 -403 404 0
23 -70 191 0
-240 -286 -410 0
308 -381 394 0
-97 249 257 0
-85 -155 261 0
257 340 -368 0
134 193 -403 0
-187 -243 398 0
246 289 -295 0
245 299 -348 0
190 -306 385 0
20 -101 -351 0
-175 350 -377 0
-28 -282 -400 0
-81 106 405 0
-163 -231 448 0
141 -142 191 0
48 100 168 0
-87 108 392 0
-40 -335 -365 0
190 -273 388 0
-31 -102 195 0
-142 167 -231 0
105 179 -226 0
-63 147 196 0
106 -182 -448 0
14 -100 203 0
156 230 314 0
66 -87 239 0
245 395 450 0
-169 264 -291 0
-88 -153 -428 0
-35 -309 436 0
-17 27 -72 0
189 -282 -364 0
202 265 -291 0
-128 346 364 0
-61 -63 -356 0
-167 -234 -342 0
36 89 -204 0
205 207 219 0
307 -358 400 0
285 -294 -421 0
-41 417 -441 0
-94 238 -441 0
-29 113 131 0
-16 -270 -398 0
16 -196 -378 0
-13 247 -381 0
32 207 -395 0
-131 -303 -366 0
-73 328 421 0
55 92 174 0
64 -90 274 0
-178 -324 -437 0
245 342 437 0
-61 -133 -297 0
160 -333 -441 0
-16 147 -173 0
188 235 -323 0
108 109 183 0
13 -149 -382 0
101 -368 -416 0
97 -133 323 0
-252 -316 368 0
-25 -125 357 0
-151 304 -395 0
-269 -350 -440 0
180 -280 370 0
-126 -151 275 0
287 352 -414 0
29 -36 39 0
34 144 -434 0
10 316 -329 0
138 367 405 0
90 317 -348 0
22 27 268 0
168 -248 -342 0
93 222 295 0
-232 -271 -307 0
-142 -287 -428 0
113 -330 417 0
-175 -261 336 0
265 -328 355 0
7 29 103 0
-246 338 -438 0
-125 -177 236 0
-210 -234 385 0
59 -291 427 0
30 274 -397 0
-13 -222 335 0
-178 -283 295 0
162 -204 406 0
-132 143 -431 0
33 -274 -294 0
-78 -181 -405 0
-169 237 443 0
15 -16 -207 0
-69 -177 -307 0
-70 130 -330 0
14 298 -374 0
72 -100 179 0
-179 -285 -343 0
-56 -78 -202 0
85 103 104 0
-78 -304 -337 0
-81 -409 -450 0
-24 212 301 0
-42 151 270 0
-112 223 333 0
126 -289 447 0
-119 254 317 0
-335 -363 -373 0
70 94 154 0
219 -239 294 0
2 356 -389 0
261 282 311 0
13 -72 -94 0
55 -181 324 0
-243 -380 430 0
-31 52 86 0
-35 155 -419 0
-96 130 339 0
-28 -324 328 0
17 -342 -424 0
-253 -270 -341 0
89 -175 -363 0
184 339 -389 0
90 146 -249 0
24 -141 422 0
167 -284 415 0
159 241 379 0
-103 -321 449 0
-7 300 398 0
-28 -305 393 0
315 -393 -394 0
-133 336 354 0
120 287 429 0
119 -229 394 0
190 320 -433 0
1 5 29 0
-49 -218 414 0
17 102 -194 0
38 -97 -449 0
102 191 379 0
-50 -82 -259 0
188 299 -316 0
133 226 262 0
58 -62 371 0
52 58 -172 0
71 321 -390 0
68 370 448 0
24 -37 -242 0
-134 174 390 0
40 -109 -364 0
143 258 351 0
160 -181 -382 0
-50 -63 335 0
-85 -292 311 0
-70 204 -206 0
-138 -377 -389 0
170 -283 292 0
180 -185 -434 0
-38 -214 447 0
-33 187 420 0
-125 -168 364 0
251 316 -344 0
-204 293 329 0
179 -236 257 0
105 387 -412 0
-75 -168 -225 0
104 -203 396 0
-199 314 428 0
-34 45 -352 0
58 68 161 0
173 -238 -372 0
-52 274 340 0
-49 215 -266 0
321 -359 -407 0
-222 -279 394 0
168 415 446 0
37 -188 -277 0
-73 -233 -357 0
33 196 -235 0
-372 -407 -418 0
49 144 204 0
301 379 -434 0
-66 269 -274 0
-70 -165 279 0
-51 -155 -270 0
-77 78 108 0
-150 -285 -362 0
117 187 -406 0
-160 184 -429 0
-114 277 -446 0
-17 284 328 0
-30 -110 257 0
78 -358 446 0
148 -257 -304 0
96 286 415 0
87 -137 359 0
186 278 310 0
147 -169 377 0
-29 -173 -278 0
-319 -360 424 0
273 292 -400 0
64 -112 228 0
111 -309 -348 0
-5 -130 438 0
-167 -310 -380 0
13 -102 362 0
-90 110 -221 0
-262 312 424 0
7 -338 388 0
-20 332 -370 0
16 309 445 0
223 -233 -368 0
281 284 416 0
-216 280 442 0
37 96 -299 0
101 227 407 0
-7 -347 395 0
-39 96 157 0
12 144 414 0
-30 185 -294 0
183 -249 -347 0
-46 -76 175 0
-195 -237 352 0
70 80 244 0
150 -188 -393 0
-148 -171 -232 0
305 355 -444 0
-74 -264 -296 0
166 362 401 0
129 -161 -170 0
125 311 316 0
56 -161 -265 0
175 -312 349 0
-236 -299 368 0
44 -382 383 0
239 -281 417 0
-109 160 -407 0
227 346 -434 0
13 -52 408 0
58 -240 -362 0
107 -152 -163 0
80 139 -400 0
-161 260 -306 0
-56 100 -223 0
1 246 -329 0
-55 -132 -442 0
-205 215 235 0
46 -425 432 0
-7 80 140 0
-172 294 414 0
97 108 151 0
-305 -349 -356 0
37 40 -256 0
-341 -439 440 0
-291 387 435 0
17 -322 -323 0
189 -301 422 0
65 163 167 0
3 66 375 0
-280 356 -358 0
205 -366 414 0
-156 226 -301 0
-24 -329 345 0
51 -244 363 0
-217 252 287 0
-108 -215 429 0
-71 -227 -348 0
-101 -386 -435 0
5 8 -411 0
106 -329 441 0
20 173 -191 0
36 -138 -202 0
-262 358 372 0
-43 -144 287 0
-139 -226 333 0
-149 201 -203 0
125 218 -226 0
150 254 -355 0
103 352 -443 0
4 79 211 0
-38 -58 226 0
10 -112 247 0
-194 -230 381 0
-6 -43 -225 0
125 -263 321 0
-73 -349 420 0
-104 279 372 0
-93 -100 325 0
87 195 -288 0
195 288 -368 0
-53 180 -290 0
16 47 136 0
-93 140 265 0
87 252 -300 0
-89 -199 390 0
3 -230 444 0
-5 -315 408 0
-39 -271 -395 0
-21 359 382 0
66 -338 -381 0
-172 -239 272 0
19 288 -306 0
15 -335 381 0
-107 -392 -414 0
-17 22 348 0
119 -336 -405 0
-227 -254 327 0
-171 -310 438 0
58 -195 204 0
87 -231 -402 0
-11 23 -236 0
-263 -264 433 0
-74 -161 -175 0
58 250 422 0
99 261 -368 0
138 286 416 0
-193 226 433 0
9 -101 -217 0
-98 -389 412 0
221 -249 407 0
-271 416 -443 0
44 -135 -223 0
20 173 -406 0
-116 -282 409 0
175 228 -450 0
-149 209 -237 0
291 -326 -395 0
-2 -113 448 0
308 -336 -394 0
-75 275 317 0
-190 202 -449 0
-238 -334 -394 0
53 -147 174 0
146 -165 371 0
319 -331 -355 0
74 -94 110 0
275 347 388 0
-297 -323 421 0
-123 -148 156 0
68 -240 360 0
34 161 -264 0
61 272 446 0
-247 -396 403 0
97 -147 397 0
-40 89 -371 0
-94 -236 -435 0
-199 306 308 0
255 362 423 0
95 -134 -361 0
-113 -272 -449 0
-120 -132 393 0
74 190 272 0
31 168 -280 0
99 -363 418 0
34 -65 115 0
-230 356 -435 0
20 -346 445 0
40 310 343 0
-101 -320 -363 0
-21 28 -162 0
-224 -257 -412 0
-53 -375 406 0
2 -123 -262 0
-94 108 384 0
-34 371 -382 0
219 320 425 0
134 -190 -342 0
74 -275 -284 0
113 217 -226 0
44 -49 147 0
93 -155 -162 0
98 -231 -437 0
-108 -331 401 0
92 93 -422 0
269 -295 384 0
167 237 416 0
178 186 -373 0
-115 -330 -415 0
67 135 182 0
126 -278 317 0
-20 -27 -346 0
61 -95 -416 0
53 -98 -227 0
142 188 303 0
-104 -213 -312 0
-54 107 -116 0
47 -110 231 0
-166 -322 414 0
-222 294 -427 0
113 -177 227 0
76 354 -437 0
-58 146 338 0
-12 -80 -112 0
198 213 390 0
-279 287 -336 0
-395 410 418 0
-280 -388 421 0
-148 255 -368 0
117 -134 -250 0
204 -303 364 0
55 -61 -246 0
75 -76 242 0
-1 -167 -243 0
-28 56 -331 0
374 429 -434 0
-129 283 -304 0
260 -371 444 0
-99 276 -429 0
-238 -316 365 0
113 257 -306 0
-167 -296 -325 0
187 253 382 0
91 374 436 0
-57 71 -134 0
152 -286 405 0
97 135 194 0
334 426 -439 0
-90 -230 406 0
108 -276 348 0
-129 134 -321 0
130 -187 -436 0
99 233 375 0
-75 -247 364 0
-49 105 -149 0
-36 -169 192 0
33 -47 -417 0
-38 -52 118 0
2 -75 -182 0
-317 345 380 0
-176 284 -437 0
51 -59 -449 0
189 -296 -394 0
-17 -80 -435 0
-191 -226 328 0
-2 157 -241 0
-59 274 389 0
-63 120 203 0
-142 -268 -384 0
407 433 448 0
-180 291 342 0
5 -130 -435 0
203 -217 -410 0
117 -224 -384 0
-28 90 383 0
49 253 -438 0
-208 270 -318 0
8 -224 332 0
59 -233 -297 0
-307 330 -392 0
-9 140 -141 0
140 275 -402 0
45 291 352 0
-56 -86 179 0
-114 124 -137 0
-322 340 -424 0
-9 339 -393 0
107 -427 445 0
-118 -171 405 0
190 316 322 0
-82 -270 -446 0
185 -402 408 0
-170 -209 371 0
146 -266 293 0
-247 256 268 0
-85 155 202 0
-145 316 416 0
-190 197 229 0
75 -345 -366 0
99 -125 -403 0
4 -192 193 0
263 332 442 0
211 -225 422 0
-21 180 279 0
58 -137 -439 0
165 225 -420 0
-122 -133 -326 0
67 250 -349 0
-252 289 -379 0
104 363 370 0
-7 198 -391 0
-122 205 386 0
-41 -290 344 0
-61 -210 -284 0
153 -382 426 0
-37 -217 432 0
-245 271 432 0
-277 380 -427 0
131 -253 -341 0
-150 257 273 0
25 -196 229 0
159 -195 354 0
-248 295 -421 0
55 -96 -293 0
52 175 -301 0
-95 -148 -313 0
46 120 212 0
-114 183 -265 0
-139 401 -432 0
5 18 103 0
-99 214 423 0
-11 -150 155 0
2 -106 -173 0
-57 402 -415 0
-92 307 -368 0
-21 108 255 0
48 90 -195 0
-73 120 280 0
283 410 446 0
-61 -308 -357 0
-14 -70 365 0
-48 -356 432 0
-234 310 389 0
304 343 450 0
266 304 -390 0
111 -147 -209 0
100 223 389 0
-193 280 -392 0
136 -172 -354 0
33 302 402 0
120 -361 439 0
155 -185 -291 0
-68 -181 295 0
-314 -350 367 0
-15 224 -360 0
-26 -45 -280 0
-123 125 -348 0
-159 212 312 0
262 274 -372 0
-199 374 398 0
-82 223 349 0
161 258 -448 0
-179 -222 223 0
-96 411 -434 0
-325 -330 449 0
-14 -106 -193 0
60 -268 370 0
-8 177 297 0
17 95 -246 0
33 -250 -414 0
-260 274 373 0
58 -177 -434 0
100 -361 380 0
7 -36 95 0
-111 268 301 0
-130 216 -228 0
109 330 -373 0
-130 251 261 0
-39 42 -166 0
1 -214 -247 0
-96 -139 -320 0
-9 -273 336 0
200 364 397 0
152 -229 -275 0
40 145 -169 0
8 85 386 0
194 225 386 0
-67 130 -152 0
4 -297 -380 0
-177 -330 427 0
17 79 -225 0
-297 390 397 0
-87 231 382 0
98 -253 -417 0
114 184 384 0
-24 -124 357 0
-57 95 -109 0
26 -63 124 0
316 -374 -421 0
-123 371 -429 0
-42 -187 194 0
-6 -261 -291 0
-32 -362 380 0
-340 -362 436 0
-312 -400 409 0
27 -83 413 0
-82 -196 244 0
-280 -296 -403 0
-205 -240 -342 0
133 148 220 0
63 -169 -208 0
-5 -19 -286 0
132 -289 -301 0
-310 311 -330 0
-64 102 228 0
-84 -206 -215 0
-37 -136 312 0
121 -313 442 0
-220 341 -364 0
-26 -204 335 0
-144 -153 367 0
3 307 371 0
344 -409 -447 0
-228 278 395 0
105 -292 365 0
-162 -201 224 0
161 -185 -313 0
-218 284 341 0
-42 -254 -387 0
-35 121 -447 0
-37 374 447 0
-5 100 114 0
49 -303 408 0
-22 83 352 0
244 314 425 0
10 -120 210 0
118 -316 363 0
-105 233 383 0
15 -95 -192 0
-73 -151 222 0
-190 258 -385 0
80 -161 -202 0
136 -215 -387 0
38 376 443 0
273 -370 438 0
29 378 -435 0
-121 -127 366 0
123 -186 288 0
233 266 300 0
-48 -217 -429 0
293 -372 -445 0
36 -37 -159 0
-28 368 -374 0
-69 197 266 0
-130 305 -352 0
93 -332 333 0
-78 -230 289 0
2 15 196 0
63 191 -227 0
10 139 351 0
-1 -300 -441 0
-52 -293 -350 0
255 -269 329 0
-79 -93 359 0
47 259 -424 0
-192 253 394 0
236 369 -424 0
200 213 -389 0
-90 233 -375 0
197 -335 -449 0
250 285 425 0
-61 -323 339 0
-77 -304 317 0
-49 202 324 0
-195 219 -420 0
103 115 -167 0
-65 -116 -317 0
-20 -115 309 0
53 219 -269 0
-102 286 414 0
86 158 -354 0
-5 229 450 0
-53 96 -287 0
13 232 370 0
-24 275 319 0
-183 -188 412 0
-63 -273 376 0
-110 -279 418 0
-152 -173 428 0
92 200 284 0
158 209 428 0
74 -415 -444 0
76 -357 -387 0
57 233 -293 0
-25 158 341 0
-382 391 430 0
32 -36 219 0
-165 342 401 0
-214 -373 423 0
-53 -59 158 0
-156 -208 254 0
71 103 -320 0
53 -143 -410 0
-17 404 427 0
-69 269 -367 0
-154 191 -391 0
26 -220 -381 0
134 -328 -387 0
-84 242 372 0
-25 279 -356 0
92 -291 353 0
-178 258 -427 0
-114 316 398 0
-185 -353 387 0
35 148 -171 0
342 384 396 0
59 322 -371 0
-24 -107 222 0
-66 139 194 0
-227 381 439 0
266 -339 422 0
-57 239 348 0
249 -389 -407 0
-35 69 287 0
-43 248 444 0
-47 84 -150 0
167 406 -410 0
-62 -107 -312 0
-82 237 -440 0
129 246 328 0
-6 101 235 0
63 -145 -323 0
66 156 343 0
40 251 -294 0
-98 123 228 0
154 220 -447 0
376 -379 424 0
159 -280 -327 0
-189 -203 309 0
-59 219 -443 0
-106 -126 -432 0
28 61 63 0
-72 -185 -254 0
-9 13 239 0
79 89 379 0
-1 -162 -299 0
10 -236 398 0
-133 -175 241 0
59 -149 187 0
11 -134 -434 0
-28 77 206 0
169 377 390 0
-133 -246 373 0
-8 206 284 0
16 -118 197 0
104 325 -412 0
132 -184 -395 0
-92 -270 326 0
24 287 -294 0
-202 257 -306 0
-104 -213 -347 0
-58 323 -353 0
-172 307 381 0
-100 147 264 0
-57 -92 -371 0
-126 -238 -273 0
9 123 -254 0
24 -162 -420 0
-75 -275 -311 0
-129 -166 198 0
-60 -399 -426 0
216 247 249 0
34 -196 -435 0
29 -127 -199 0
32 227 -401 0
114 152 262 0
-171 322 -431 0
-84 -85 259 0
21 93 344 0
6 -76 -306 0
358 -366 403 0
-27 -130 289 0
5 -137 415 0
-10 289 395 0
11 -337 -408 0
-50 161 252 0
106 -162 388 0
42 162 244 0
-141 -278 423 0
29 -311 -417 0
143 172 293 0
28 326 -386 0
-3 -116 -381 0
-160 434 443 0
-296 321 381 0
6 -43 400 0
-55 151 236 0
-43 126 211 0
105 -285 449 0
-2 -283 349 0
-199 340 373 0
112 116 -427 0
97 -231 -268 0
188 -375 -382 0
48 -92 -450 0
-180 380 446 0
85 96 445 0
9 -170 -404 0
17 20 227 0
-208 -245 -357 0
176 178 223 0
174 217 425 0
-212 -251 387 0
-241 312 424 0
-344 -390 -401 0
45 -430 -445 0
90 -330 -370 0
-48 362 434 0
201 240 -443 0
57 -135 -139 0
158 -174 251 0
186 315 -387 0
-279 -395 441 0
82 -419 434 0
187 -416 427 0
88 166 420 0
-26 283 307 0
-142 229 -233 0
126 315 412 0
207 388 400 0
-33 75 412 0
98 -185 276 0
-209 -349 -442 0
-159 -220 313 0
-166 -267 -331 0
-64 -160 -374 0
29 -130 270 0
-121 447 -450 0
-96 -215 -238 0
5 29 387 0
296 311 -450 0
-64 -100 335 0
-330 -352 407 0
-85 -203 213 0
-59 296 362 0
18 340 393 0
84 -110 -178 0
120 202 -306 0
108 -227 365 0
47 -99 -400 0
-40 139 410 0
-49 283 -306 0
-75 -167 -295 0
-197 -224 -361 0
-91 172 -275 0
-59 397 -430 0
64 116 438 0
-153 402 -445 0
216 288 -430 0
221 -227 -291 0
77 153 450 0
-147 297 -420 0
173 -255 -259 0
84 -124 176 0
-63 -113 410 0
-45 -142 -315 0
146 159 379 0
-74 227 413 0
115 -201 -247 0
-219 235 -442 0
189 368 -431 0
132 -191 206 0
-168 311 -386 0
72 -390 -398 0
1 -9 249 0
247 -379 411 0
243 273 281 0
