p cnf 450 1917
137 165 365 0
134 -139 -159 0
-21 61 -412 0
-268 -372 409 0
-31 -146 334 0
128 177 -313 0
-205 381 402 0
99 132 434 0
-145 268 366 0
-389 -423 428 0
-28 -138 163 0
-154 259 309 0
21 -215 -268 0
-44 143 271 0
190 -261 432 0
-16 165 383 0
-22 -62 254 0
199 208 -221 0
-280 -391 -446 0
-40 -298 363 0
128 -298 388 0
-14 -61 338 0
37 154 -239 0
247 300 -353 0
-85 -344 -421 0
-101 351 -403 0
-301 437 -440 0
12 13 176 0
264 374 428 0
-158 -215 -408 0
181 -190 281 0
-49 -224 -370 0
62 201 334 0
88 148 349 0
-140 332 -354 0
65 -66 427 0
-342 346 -414 0
-53 79 335 0
182 -308 -449 0
-8 183 352 0
-100 138 282 0
138 363 408 0
270 294 -305 0
-34 -317 -421 0
30 -57 -149 0
34 201 421 0
-62 -191 431 0
-161 -386 403 0
-39 181 356 0
33 -110 197 0
-203 -289 -425 0
-77 -85 -204 0
-62 216 244 0
54 142 -396 0
-11 -112 344 0
-161 -303 -394 0
-138 142 -227 0
203 245 418 0
140 -186 233 0
-64 -213 -303 0
40 177 316 0
81 -308 328 0
-250 272 439 0
163 231 281 0
-85 -380 -403 0
1 -124 -262 0
-192 269 -370 0
-166 302 340 0
-155 299 432 0
106 -164 257 0
192 365 382 0
43 -438 448 0
91 235 -266 0
-264 290 -447 0
-11 157 -450 0
-174 -321 372 0
33 292 294 0
114 -412 -447 0
274 316 -383 0
167 -307 -312 0
-13 23 -250 0
159 -421 436 0
123 -362 -389 0
-114 213 291 0
19 363 -380 0
-104 426 429 0
-46 351 -386 0
73 81 89 0
-377 -408 431 0
-70 -157 337 0
-88 -183 -373 0
-231 -385 390 0
170 180 -428 0
153 -158 -380 0
176 -280 395 0
174 284 -417 0
-134 -137 324 0
-157 172 382 0
-79 107 -382 0
19 62 326 0
61 135 -326 0
-130 364 -408 0
83 -357 385 0
13 -221 -401 0
-279 358 -404 0
319 -331 -354 0
-29 -137 -404 0
-147 331 422 0
-69 80 341 0
62 91 -282 0
28 -50 -86 0
-158 175 370 0
-293 338 346 0
296 345 419 0
-149 -207 319 0
-90 -303 -381 0
31 -324 -331 0
-15 78 -270 0
-64 134 189 0
145 -148 202 0
-54 178 268 0
-57 78 -448 0
1 -50 150 0
66 -73 393 0
231 -264 356 0
278 435 -448 0
5 -384 -422 0
-96 -318 406 0
-127 266 -395 0
138 160 -203 0
28 258 -408 0
41 78 414 0
-121 -196 -331 0
97 261 321 0
288 -312 -351 0
69 -261 -346 0
273 -333 389 0
142 156 202 0
-334 366 385 0
-24 196 223 0
-25 -224 -263 0
9 -100 361 0
-51 -57 -414 0
-51 370 407 0
44 -111 267 0
-358 -390 -410 0
-99 361 437 0
-195 -348 405 0
220 -368 379 0
92 102 -133 0
-28 -48 -373 0
187 274 290 0
-82 170 -225 0
174 -209 -283 0
69 91 -306 0
90 -219 -292 0
-10 44 247 0
-184 201 369 0
149 -213 -432 0
76 -385 -434 0
-59 324 385 0
96 322 -423 0
165 220 -329 0
-226 349 -443 0
-25 275 -448 0
52 -422 -440 0
-55 -75 442 0
2 -37 -339 0
-95 181 266 0
-100 279 -397 0
53 300 393 0
-152 163 -435 0
270 -391 412 0
-83 287 323 0
154 -394 430 0
-30 -54 -281 0
-105 -141 143 0
113 367 -409 0
-124 -166 338 0
-66 140 446 0
144 234 320 0
36 -196 320 0
-57 -214 355 0
77 185 -400 0
-50 58 127 0
88 346 408 0
-72 210 384 0
43 117 304 0
128 334 350 0
-44 -59 162 0
322 -411 415 0
63 -73 419 0
-54 -159 -163 0
-190 263 -351 0
48 308 346 0
-154 -292 322 0
-17 -89 403 0
-253 -280 295 0
20 -131 -257 0
79 -270 -376 0
-109 -265 448 0
-18 257 326 0
-70 317 -372 0
-174 -220 -322 0
15 -235 -246 0
-30 -265 269 0
65 141 -194 0
-306 -350 -443 0
102 226 448 0
-47 119 256 0
-266 333 -442 0
-85 250 -401 0
32 153 264 0
-400 -411 433 0
45 329 412 0
-44 -72 249 0
59 290 362 0
25 -174 440 0
40 144 -391 0
-142 -164 -260 0
184 208 440 0
107 -189 -384 0
-57 192 -215 0
-28 105 428 0
189 267 445 0
-270 311 358 0
33 -97 291 0
15 26 -88 0
3 415 -443 0
56 59 -351 0
-178 -407 411 0
-40 -125 -241 0
112 272 -369 0
197 -299 -373 0
198 -397 -401 0
37 93 -342 0
-197 -276 362 0
-12 -235 -398 0
41 -255 -323 0
-247 279 426 0
153 -178 290 0
104 274 321 0
-81 -173 -371 0
-55 -61 265 0
-145 290 -364 0
178 -264 -352 0
21 -134 -154 0
60 124 423 0
-128 -274 -378 0
-142 -310 352 0
-182 330 -373 0
12 323 -340 0
-47 -102 393 0
149 328 447 0
45 164 279 0
-70 -272 336 0
-23 -90 -220 0
91 315 -322 0
-11 40 387 0
-257 266 -271 0
12 -29 -320 0
1 -155 330 0
-57 115 372 0
-45 -174 413 0
16 -28 -42 0
-87 -241 434 0
-57 -177 -318 0
-83 -145 -333 0
15 321 -375 0
-21 -25 439 0
30 -211 359 0
-4 -329 435 0
22 -75 251 0
44 133 -164 0
68 -293 373 0
187 -332 417 0
-109 165 -291 0
-312 343 -434 0
167 204 -312 0
144 162 321 0
4 74 307 0
63 -299 -305 0
-128 294 349 0
150 -183 -400 0
185 -245 352 0
149 322 398 0
-132 260 -288 0
7 36 -401 0
-101 108 -273 0
-3 156 -287 0
238 336 420 0
-43 -335 -436 0
347 -353 -374 0
37 190 403 0
102 -370 379 0
-24 -215 417 0
-17 208 -210 0
-12 174 -271 0
43 -179 195 0
197 -275 297 0
-180 326 421 0
52 145 -433 0
-130 244 331 0
167 246 400 0
159 232 320 0
98 -207 352 0
56 245 300 0
-6 299 416 0
-157 -289 408 0
148 419 421 0
51 203 -350 0
169 -221 -226 0
-55 -199 424 0
338 -396 -404 0
-80 105 162 0
81 -138 201 0
-139 -168 -333 0
18 119 -198 0
25 324 428 0
136 357 371 0
-210 -262 380 0
58 -162 -297 0
-148 -351 426 0
-20 189 288 0
-50 -382 433 0
151 160 -397 0
-63 160 185 0
-290 -295 -402 0
26 -379 -392 0
-68 132 -189 0
-11 -233 260 0
123 -202 -374 0
-1 39 -131 0
202 293 -304 0
-64 127 302 0
2 65 123 0
-11 -183 -187 0
69 -280 -413 0
-25 -328 427 0
-263 -377 396 0
-9 -208 -342 0
-43 -53 -255 0
-233 -404 -435 0
-212 -246 -290 0
-37 165 266 0
103 -128 -261 0
189 380 403 0
-172 -226 393 0
-40 -299 -328 0
46 208 -365 0
10 -275 -348 0
212 291 299 0
337 -373 -389 0
42 129 -176 0
-70 244 -424 0
104 146 -377 0
-213 -249 -365 0
-186 300 350 0
137 -153 -369 0
12 81 153 0
30 62 -356 0
171 -325 -393 0
8 -81 -186 0
-98 -107 -264 0
135 195 211 0
-144 -303 -321 0
-91 389 448 0
-184 -206 301 0
-11 -335 410 0
-93 159 271 0
63 -112 -127 0
118 272 -315 0
157 -217 -285 0
-15 168 311 0
54 -296 -318 0
219 220 400 0
363 406 -414 0
-117 -211 252 0
-31 151 -225 0
-157 364 380 0
-32 343 -354 0
200 261 368 0
-162 -290 386 0
-154 -323 353 0
62 -285 398 0
234 383 418 0
68 -114 271 0
273 401 415 0
156 359 404 0
95 231 -444 0
-196 243 -416 0
-2 -96 172 0
-52 227 318 0
54 246 -387 0
17 284 -383 0
130 235 -289 0
-322 -328 -355 0
125 -137 228 0
177 429 -449 0
-7 -129 -296 0
77 233 -413 0
202 324 -377 0
-262 -335 -382 0
-154 176 -304 0
233 250 420 0
-81 -271 354 0
144 -369 -437 0
-69 103 -225 0
-342 -366 374 0
60 219 -296 0
-15 32 -410 0
34 -81 277 0
-144 -192 -355 0
-127 -323 -386 0
151 -297 -327 0
-217 351 401 0
-64 -73 310 0
-180 354 407 0
-12 72 -388 0
218 -239 -349 0
37 93 -294 0
-282 -433 434 0
-11 -98 331 0
253 275 321 0
-162 284 -314 0
-165 -220 -295 0
113 117 -407 0
156 -277 -322 0
-43 -224 -241 0
130 196 220 0
-111 189 -290 0
-288 304 -415 0
-77 376 -381 0
-179 -220 -429 0
-205 377 -436 0
-105 142 -159 0
42 -77 309 0
319 -370 -409 0
12 147 -286 0
223 265 -361 0
-42 -236 287 0
2 -30 -202 0
-52 -85 -193 0
48 71 444 0
-143 -281 351 0
255 271 -329 0
18 -60 -116 0
73 125 -435 0
128 162 234 0
123 125 -198 0
168 -262 292 0
92 -228 -409 0
82 -171 -293 0
18 65 196 0
15 29 -194 0
281 288 -371 0
40 52 118 0
72 110 -146 0
-188 -201 414 0
210 306 -439 0
-3 119 156 0
-151 389 -449 0
-27 -209 266 0
-177 -247 271 0
32 -46 278 0
-75 -172 -362 0
75 -145 161 0
355 365 382 0
-120 324 -413 0
228 237 377 0
-54 221 349 0
-179 232 377 0
-3 19 365 0
-202 273 323 0
-102 280 441 0
-49 -120 282 0
183 -314 -328 0
-146 356 365 0
-133 -220 -221 0
-54 69 -189 0
-65 -157 333 0
-106 250 -297 0
1 122 -414 0
143 -277 389 0
-85 -183 -219 0
-98 -104 261 0
7 -143 302 0
119 -314 -383 0
144 353 433 0
12 129 231 0
41 -52 -311 0
-152 385 420 0
-84 247 328 0
-59 -118 163 0
-257 -366 -380 0
-95 400 421 0
-279 -397 436 0
-275 -324 -370 0
91 134 -195 0
114 330 -373 0
41 343 -422 0
65 326 -416 0
-39 -361 419 0
2 378 424 0
18 108 235 0
-27 -33 -39 0
107 -119 -287 0
-308 389 -399 0
-135 -255 322 0
2 314 438 0
-204 318 439 0
90 102 -305 0
32 324 -350 0
-44 -66 -245 0
-279 -291 -350 0
-60 -118 -347 0
-8 56 80 0
-61 213 -314 0
-295 -423 -435 0
33 266 392 0
120 228 294 0
-343 353 406 0
42 -80 -344 0
51 -313 395 0
-132 446 -449 0
-237 -294 -355 0
-26 133 -199 0
87 146 -389 0
156 228 -335 0
-55 -64 -336 0
183 355 443 0
-231 315 380 0
55 138 -271 0
-344 -359 -360 0
105 141 -411 0
-152 154 172 0
-54 218 -288 0
16 -39 -262 0
-88 235 308 0
-139 330 -420 0
-172 -244 383 0
-158 -311 -430 0
-113 134 366 0
-177 320 412 0
19 160 -254 0
54 -321 -354 0
4 -54 -93 0
8 -223 281 0
-34 -317 -318 0
17 -206 368 0
203 -386 -397 0
144 -209 -264 0
-197 -213 433 0
-129 -196 -301 0
-73 -244 -306 0
-37 41 -70 0
-323 375 403 0
-102 223 -402 0
51 -81 336 0
148 309 437 0
141 -223 423 0
15 106 420 0
51 370 429 0
-1 -311 -329 0
137 358 -410 0
-53 -151 -289 0
190 284 345 0
353 398 399 0
248 -336 -377 0
-73 -326 -444 0
-154 -175 -439 0
-119 264 -349 0
-5 138 429 0
-43 74 378 0
48 320 -417 0
87 -355 -438 0
262 -271 -357 0
77 93 300 0
-86 283 317 0
-49 -99 -133 0
105 -181 -192 0
301 -312 -351 0
-68 -123 418 0
-105 296 386 0
78 215 230 0
101 -284 286 0
32 -175 190 0
-44 258 447 0
-107 -254 291 0
-51 -131 164 0
141 194 284 0
59 -239 -424 0
-185 330 373 0
-205 -225 301 0
118 -260 -327 0
36 -39 -244 0
-211 -224 -276 0
331 389 404 0
65 -157 -197 0
91 126 -322 0
-37 -273 -429 0
-150 379 -413 0
-130 -138 -431 0
32 -50 -328 0
254 312 -397 0
-126 411 446 0
-319 -380 -413 0
-247 -360 -371 0
78 -195 -197 0
68 -71 99 0
-33 200 -397 0
-160 232 273 0
-83 -187 409 0
193 -425 -449 0
66 -111 -420 0
143 363 387 0
144 -370 -380 0
-105 -213 269 0
76 270 426 0
227 424 -428 0
113 172 -256 0
-72 103 -428 0
-131 -368 -407 0
-72 -184 -384 0
-124 -252 397 0
-164 -246 -335 0
110 -121 399 0
32 -164 -302 0
34 100 -187 0
-115 237 -289 0
254 -267 431 0
-80 -134 346 0
-87 205 402 0
89 -214 -224 0
140 264 435 0
-73 175 192 0
46 -169 -265 0
-85 209 -215 0
93 232 -275 0
-43 102 -110 0
-48 -374 -392 0
-96 200 361 0
-145 -243 293 0
-105 226 -374 0
237 -254 -346 0
-95 128 -413 0
67 -112 160 0
-42 115 187 0
-65 147 -394 0
-165 383 -437 0
-90 -208 -388 0
42 261 -446 0
-244 297 352 0
11 243 301 0
-268 294 -336 0
-117 312 443 0
19 -168 311 0
-340 -358 -411 0
31 171 -407 0
273 -396 -417 0
12 -306 446 0
-102 339 -407 0
193 388 418 0
-212 429 -441 0
-2 -264 356 0
129 158 -383 0
300 -332 -403 0
156 240 380 0
-198 230 -431 0
-134 -419 -446 0
227 -284 393 0
60 136 -292 0
4 237 301 0
48 131 381 0
185 231 -416 0
-29 153 325 0
294 -372 435 0
-120 218 -299 0
15 -74 426 0
-158 -276 -330 0
-116 -196 342 0
45 131 420 0
-107 -200 -440 0
-14 -58 -420 0
201 -260 398 0
-91 149 -159 0
57 -87 -255 0
-34 373 397 0
174 180 -327 0
-62 104 -327 0
135 246 -272 0
-98 -231 276 0
195 247 348 0
208 -411 -448 0
218 251 -259 0
-31 145 285 0
-23 -194 379 0
-54 118 379 0
134 -353 412 0
294 -370 433 0
-21 157 233 0
47 -278 393 0
-313 -338 393 0
-66 406 434 0
284 -353 373 0
-52 -149 -434 0
-16 270 -352 0
-157 191 -291 0
-73 -289 -335 0
135 -247 399 0
258 -287 -372 0
215 -386 428 0
51 -245 -418 0
-50 -294 -396 0
206 378 -418 0
-42 -74 102 0
-114 -213 289 0
39 -135 367 0
-225 -297 -353 0
-22 -42 -402 0
84 -216 -314 0
125 -247 335 0
-30 216 -272 0
-12 264 425 0
-8 79 247 0
140 -282 434 0
-16 20 -431 0
187 -330 -441 0
23 223 356 0
60 64 -172 0
-55 -112 -289 0
-111 -394 -444 0
-112 -159 -193 0
104 156 -251 0
26 -368 404 0
12 -48 69 0
-169 -243 284 0
-40 271 -441 0
25 -179 -439 0
-83 316 -346 0
-15 -114 -318 0
-190 200 369 0
80 -147 384 0
20 336 366 0
108 -179 279 0
31 77 169 0
81 360 -379 0
119 -167 387 0
-135 228 -447 0
-3 357 378 0
-212 -283 440 0
224 -331 -394 0
62 -131 288 0
-102 -411 -418 0
-196 326 359 0
87 215 348 0
58 -67 380 0
-82 -304 362 0
169 219 -450 0
-58 -162 345 0
-203 220 408 0
71 -214 288 0
-129 -275 -431 0
-290 -332 351 0
42 171 -361 0
-424 -443 -446 0
103 253 -324 0
217 -389 449 0
140 197 -252 0
116 267 302 0
-62 87 -366 0
15 -218 -319 0
95 -270 430 0
223 -290 422 0
-3 -42 -363 0
-343 -405 -437 0
-85 -201 377 0
-230 -268 437 0
-57 74 -295 0
-123 -215 -369 0
-56 -90 149 0
-161 319 -350 0
65 -340 382 0
86 -90 -148 0
53 183 -385 0
-150 290 -432 0
32 248 -291 0
38 -124 -300 0
126 -161 -288 0
46 146 345 0
214 303 -415 0
155 -284 -332 0
-29 145 -314 0
-190 324 -410 0
-153 -278 360 0
-189 -363 366 0
-334 -345 448 0
354 424 436 0
8 -18 -173 0
10 -11 -230 0
-48 -112 232 0
15 -359 -361 0
294 308 416 0
30 -389 -439 0
-235 237 289 0
190 -222 330 0
-6 -200 -312 0
-87 -159 422 0
-69 204 -391 0
185 -341 391 0
-14 -60 111 0
-45 153 -224 0
-10 126 217 0
-227 -231 366 0
-29 -79 359 0
112 174 305 0
-33 -34 -286 0
39 198 202 0
3 207 -372 0
-216 275 -322 0
58 195 -415 0
-10 -163 300 0
-42 211 -408 0
-27 156 167 0
-255 278 403 0
-156 -225 388 0
-6 -368 -382 0
-49 -167 336 0
85 -365 408 0
67 241 442 0
4 -381 -439 0
-109 -118 217 0
69 -90 134 0
16 -328 381 0
-78 324 -434 0
-236 -267 304 0
39 111 -215 0
48 176 378 0
1 -77 -360 0
264 -324 342 0
-10 -80 155 0
-116 -209 256 0
29 98 345 0
215 221 -268 0
60 -210 -262 0
17 75 -268 0
-187 -201 -251 0
-106 -149 -304 0
162 359 -402 0
34 174 -310 0
17 288 390 0
-53 -197 -407 0
152 -358 390 0
-93 -144 405 0
-101 -160 -266 0
70 -273 276 0
-48 100 -346 0
115 -279 293 0
-225 -352 -389 0
141 329 340 0
10 192 389 0
-112 -255 -326 0
-62 -295 -434 0
13 -107 149 0
241 -253 -361 0
184 -185 187 0
136 291 -326 0
-126 -148 402 0
96 -235 -252 0
347 375 417 0
233 254 291 0
99 275 -384 0
-46 125 -348 0
-50 246 -428 0
141 -293 -327 0
30 47 150 0
272 310 318 0
6 -44 -383 0
-25 190 262 0
-150 -193 276 0
-179 -257 -369 0
60 -159 -173 0
-47 103 -375 0
-224 296 428 0
-22 -182 281 0
-179 -414 -431 0
43 -287 -343 0
-143 -292 -382 0
31 221 -357 0
-113 212 378 0
-50 213 307 0
21 -137 -231 0
-107 -355 -359 0
12 -383 421 0
-77 -87 -429 0
127 -292 -360 0
-72 -289 428 0
11 111 -156 0
-105 -128 -332 0
80 263 -363 0
-28 -365 378 0
-167 -190 -213 0
-29 -56 210 0
177 -218 412 0
187 259 299 0
-11 -218 -262 0
-2 -185 314 0
142 403 -431 0
99 135 411 0
224 -294 -379 0
-52 -274 450 0
248 267 401 0
155 341 -358 0
-157 204 276 0
168 178 357 0
-65 -171 251 0
-89 107 -395 0
105 -175 -388 0
47 -342 393 0
-72 -92 -360 0
367 369 -437 0
156 176 197 0
-19 32 -306 0
-184 368 -440 0
139 208 234 0
-27 -73 277 0
-264 -289 -291 0
-85 -282 -385 0
136 148 285 0
-325 379 440 0
-84 -114 121 0
95 -227 413 0
-121 -155 -392 0
-28 201 -362 0
-145 221 281 0
158 364 -384 0
-190 -238 -308 0
-47 75 291 0
60 157 -296 0
-127 -143 263 0
-131 345 391 0
9 -96 407 0
-130 228 447 0
49 -210 275 0
183 265 -401 0
-153 -206 -266 0
-50 -241 317 0
-294 398 -450 0
55 -201 341 0
-22 173 -316 0
-39 226 276 0
22 -32 -319 0
40 -110 393 0
-43 -297 -325 0
-168 -194 -305 0
-177 -263 347 0
-39 79 -164 0
207 -221 272 0
-159 262 329 0
-110 133 446 0
44 322 -370 0
7 -18 315 0
200 367 -432 0
-100 170 352 0
-69 -207 268 0
-61 -211 -242 0
29 -196 270 0
94 -155 -266 0
231 -293 -376 0
-22 86 -203 0
32 -122 -377 0
290 -338 381 0
130 212 260 0
15 -240 -379 0
51 276 404 0
-2 283 -306 0
-77 -103 -383 0
-154 -158 427 0
355 375 -406 0
42 -280 -382 0
49 207 -360 0
10 -339 379 0
50 -117 -234 0
54 145 427 0
195 357 395 0
280 -364 390 0
105 -278 416 0
-142 322 -409 0
-9 33 -110 0
63 271 441 0
-44 -189 190 0
126 221 -351 0
186 382 438 0
-251 -320 334 0
-115 -177 -384 0
-156 272 -430 0
-107 -230 -305 0
7 191 -217 0
-21 -213 -289 0
144 343 364 0
140 -222 -314 0
-10 257 306 0
-133 160 -219 0
-236 332 -386 0
74 -273 -295 0
-187 -200 288 0
25 80 -440 0
-165 -361 -412 0
211 269 391 0
22 48 -202 0
51 -140 -183 0
-173 -181 -196 0
300 -323 -373 0
225 328 -359 0
55 60 -440 0
-145 363 377 0
226 -288 -323 0
60 197 -319 0
72 126 250 0
-392 419 -442 0
28 360 -419 0
-37 365 -375 0
72 -123 180 0
174 -176 273 0
3 127 394 0
-23 260 333 0
-180 -340 352 0
102 180 388 0
153 -174 360 0
-348 -422 -429 0
315 354 -402 0
333 371 -376 0
96 -127 152 0
26 393 443 0
-166 -194 351 0
-24 -247 -447 0
275 -402 421 0
247 -322 437 0
-16 238 243 0
-156 160 220 0
96 -238 -425 0
119 371 438 0
-198 -241 -410 0
-72 -151 338 0
-95 -288 -444 0
101 -135 -169 0
57 -126 -167 0
110 111 266 0
200 -315 338 0
31 75 249 0
25 -262 349 0
101 360 -377 0
-61 -87 166 0
-23 206 447 0
-121 203 407 0
124 -138 -334 0
-5 37 -413 0
-3 188 -331 0
-274 -330 433 0
4 -192 447 0
-206 -346 -349 0
6 129 -366 0
125 -303 -309 0
-130 146 -428 0
-68 -278 -304 0
-17 -134 267 0
361 -370 439 0
9 129 279 0
-54 172 207 0
-392 395 443 0
-139 269 278 0
49 380 -443 0
11 392 394 0
63 -223 359 0
164 392 -417 0
-148 372 423 0
-228 331 -442 0
30 81 -392 0
-83 -87 -407 0
124 153 160 0
-93 -114 209 0
129 183 357 0
90 160 -255 0
96 -185 -440 0
170 215 403 0
36 -75 -398 0
-34 -98 -229 0
118 -322 -443 0
111 145 -305 0
18 117 -321 0
2 -70 349 0
-139 -141 448 0
75 84 -374 0
-286 -370 -435 0
-28 -287 368 0
-37 -146 -392 0
60 -200 -366 0
289 417 440 0
91 182 -212 0
147 -333 436 0
7 -118 -172 0
151 -273 307 0
-113 124 213 0
-28 -49 134 0
224 -414 -430 0
-60 190 331 0
-13 41 237 0
-127 -280 -282 0
32 165 -167 0
212 342 -370 0
-162 375 380 0
236 281 332 0
131 -366 -436 0
138 -178 404 0
-10 -151 171 0
-178 -268 423 0
108 -131 -271 0
-219 -326 -372 0
40 -41 273 0
-51 -122 238 0
157 191 333 0
34 -258 442 0
-217 -236 262 0
-285 -353 354 0
-44 -124 223 0
163 211 -351 0
35 117 395 0
44 -246 434 0
138 -216 270 0
189 -317 437 0
-213 303 446 0
-237 -373 -423 0
49 276 -365 0
-47 288 405 0
-19 25 -197 0
101 121 308 0
48 324 -372 0
67 -104 -336 0
3 -314 446 0
111 -125 317 0
128 171 -222 0
234 291 437 0
-151 244 -270 0
-182 -190 -345 0
-289 -393 441 0
-2 -165 369 0
9 68 -335 0
-201 -322 324 0
70 -128 329 0
5 66 276 0
5 -108 383 0
156 168 -364 0
-121 -130 381 0
-134 411 -442 0
40 185 314 0
-24 202 -298 0
-145 -186 -271 0
-379 387 -409 0
-324 -327 362 0
-64 269 299 0
150 -184 344 0
-187 208 -294 0
40 214 -249 0
362 -366 -403 0
-28 271 299 0
37 -75 152 0
170 -222 263 0
72 -268 279 0
110 316 -349 0
88 -162 -421 0
37 247 -325 0
-10 -20 396 0
-61 81 228 0
-3 -335 -359 0
-110 127 -128 0
84 343 445 0
356 -359 404 0
-243 -316 -346 0
234 250 328 0
-138 359 450 0
8 421 -446 0
-128 -308 383 0
-96 -163 -405 0
-172 380 383 0
13 228 -435 0
-105 138 392 0
-57 162 174 0
-306 392 -436 0
178 218 -224 0
129 187 -251 0
76 289 303 0
-13 20 432 0
75 221 443 0
-6 -212 440 0
174 261 408 0
-82 369 -428 0
-75 377 388 0
-129 -180 -425 0
-109 -269 321 0
7 -160 299 0
-111 229 435 0
-59 -84 -377 0
-155 -188 -264 0
-159 -295 -447 0
49 -71 -194 0
-27 61 177 0
-95 -274 304 0
-30 -79 435 0
377 -424 439 0
-87 113 -403 0
193 -385 -394 0
251 364 448 0
11 -78 -306 0
-276 434 444 0
-41 -50 285 0
94 305 -437 0
-183 -200 333 0
210 334 415 0
90 255 -317 0
-79 -155 389 0
-86 -194 -247 0
-301 -363 -379 0
187 -426 -445 0
122 272 -436 0
256 268 387 0
181 -250 275 0
46 228 -398 0
191 -419 427 0
95 270 328 0
270 307 450 0
273 -318 423 0
-83 191 -202 0
-32 -168 336 0
102 280 -419 0
72 235 -335 0
-86 -119 -366 0
-31 -37 437 0
79 -137 238 0
64 155 291 0
-13 -103 -285 0
-55 -194 337 0
53 147 -339 0
4 -125 151 0
183 -298 422 0
380 -383 -436 0
122 -289 -391 0
107 -216 434 0
3 -92 -264 0
-157 390 413 0
123 314 -402 0
-193 293 -384 0
-186 302 398 0
236 268 414 0
250 404 -423 0
-157 -374 -427 0
-68 127 -395 0
237 -343 382 0
169 195 344 0
56 88 -370 0
81 197 313 0
9 397 -423 0
-135 188 286 0
-148 -194 432 0
150 -188 -439 0
-257 -259 -406 0
122 225 420 0
277 -320 415 0
32 -35 -127 0
36 -91 385 0
-89 -179 -329 0
325 363 430 0
-30 56 86 0
161 -232 -255 0
277 -297 -366 0
107 367 -407 0
65 140 -396 0
85 332 410 0
-250 272 -273 0
-27 233 -366 0
-27 -167 218 0
-298 361 -406 0
61 285 312 0
77 -107 -443 0
19 -379 -426 0
96 119 -214 0
-39 -63 -248 0
90 180 338 0
194 211 -391 0
-25 -151 359 0
166 265 -297 0
62 -143 -181 0
-86 -96 115 0
188 -264 299 0
144 -323 -382 0
-63 -228 240 0
346 -362 427 0
-71 -81 350 0
-29 109 404 0
-112 -282 411 0
-49 -246 416 0
25 252 -380 0
-12 186 327 0
142 311 448 0
187 256 336 0
-163 207 213 0
-172 -287 312 0
-8 -242 373 0
-148 -321 -365 0
-127 305 -366 0
45 -95 -377 0
152 -341 -423 0
-253 385 438 0
-189 240 280 0
-126 293 -433 0
-147 169 -434 0
-24 -316 -334 0
57 274 -394 0
-106 159 433 0
-43 -218 -445 0
-10 181 268 0
153 243 383 0
56 83 431 0
5 -111 -406 0
-43 219 262 0
16 305 -365 0
-231 -316 331 0
51 -69 -309 0
60 -85 -290 0
1 190 -325 0
213 -242 -260 0
-79 212 -414 0
-40 99 145 0
-78 134 270 0
-101 303 -367 0
73 99 281 0
-12 -77 -229 0
198 246 408 0
110 123 155 0
207 -284 -374 0
119 -169 394 0
-132 237 -370 0
14 -100 -399 0
-158 285 374 0
-32 -112 -378 0
-6 -16 59 0
135 249 -310 0
-251 279 -329 0
-30 90 -239 0
26 77 -303 0
225 266 -301 0
-207 -406 -414 0
3 -109 450 0
32 -159 -277 0
-176 194 -450 0
-306 -403 -418 0
139 -194 262 0
212 368 -371 0
69 -202 280 0
130 -345 442 0
54 212 -221 0
95 -163 -291 0
348 -415 421 0
71 155 316 0
48 398 -415 0
-28 40 443 0
109 -288 308 0
-109 -215 -339 0
-16 220 -341 0
-257 336 400 0
152 204 328 0
-26 -134 -447 0
24 -87 -217 0
137 340 -364 0
67 99 252 0
-58 215 -250 0
216 234 283 0
-25 -76 -128 0
-167 175 -357 0
130 -212 400 0
-75 246 -309 0
-216 333 422 0
-245 -329 372 0
3 213 -245 0
165 -195 -409 0
11 -38 -84 0
-74 122 179 0
-83 -279 -311 0
18 -139 338 0
-86 -241 430 0
-46 -54 -191 0
131 150 328 0
203 -278 351 0
88 -309 311 0
-7 72 175 0
-34 -261 385 0
-173 -235 251 0
-286 -321 -450 0
-34 -79 294 0
-121 -299 -399 0
-24 -182 -261 0
34 161 -359 0
45 -239 441 0
-16 72 -132 0
36 401 -442 0
-262 -438 444 0
100 358 419 0
76 -100 374 0
-182 -319 356 0
-21 -290 -410 0
-163 187 234 0
22 -139 308 0
242 -315 407 0
148 347 -430 0
19 -197 411 0
-50 -174 -291 0
-16 -245 419 0
-112 -129 -432 0
-26 -160 -279 0
-64 270 284 0
-23 -110 -316 0
222 -334 -354 0
121 -165 201 0
149 -281 -367 0
-18 -105 -394 0
-141 323 369 0
-28 89 158 0
-53 -385 -446 0
-179 -369 -390 0
-17 156 430 0
53 -110 389 0
-93 166 420 0
-229 292 -321 0
-180 -304 330 0
-54 -194 -348 0
-192 217 334 0
138 -298 -433 0
308 -366 412 0
-70 416 -429 0
-53 55 124 0
-149 -352 -439 0
10 -88 -409 0
165 247 -271 0
53 211 -289 0
-83 281 -305 0
-65 -293 -302 0
163 -206 413 0
-154 377 -436 0
42 133 336 0
121 170 -206 0
-76 -77 81 0
108 235 260 0
207 -224 -298 0
12 219 -450 0
211 256 -448 0
33 -367 446 0
280 -318 -369 0
26 76 404 0
-217 298 375 0
-56 238 309 0
-324 329 -345 0
-6 111 -250 0
-1 -122 -396 0
377 -422 -438 0
-119 -220 -403 0
-43 293 -432 0
-25 -248 420 0
18 364 402 0
-313 339 -375 0
-264 330 -342 0
102 178 190 0
-38 142 269 0
-1 275 -289 0
395 -405 -434 0
-166 -282 -291 0
36 -141 -158 0
15 89 -367 0
-39 -276 -322 0
73 228 -388 0
45 302 -352 0
197 216 288 0
-35 -306 -425 0
-171 200 -325 0
-311 328 -415 0
100 228 -259 0
-71 -265 -352 0
-19 182 254 0
102 -147 360 0
208 -406 440 0
136 188 380 0
93 220 -385 0
-211 -235 -404 0
39 -66 -306 0
-60 -395 445 0
116 -132 -446 0
163 -222 368 0
-188 -260 375 0
-120 122 -352 0
56 -281 -305 0
-62 -90 181 0
-83 -259 -297 0
127 268 428 0
-62 94 379 0
121 303 384 0
-48 -117 254 0
-1 132 -365 0
114 180 393 0
59 -331 -415 0
-91 321 -418 0
8 -89 93 0
-227 -237 249 0
44 311 -390 0
9 -348 447 0
-95 106 -166 0
-43 -91 426 0
23 -78 174 0
134 316 376 0
63 372 -400 0
-6 169 257 0
180 -267 386 0
-76 -160 -303 0
68 363 -393 0
89 105 -245 0
52 -107 208 0
11 199 309 0
-318 367 -440 0
187 281 340 0
-137 -234 -260 0
2 -194 319 0
-27 -256 378 0
171 -191 -437 0
74 234 424 0
-26 -97 -115 0
-149 -267 -425 0
16 -52 -58 0
-33 -73 79 0
198 -328 -447 0
158 335 -441 0
315 367 -443 0
155 260 -439 0
184 -320 325 0
-44 -50 128 0
50 -317 377 0
34 -43 -92 0
74 348 381 0
-235 337 433 0
43 53 358 0
-187 246 275 0
-159 319 339 0
-47 -133 229 0
-61 -286 391 0
138 -315 -434 0
-315 321 376 0
265 272 276 0
34 -287 -429 0
197 259 -303 0
167 -280 403 0
41 86 436 0
-108 -160 -272 0
216 -403 415 0
-19 -403 427 0
-50 -95 -417 0
-52 109 172 0
-82 -262 315 0
20 -204 -343 0
-292 395 440 0
4 -223 386 0
-262 -283 363 0
6 94 177 0
-192 -227 232 0
-11 248 386 0
-37 -158 188 0
7 -159 -204 0
-117 308 400 0
-10 25 71 0
-68 -324 -353 0
57 219 -444 0
372 383 414 0
-202 -257 -329 0
34 -289 297 0
123 226 314 0
14 236 260 0
-134 -197 -344 0
-217 412 -440 0
-149 -170 339 0
-9 56 -117 0
103 121 -280 0
303 -407 433 0
-137 271 -376 0
-113 126 281 0
40 113 -130 0
-66 -99 -437 0
187 255 -286 0
176 307 318 0
32 187 338 0
-108 278 388 0
1 -34 192 0
266 314 336 0
-144 -163 307 0
83 158 -206 0
155 -321 336 0
-125 -259 372 0
-17 44 98 0
-106 176 -323 0
18 224 430 0
145 -311 -409 0
264 -275 320 0
-76 421 -429 0
60 98 103 0
200 -264 364 0
58 -344 -367 0
69 186 -372 0
-341 364 366 0
49 126 439 0
-47 -188 -289 0
-52 -150 403 0
140 -213 363 0
-278 296 402 0
-221 304 337 0
155 396 413 0
55 227 -257 0
-124 174 -391 0
-61 -90 -235 0
196 300 308 0
-36 -263 -309 0
-19 137 -396 0
-6 -160 -328 0
41 215 380 0
177 178 433 0
-189 231 420 0
-75 -370 438 0
18 -141 371 0
15 91 262 0
403 438 -440 0
60 -225 387 0
-131 -283 405 0
114 -329 -403 0
-141 -164 331 0
40 -146 422 0
-268 -293 411 0
-247 -316 -331 0
27 34 -105 0
5 -118 385 0
-46 -181 299 0
272 -324 448 0
-184 251 -305 0
-84 189 218 0
64 332 -424 0
-76 336 383 0
217 369 404 0
174 -184 -194 0
28 117 -444 0
130 221 -268 0
71 -187 -445 0
37 -61 312 0
-11 -161 284 0
-123 283 -301 0
161 179 246 0
-308 352 -392 0
88 354 -413 0
-91 -188 321 0
258 320 328 0
-16 -223 368 0
-216 -388 446 0
-38 256 405 0
9 -432 -448 0
-52 183 218 0
-30 -290 -353 0
-138 218 445 0
-275 -307 314 0
-135 -142 174 0
-97 217 305 0
-278 -348 377 0
98 319 -386 0
147 301 -439 0
-22 284 445 0
86 -109 111 0
106 -156 283 0
-220 282 400 0
-52 -326 441 0
168 174 -392 0
193 199 -211 0
-256 282 367 0
48 -271 -316 0
81 -84 352 0
14 -43 209 0
67 -249 281 0
-250 -412 -425 0
-37 81 341 0
133 283 439 0
37 169 -279 0
252 307 -326 0
-49 -100 168 0
55 210 239 0
6 -271 399 0
-147 -431 442 0
-19 -347 404 0
-75 188 -263 0
-43 -273 383 0
436 -442 444 0
-139 204 -238 0
-199 213 427 0
167 185 -278 0
42 202 232 0
-323 400 425 0
161 172 -428 0
49 52 197 0
-11 59 -132 0
-20 155 -200 0
-233 -265 -328 0
-169 170 -281 0
77 121 448 0
71 233 -450 0
-63 -148 198 0
1 58 229 0
-215 -303 312 0
-310 323 -376 0
-319 -376 -440 0
-126 -224 243 0
-304 -346 -408 0
-90 -217 -429 0
-141 -289 -343 0
188 -299 406 0
-48 49 -66 0
152 199 372 0
162 -303 -425 0
11 176 367 0
12 -58 196 0
-184 -198 397 0
-90 317 -359 0
-126 -142 431 0
256 -319 -332 0
-13 98 291 0
2 186 431 0
-8 -26 283 0
68 74 299 0
11 -213 -288 0
-193 245 281 0
205 -404 421 0
9 195 -197 0
347 405 421 0
125 180 -325 0
-155 -278 353 0
217 -241 -394 0
-124 131 347 0
-108 -336 443 0
-97 218 -391 0
-69 -148 -225 0
-201 285 330 0
2 -267 -311 0
-93 163 275 0
-52 -175 260 0
122 -282 328 0
-11 -201 338 0
-6 437 -449 0
221 -257 -282 0
-215 -391 432 0
228 230 420 0
14 228 -315 0
-19 32 271 0
-237 -370 422 0
-46 -139 -410 0
29 -196 -208 0
120 154 319 0
-119 -329 401 0
-142 382 435 0
-13 18 -371 0
-229 -292 -410 0
-57 406 436 0
-109 -292 449 0
-4 149 308 0
271 -323 398 0
263 271 339 0
-315 401 -432 0
-128 -224 441 0
71 -195 296 0
86 -162 -448 0
9 -37 359 0
-47 197 -358 0
-194 262 -363 0
-54 98 -311 0
-40 -302 -411 0
-124 -185 274 0
50 -110 -305 0
-263 293 -419 0
-46 -150 -250 0
119 -243 340 0
30 289 -378 0
-410 -414 419 0
86 325 -360 0
72 107 -158 0
-85 129 167 0
-57 131 -138 0
-297 372 -439 0
62 -123 -284 0
-182 357 384 0
-220 247 444 0
279 375 -426 0
-13 17 407 0
151 -284 -317 0
146 -158 364 0
-104 159 311 0
52 151 445 0
197 -249 374 0
-114 -142 -285 0
149 -264 -276 0
-36 64 389 0
-273 293 -341 0
-324 341 -417 0
158 -235 -277 0
-179 -340 -447 0
35 -273 333 0
45 152 437 0
72 -128 -316 0
-99 117 142 0
1 -386 -410 0
18 30 270 0
159 -327 393 0
-144 -157 282 0
-54 64 429 0
-5 -98 -297 0
-85 261 -300 0
-119 229 -262 0
-64 -237 -331 0
121 -144 -415 0
10 -158 -282 0
-111 -226 -302 0
195 231 -237 0
293 387 413 0
3 -147 -420 0
-120 -347 -412 0
224 327 378 0
100 147 246 0
128 134 269 0
11 265 -283 0
-15 260 409 0
374 -377 -417 0
185 -190 -438 0
-16 175 -415 0
18 -73 -379 0
112 346 -410 0
-32 -260 389 0
-196 -379 450 0
19 170 -384 0
-157 268 313 0
174 -185 386 0
21 88 401 0
61 -220 -412 0
250 -382 -440 0
7 138 -185 0
114 -358 448 0
-71 352 -403 0
-136 230 -403 0
30 222 230 0
83 -153 356 0
79 -180 -200 0
-85 220 281 0
161 -164 277 0
-39 -338 -386 0
214 396 422 0
-148 202 -435 0
102 428 -445 0
-325 -439 443 0
109 370 434 0
63 69 -368 0
32 -123 311 0
-227 324 -410 0
92 126 -277 0
93 -254 -361 0
-101 -103 -275 0
47 -372 -374 0
116 293 434 0
32 -118 245 0
-5 132 -200 0
92 -147 312 0
5 186 -261 0
-14 118 161 0
-56 -113 -235 0
-39 -45 101 0
-73 140 258 0
-28 56 202 0
126 -188 318 0
15 257 407 0
117 -232 396 0
83 -274 342 0
112 -421 430 0
131 356 -371 0
244 -272 388 0
-85 197 -211 0
86 281 324 0
66 -150 -335 0
142 -244 413 0
174 -185 -439 0
-169 345 394 0
195 291 356 0
82 -103 250 0
117 -135 373 0
-134 235 268 0
-239 -291 351 0
75 -195 -332 0
100 102 -239 0
106 -238 362 0
-6 -246 -252 0
-158 163 -399 0
200 -401 429 0
129 195 -411 0
-90 -165 354 0
-256 353 415 0
-71 -255 -333 0
-109 174 424 0
-162 192 212 0
290 329 -376 0
-174 263 -357 0
-13 142 302 0
-212 262 379 0
238 -317 357 0
-138 -169 -312 0
-297 -339 440 0
