p cnf 450 1917
44 270 -372 0
-121 193 -246 0
92 -93 -209 0
-59 -354 412 0
366 -402 445 0
-59 162 -240 0
-304 -323 445 0
-21 -90 242 0
-7 -62 -235 0
161 -345 -346 0
-143 206 308 0
168 176 -290 0
-171 210 -348 0
43 61 -313 0
-90 -97 251 0
-92 -299 447 0
19 213 358 0
59 165 -307 0
25 45 70 0
33 -234 251 0
69 -203 -317 0
-14 -149 -178 0
79 285 448 0
153 195 -369 0
138 417 -447 0
70 376 378 0
176 312 -392 0
-120 214 400 0
-38 -49 401 0
-5 -78 -176 0
261 -276 -305 0
-51 163 -412 0
176 210 -378 0
-210 315 443 0
-233 -250 447 0
63 188 -428 0
-88 -119 235 0
-78 187 -223 0
248 258 -267 0
-29 -197 -267 0
232 316 -432 0
-254 -391 -415 0
-9 -51 97 0
-6 -152 407 0
25 172 -273 0
-46 178 269 0
-30 -212 283 0
-92 -334 443 0
-61 -62 374 0
-35 423 -424 0
-91 -243 287 0
78 -377 392 0
-331 -357 -380 0
43 -166 -407 0
16 98 -444 0
156 337 397 0
38 -239 320 0
-180 -241 358 0
-6 -30 388 0
-154 230 238 0
-98 -295 359 0
106 354 449 0
-53 -208 385 0
20 21 -369 0
59 220 322 0
116 225 239 0
41 287 -364 0
-51 -283 394 0
54 -325 326 0
367 422 436 0
-24 284 -422 0
-209 -211 -345 0
-214 -223 432 0
31 108 390 0
165 -328 -337 0
255 -282 -434 0
-157 -262 325 0
-119 -207 -450 0
77 265 372 0
-201 -269 -369 0
-21 -69 -405 0
-100 222 -411 0
-29 153 373 0
-99 -187 367 0
207 -281 -446 0
19 100 120 0
112 -162 -430 0
205 -377 -382 0
-291 317 -331 0
56 145 185 0
144 176 -418 0
57 -158 -386 0
277 -317 426 0
-141 261 -305 0
-117 -137 164 0
-32 74 -324 0
-42 -359 -415 0
-21 -87 298 0
88 -178 -301 0
-166 251 343 0
40 69 -203 0
356 398 410 0
25 -270 -344 0
189 -209 341 0
112 126 -441 0
-1 -211 350 0
36 204 252 0
353 -386 443 0
-88 208 292 0
1 -137 370 0
373 -416 -436 0
-223 250 -377 0
-62 156 354 0
-193 264 378 0
21 -185 -363 0
31 -214 419 0
57 269 -418 0
93 -369 -432 0
-42 365 400 0
-81 -265 -267 0
-107 126 -234 0
100 406 411 0
14 -111 -234 0
214 -290 311 0
-178 290 -415 0
219 -279 324 0
215 -345 387 0
-160 -405 -413 0
-24 -76 -171 0
192 -265 340 0
-63 88 -235 0
-302 324 339 0
-100 -197 404 0
45 -200 -296 0
104 -173 203 0
-125 270 383 0
13 322 417 0
111 -268 -280 0
-283 292 374 0
28 178 -282 0
215 -330 407 0
14 210 375 0
68 124 -344 0
320 -322 372 0
-59 -101 -371 0
227 232 -272 0
169 -171 -315 0
-151 -197 328 0
-38 -74 -418 0
-358 -384 -389 0
-141 -206 -323 0
-253 347 443 0
197 -407 449 0
226 -269 280 0
-70 -350 448 0
134 -211 238 0
-190 193 311 0
121 177 -359 0
-74 149 -225 0
-60 -128 -238 0
21 43 -267 0
161 -335 -382 0
82 163 -281 0
54 -116 319 0
-46 -311 -397 0
-22 97 290 0
-60 -140 303 0
206 -369 377 0
-52 -147 -436 0
-73 -131 341 0
-104 -184 381 0
13 -421 -447 0
28 -42 399 0
-134 -219 357 0
-28 138 387 0
53 113 -416 0
-135 441 444 0
-5 -106 150 0
-131 301 -335 0
-340 -341 -350 0
-41 -147 -282 0
237 -378 -430 0
230 354 389 0
-171 -391 -447 0
-355 -405 423 0
-202 -270 -418 0
143 -213 216 0
-143 -325 -448 0
-64 -340 -375 0
-104 -251 -348 0
-17 -146 -433 0
40 76 -111 0
165 -199 -350 0
-183 -210 331 0
-20 -59 278 0
26 108 430 0
4 -296 -433 0
-17 43 332 0
-8 209 417 0
-97 -127 347 0
-107 -262 -309 0
1 -126 -161 0
-233 285 -442 0
136 176 -272 0
-209 -374 -409 0
89 180 -193 0
22 -37 -187 0
-186 -208 216 0
186 353 392 0
241 -319 -342 0
-62 -249 -429 0
-298 -344 -449 0
39 94 134 0
106 180 -449 0
188 -228 -316 0
3 -69 100 0
-3 271 380 0
17 -48 360 0
-207 209 -440 0
25 -42 -70 0
-298 379 380 0
11 300 -328 0
112 236 -429 0
36 292 309 0
347 360 439 0
213 -409 412 0
-229 -428 444 0
20 -21 183 0
217 271 -401 0
78 -107 232 0
-42 258 -366 0
59 124 232 0
-49 -226 -439 0
-124 -224 -267 0
-145 394 -442 0
-33 142 330 0
178 283 -337 0
-68 -269 -442 0
196 247 450 0
56 164 -449 0
-6 -220 -292 0
-92 323 -401 0
159 -295 356 0
-110 357 407 0
126 274 316 0
-73 -94 -410 0
-47 -86 -319 0
193 -362 -445 0
203 -242 346 0
23 84 -380 0
213 -367 -418 0
97 367 -414 0
6 -298 328 0
-211 354 -382 0
-33 -291 -406 0
-26 -88 -360 0
-147 -232 304 0
-69 303 -327 0
-86 402 -422 0
78 -105 -152 0
-100 -230 424 0
171 176 -194 0
-127 230 330 0
-50 -128 -352 0
-66 78 332 0
-53 141 266 0
-31 248 250 0
-173 -359 383 0
-102 -173 269 0
79 -289 -431 0
-161 -219 374 0
212 271 -435 0
176 -191 244 0
-49 -327 -415 0
-198 -213 -397 0
13 -101 -191 0
214 -299 425 0
-149 165 339 0
129 -269 -439 0
71 75 368 0
-147 -183 198 0
-61 97 -349 0
-267 -398 -435 0
125 -168 -401 0
-142 308 -317 0
-120 -357 393 0
-12 238 263 0
-110 -152 -305 0
331 -334 -447 0
-39 -130 222 0
-112 -377 -403 0
93 181 331 0
-104 267 410 0
-3 75 238 0
109 -121 -254 0
38 -64 334 0
-92 -300 332 0
203 -218 -347 0
-105 -295 369 0
-143 -206 -356 0
32 111 -268 0
10 192 405 0
-50 153 307 0
57 62 218 0
15 24 -81 0
-47 369 446 0
61 -85 -385 0
292 -438 -444 0
74 219 -230 0
-75 -262 291 0
167 -333 442 0
-91 187 -420 0
-6 -199 339 0
258 290 340 0
42 -165 317 0
57 -82 393 0
-22 -258 421 0
-51 -64 -364 0
42 48 365 0
-2 -43 418 0
180 -248 -296 0
35 -250 338 0
275 -378 379 0
14 63 65 0
23 -246 -448 0
79 -216 417 0
27 -304 -326 0
-51 99 -138 0
-314 -350 -361 0
-52 84 358 0
-117 -156 171 0
-165 -215 -441 0
95 96 210 0
287 342 -394 0
-39 208 309 0
148 334 -373 0
-47 171 194 0
-51 -146 -289 0
-4 -139 340 0
-187 -210 -328 0
9 -323 378 0
11 96 119 0
-21 -71 -366 0
-10 167 423 0
-160 377 401 0
28 123 -258 0
60 -410 -415 0
342 -376 425 0
137 -176 258 0
-162 214 -261 0
-267 310 433 0
145 151 -238 0
-152 -208 247 0
159 165 -333 0
91 -111 -173 0
-20 387 431 0
-122 -221 -298 0
162 -223 -410 0
75 93 -287 0
94 232 246 0
108 370 -402 0
-13 -126 -415 0
-42 -168 432 0
4 304 342 0
-22 132 -253 0
-107 230 279 0
215 320 -447 0
-60 207 -435 0
-169 -361 -375 0
79 183 426 0
-176 -343 409 0
233 -264 376 0
-89 -214 274 0
-107 -266 -400 0
66 -118 400 0
-98 -193 -383 0
282 -339 386 0
-161 -164 287 0
184 -286 441 0
52 110 -259 0
-7 -325 444 0
123 156 -323 0
9 417 442 0
-125 286 395 0
40 41 375 0
129 204 -333 0
17 -232 -446 0
-90 -292 -353 0
163 -398 412 0
-43 63 -214 0
-167 -369 -381 0
-336 -429 445 0
175 266 341 0
121 -157 378 0
-190 -272 -385 0
19 -170 -375 0
154 -177 -272 0
40 81 -417 0
67 -266 330 0
-24 -51 139 0
256 -425 444 0
-174 -221 -361 0
131 -362 405 0
54 -141 448 0
328 -349 -415 0
10 172 -425 0
299 -325 404 0
-250 -287 385 0
-112 294 390 0
189 -204 -272 0
-145 168 211 0
5 292 -421 0
-16 243 -410 0
29 400 -426 0
241 324 -405 0
67 194 -352 0
-160 -241 343 0
110 -195 423 0
136 299 -344 0
35 -56 -75 0
133 -181 286 0
20 -61 -365 0
-57 69 72 0
299 329 418 0
15 196 -339 0
-312 358 -442 0
10 -78 151 0
28 -371 412 0
65 -346 405 0
102 182 -440 0
40 -111 391 0
-22 94 322 0
-295 306 448 0
-72 -327 379 0
-53 -260 -346 0
127 -225 286 0
-89 276 282 0
48 -318 385 0
-11 111 -348 0
-34 -288 -435 0
-8 35 -106 0
-4 275 -385 0
100 173 344 0
89 -186 -436 0
27 -229 241 0
-76 -108 -386 0
-304 -366 -442 0
243 264 -309 0
56 225 342 0
-63 -273 330 0
121 291 -365 0
153 -154 -267 0
34 -311 -386 0
231 -367 415 0
-292 -301 -359 0
77 238 -242 0
-94 201 -288 0
288 -304 364 0
-135 -225 -426 0
-89 275 408 0
-175 -206 -449 0
-335 -377 445 0
-125 232 362 0
39 86 -125 0
-11 -248 -303 0
-299 -327 403 0
-8 61 356 0
-49 -249 -272 0
213 351 -416 0
-56 -217 225 0
19 225 296 0
297 -364 374 0
14 -74 364 0
34 91 443 0
120 -265 268 0
-109 160 -212 0
95 375 381 0
-192 193 -377 0
106 429 -437 0
-226 332 -399 0
94 -134 348 0
-148 -175 -424 0
-96 122 329 0
76 -189 -278 0
-41 416 435 0
-392 423 -425 0
-38 92 409 0
151 -156 287 0
140 169 -446 0
-253 328 -410 0
-187 -278 356 0
-325 374 388 0
-36 -223 -402 0
-22 -250 -368 0
23 -98 136 0
202 -421 -438 0
-29 354 -363 0
316 -364 418 0
93 107 -385 0
-204 411 429 0
36 -108 394 0
-6 60 -174 0
-49 67 317 0
-128 339 367 0
-95 -107 -209 0
84 209 376 0
59 -64 239 0
-196 -217 242 0
260 384 -408 0
-30 101 -136 0
167 -172 -333 0
75 150 -223 0
82 333 -382 0
234 334 -386 0
48 373 443 0
198 -283 -415 0
46 148 385 0
13 84 -391 0
-193 -206 -282 0
240 -323 -418 0
29 -55 -164 0
-185 -380 409 0
-66 -206 264 0
-33 -117 293 0
82 168 -332 0
-86 350 -355 0
-94 286 345 0
145 338 -425 0
62 82 -171 0
-39 106 165 0
21 -196 -217 0
-101 -197 292 0
105 330 -425 0
-126 345 -356 0
33 -244 342 0
-94 -171 -185 0
-171 -291 370 0
116 179 180 0
-251 -302 383 0
101 -242 353 0
40 143 263 0
-98 100 -278 0
145 -301 367 0
178 246 285 0
7 100 111 0
252 -355 366 0
-116 -241 -398 0
273 274 277 0
87 -265 382 0
-31 -308 -364 0
13 54 66 0
25 -65 -305 0
258 264 344 0
200 -208 -341 0
-227 -326 389 0
57 -157 329 0
108 -143 220 0
-61 -391 438 0
-28 -114 335 0
224 -421 -432 0
-109 165 -408 0
50 300 -418 0
-68 293 299 0
10 -110 -305 0
-23 261 444 0
-50 -89 -371 0
225 -246 258 0
-7 -165 -284 0
139 -170 -424 0
205 -252 -388 0
38 -294 447 0
150 -347 -415 0
-58 -219 -305 0
-212 361 442 0
-36 -132 311 0
-107 -153 -260 0
3 -39 100 0
5 234 -254 0
72 276 408 0
-39 260 266 0
-116 -135 -432 0
-248 -339 435 0
-194 413 -426 0
92 305 -406 0
-56 -209 -249 0
-89 -110 -352 0
-62 -155 -331 0
-84 176 430 0
155 -218 -407 0
-173 279 355 0
-335 353 -445 0
14 186 -284 0
110 -256 -283 0
146 271 -276 0
36 -121 216 0
-316 -320 373 0
78 329 411 0
181 186 -284 0
-189 -231 -373 0
71 241 381 0
-101 202 -449 0
-75 -107 -292 0
-19 -130 232 0
14 229 -245 0
-25 45 150 0
-201 353 367 0
-12 -109 -175 0
123 -325 337 0
157 -269 368 0
-128 -267 280 0
347 367 -386 0
55 190 -267 0
32 68 444 0
-254 440 -448 0
-137 -165 -252 0
-125 322 419 0
-241 248 -330 0
-67 259 -307 0
9 68 197 0
-237 305 377 0
7 311 420 0
10 114 -223 0
-16 181 260 0
-70 203 288 0
-192 428 450 0
-333 -336 387 0
-17 -423 442 0
209 347 421 0
-202 -334 403 0
-21 -39 340 0
-231 -253 408 0
-321 -322 -366 0
179 182 -372 0
53 -238 271 0
80 -101 -381 0
-3 63 113 0
-78 246 303 0
-104 185 242 0
251 -443 444 0
260 405 425 0
106 -183 -377 0
214 -215 -225 0
-92 -168 -370 0
-18 -162 -364 0
-39 -62 -429 0
39 -59 -131 0
-157 -288 -400 0
201 254 303 0
-91 204 280 0
201 441 -450 0
212 -247 253 0
-239 319 446 0
-26 -227 449 0
113 -281 -331 0
354 -368 412 0
-53 190 -237 0
-170 290 -310 0
136 167 -250 0
-244 361 -371 0
-227 233 -430 0
-16 -79 145 0
-60 -106 -235 0
-116 280 351 0
-264 -352 -410 0
-17 -222 -418 0
125 -146 -221 0
68 -92 394 0
61 -248 -297 0
231 260 -373 0
-164 291 -446 0
-121 205 242 0
245 -261 -340 0
99 -279 -359 0
-83 306 428 0
150 -200 -314 0
28 173 291 0
16 -123 -415 0
16 -211 -370 0
269 -292 -426 0
-111 -168 245 0
4 -187 -346 0
-98 269 -439 0
-259 -274 385 0
-66 75 88 0
-33 -75 149 0
11 -341 445 0
-11 -79 -165 0
-92 264 284 0
-40 144 -184 0
-270 287 -351 0
23 -84 -132 0
26 -161 219 0
-282 288 366 0
-40 256 375 0
157 192 -303 0
-260 294 -427 0
81 -213 312 0
129 250 418 0
9 -99 -110 0
-3 208 381 0
4 -246 -424 0
189 352 353 0
65 -76 152 0
-95 -255 -348 0
-174 378 418 0
343 -361 -385 0
-243 280 -312 0
-9 -106 411 0
142 -201 -348 0
28 187 -377 0
-17 -28 -370 0
-313 -442 -450 0
72 212 347 0
226 364 -401 0
211 217 -321 0
-31 49 -348 0
-50 -129 201 0
-225 -404 -406 0
141 -318 447 0
90 182 305 0
1 140 -151 0
-70 256 274 0
-50 169 -376 0
-59 206 -431 0
82 119 -384 0
-1 -258 -294 0
1 325 372 0
55 141 -387 0
41 46 -97 0
-76 -138 160 0
-23 65 -304 0
-22 -327 -405 0
69 -121 289 0
-13 -224 284 0
-12 -48 147 0
-6 124 158 0
82 -94 407 0
-177 -222 -276 0
32 111 -173 0
-202 413 -423 0
136 301 -353 0
15 242 279 0
61 198 299 0
93 -181 337 0
90 -93 377 0
68 -273 374 0
-172 251 -426 0
50 -68 122 0
51 -114 370 0
-101 -108 112 0
43 177 316 0
28 -147 293 0
90 173 -216 0
-147 250 -259 0
-38 248 -400 0
57 -161 219 0
-54 198 -420 0
-141 385 410 0
-262 -432 445 0
-167 -244 321 0
82 326 363 0
-370 407 -428 0
-253 -302 -309 0
-93 223 280 0
-10 141 150 0
16 319 -406 0
-127 208 -406 0
-103 387 407 0
28 -91 -167 0
-16 -272 414 0
92 187 335 0
37 103 273 0
-33 81 273 0
15 -253 344 0
-3 -24 432 0
-217 239 -346 0
-101 142 415 0
53 165 173 0
-234 362 -430 0
-93 -100 117 0
-92 114 -422 0
-30 218 397 0
-219 -284 398 0
-260 -390 -428 0
-102 -306 -448 0
-195 -257 347 0
141 265 -436 0
-157 378 444 0
-17 177 416 0
44 -200 259 0
-91 -219 -321 0
-141 -300 390 0
-103 -137 -298 0
-20 -198 -266 0
-12 18 -21 0
99 177 417 0
-41 67 -332 0
-210 -245 -350 0
-185 311 -424 0
-176 -235 254 0
72 156 216 0
-210 285 -448 0
108 413 -428 0
19 -154 -423 0
9 193 -369 0
-125 274 -360 0
-197 -400 438 0
-199 270 -414 0
285 328 408 0
-7 279 -355 0
192 256 360 0
-184 -292 297 0
31 -200 424 0
4 -44 -104 0
-23 204 311 0
74 345 -442 0
-22 169 -337 0
230 -327 333 0
61 226 399 0
70 -86 -308 0
140 223 443 0
-12 179 -415 0
191 -230 246 0
198 -276 441 0
118 158 -426 0
-256 427 -430 0
219 295 377 0
23 -139 167 0
78 -339 411 0
188 227 -234 0
-209 -402 421 0
184 -211 -411 0
44 -249 341 0
-51 199 -203 0
210 361 434 0
-55 61 -427 0
68 -99 -257 0
81 -315 338 0
9 96 -402 0
5 -74 -189 0
-26 242 -436 0
232 -350 -397 0
122 318 -362 0
-276 361 363 0
-68 194 271 0
-178 -205 439 0
17 -111 371 0
-3 -202 320 0
60 -192 258 0
74 114 -161 0
257 -347 -374 0
-46 -342 384 0
56 102 -442 0
15 71 -127 0
142 -360 -446 0
-31 331 -347 0
-90 217 -272 0
34 -90 -163 0
112 117 361 0
11 -261 263 0
61 100 422 0
5 109 -246 0
34 -130 145 0
-217 -321 -349 0
-255 374 392 0
-52 -101 377 0
-116 323 371 0
81 -158 -449 0
-75 184 295 0
117 -321 -339 0
-71 -115 291 0
-179 216 -281 0
-49 -326 338 0
-3 -268 -325 0
123 170 229 0
-17 25 99 0
131 -178 -444 0
71 -420 443 0
-198 251 263 0
-269 323 450 0
43 -124 290 0
-13 -123 311 0
-88 103 353 0
-303 321 -434 0
-86 -410 435 0
-158 275 -412 0
-93 109 -408 0
68 305 340 0
169 195 -238 0
-74 263 300 0
211 -246 320 0
291 296 340 0
-108 -334 -359 0
-25 -122 -273 0
155 -183 -438 0
114 340 421 0
3 -9 265 0
151 242 379 0
61 291 416 0
-30 -79 358 0
-301 349 -427 0
-122 -144 254 0
-98 -316 325 0
-89 -121 -216 0
148 -371 -416 0
23 314 -372 0
-143 381 383 0
166 206 -379 0
20 152 -337 0
-150 159 386 0
-64 -219 314 0
5 256 439 0
298 -332 -353 0
-116 234 347 0
-66 168 234 0
-17 25 -78 0
260 361 408 0
54 -90 -412 0
100 -234 -242 0
83 221 -257 0
165 -266 -419 0
14 -73 187 0
-5 6 -81 0
-4 329 -440 0
-169 -392 437 0
-77 98 -260 0
-195 -338 -372 0
183 -256 347 0
-204 355 -364 0
29 -209 241 0
139 430 431 0
17 -55 74 0
4 -288 364 0
28 -214 419 0
-165 -377 439 0
347 -354 -365 0
171 -302 -359 0
-210 -322 -399 0
-242 336 414 0
129 281 -437 0
-54 -138 -366 0
28 130 -274 0
117 -205 423 0
99 -100 -132 0
-185 -202 401 0
-34 87 -334 0
234 -317 -386 0
-84 300 -407 0
155 -200 -304 0
125 364 -422 0
209 397 416 0
-8 -272 -414 0
55 90 -263 0
-48 117 -118 0
-109 -207 -213 0
-25 70 -194 0
19 -262 -301 0
21 -89 -96 0
166 -170 188 0
-49 -320 -390 0
-21 86 -168 0
-111 156 -392 0
-25 79 201 0
22 -135 -169 0
154 376 427 0
212 281 346 0
120 -356 -382 0
-40 -426 433 0
-255 366 412 0
-51 145 -430 0
34 38 361 0
3 -176 -414 0
178 187 272 0
-33 190 382 0
42 82 -367 0
-20 -85 288 0
-36 -231 -341 0
-89 -139 -273 0
98 247 -396 0
-44 -65 424 0
-7 -73 374 0
148 149 -371 0
-71 258 -273 0
75 -117 -358 0
9 74 393 0
77 -123 -425 0
-76 -436 439 0
-214 -321 -416 0
53 252 -369 0
41 -119 375 0
224 256 428 0
-341 343 -379 0
-199 320 -400 0
-248 -269 -353 0
-114 121 -388 0
-66 138 -274 0
-114 -174 -215 0
177 -201 -274 0
-95 -160 315 0
-67 -70 -265 0
21 200 -306 0
251 445 -450 0
-59 -262 -300 0
43 111 336 0
22 68 -314 0
-65 138 -316 0
99 327 345 0
194 409 -429 0
-44 -275 413 0
45 87 -298 0
-16 -338 366 0
114 165 207 0
1 263 324 0
326 -413 441 0
-40 346 426 0
-52 -130 198 0
-57 -116 -314 0
50 241 -379 0
211 302 -323 0
-195 -325 387 0
-124 317 450 0
-126 135 -343 0
-269 345 355 0
71 -88 -436 0
-87 -298 306 0
185 257 330 0
50 -54 -338 0
14 -202 -250 0
27 325 -367 0
17 87 223 0
245 -330 348 0
175 -232 393 0
-77 -129 209 0
-39 307 -370 0
-23 -126 434 0
76 270 317 0
-15 103 166 0
-49 -161 335 0
95 -114 286 0
27 51 -270 0
-7 -89 137 0
172 -189 314 0
-65 118 -303 0
75 125 -341 0
141 338 -397 0
-85 181 332 0
151 -331 -408 0
92 300 417 0
175 222 312 0
-31 373 405 0
10 86 218 0
198 -289 -372 0
-123 149 -384 0
18 42 -324 0
-173 -189 436 0
132 -141 437 0
256 -382 -450 0
-108 165 238 0
-12 -222 236 0
97 105 -381 0
3 345 433 0
-183 229 366 0
-128 -136 -291 0
34 206 -301 0
-243 342 -407 0
246 -341 405 0
13 -343 -386 0
-19 -351 -386 0
87 -314 -405 0
-216 381 390 0
-256 -303 356 0
36 -266 -307 0
-45 169 -406 0
113 324 -437 0
55 -149 -216 0
109 -320 449 0
107 -374 411 0
-116 198 360 0
-214 274 -278 0
-333 387 423 0
-161 -194 295 0
197 -242 431 0
1 186 417 0
-65 165 -202 0
35 85 -225 0
-137 -243 360 0
151 322 -381 0
71 -283 402 0
212 -355 450 0
41 93 -348 0
-165 -257 315 0
31 -135 218 0
62 102 294 0
266 -375 -399 0
-128 -403 -444 0
-170 -217 -258 0
75 200 -275 0
-72 73 238 0
30 96 235 0
109 376 -399 0
151 187 318 0
24 116 449 0
-37 -82 122 0
-19 -183 -431 0
-275 -339 -389 0
37 246 427 0
83 -110 350 0
12 410 -443 0
15 -41 46 0
-289 386 -425 0
-3 -16 264 0
-144 -166 343 0
230 282 -375 0
89 194 -262 0
288 368 450 0
97 272 -360 0
15 23 97 0
-56 -152 -414 0
-108 -349 -372 0
84 -153 450 0
-132 -303 360 0
114 -399 -412 0
-316 370 -410 0
-13 42 232 0
-252 -372 390 0
-220 -228 -377 0
-127 -357 424 0
156 279 -395 0
-75 -148 -352 0
-51 58 -217 0
-227 -278 -424 0
52 -252 429 0
177 289 -324 0
24 73 363 0
-134 198 -404 0
-99 -142 276 0
-15 204 268 0
-11 -116 309 0
52 239 450 0
-139 -241 -446 0
-324 -418 432 0
-132 251 -440 0
82 -414 421 0
-129 134 427 0
238 -246 304 0
140 -285 443 0
-58 -99 -269 0
-148 -312 321 0
-94 116 173 0
172 -209 360 0
-77 -160 -196 0
88 145 -366 0
24 -302 -434 0
81 -336 -447 0
60 270 -380 0
4 151 -340 0
-19 126 193 0
129 -231 -289 0
-56 171 -398 0
227 -322 351 0
-41 -223 238 0
-169 -207 392 0
-101 155 280 0
170 -215 -402 0
-207 -294 -443 0
-30 53 147 0
-167 205 240 0
-17 126 -160 0
-130 -272 -371 0
3 -6 -302 0
111 -151 430 0
83 -327 -416 0
-119 -318 -331 0
13 164 387 0
102 195 205 0
320 -373 -417 0
-102 -140 -148 0
9 32 75 0
-193 -284 -325 0
-74 -125 -254 0
-20 -129 -227 0
122 158 -388 0
-56 291 332 0
56 -194 -376 0
188 -204 -308 0
-79 236 267 0
-128 -357 -400 0
65 -216 411 0
193 -275 439 0
-52 153 -210 0
-111 196 -447 0
45 -231 359 0
271 287 -320 0
269 348 -430 0
-37 -154 -215 0
-13 115 317 0
74 76 337 0
73 137 157 0
13 298 404 0
263 -317 -356 0
-206 -318 358 0
151 377 436 0
18 -151 -411 0
188 -289 371 0
82 177 -203 0
-38 -102 -194 0
-11 253 426 0
-170 -298 -411 0
-101 -115 -444 0
58 -228 -409 0
39 55 259 0
-134 161 -438 0
146 228 -236 0
93 -95 353 0
105 119 -360 0
-34 -219 338 0
41 60 -268 0
44 -153 -415 0
124 168 251 0
36 -253 -446 0
-32 -84 201 0
12 58 -233 0
-10 141 295 0
-4 82 296 0
157 -184 255 0
-7 174 354 0
55 314 -376 0
-138 299 -417 0
-45 132 -333 0
-221 -349 422 0
-101 231 261 0
-156 -227 -353 0
-18 -165 -393 0
-55 -219 425 0
-52 160 165 0
-111 -343 447 0
-73 -127 319 0
65 -71 -390 0
-266 -316 -342 0
-256 264 -370 0
-110 245 448 0
88 -94 139 0
-39 -364 -369 0
-393 -394 -426 0
92 -141 -163 0
-198 246 -353 0
-173 351 -432 0
137 171 -415 0
205 306 -369 0
118 -276 350 0
66 -359 376 0
-70 148 173 0
-28 -323 326 0
-13 29 232 0
-29 348 -392 0
-45 254 -292 0
-82 226 -411 0
148 288 429 0
-78 -225 338 0
67 -249 -325 0
142 -223 -244 0
135 149 153 0
41 -147 329 0
46 154 -317 0
-14 202 204 0
-167 397 399 0
-129 137 -383 0
-77 265 -334 0
53 265 286 0
-39 -150 -429 0
-26 253 -340 0
20 171 -186 0
-130 292 340 0
223 269 -369 0
91 198 321 0
-5 -113 -201 0
54 107 217 0
173 -372 434 0
-77 267 -342 0
89 215 284 0
-44 -206 -284 0
-25 -71 -180 0
215 -326 345 0
50 207 -223 0
12 -230 -247 0
-182 -188 -354 0
-146 327 -330 0
-53 -121 123 0
35 203 -415 0
-14 -153 251 0
314 338 -404 0
12 58 123 0
-132 -233 -449 0
-17 -25 -440 0
-56 400 401 0
-351 389 394 0
120 206 349 0
43 -285 381 0
122 -183 351 0
-15 -241 346 0
74 -253 -265 0
-75 -266 394 0
-15 228 449 0
-3 -148 380 0
-157 361 -394 0
-6 45 79 0
52 -250 444 0
-22 236 330 0
84 159 -219 0
-250 320 341 0
-32 51 -56 0
22 171 179 0
-209 349 -441 0
14 125 -250 0
-229 237 272 0
-235 -288 -408 0
-84 94 402 0
135 215 433 0
128 210 -224 0
166 -286 408 0
-245 -297 421 0
58 121 -273 0
32 -53 441 0
-115 -155 391 0
-80 264 416 0
51 -148 151 0
85 -99 -245 0
-237 345 -447 0
14 154 -165 0
321 354 370 0
-276 -334 -396 0
137 240 389 0
270 -280 -373 0
-106 -112 -316 0
110 289 -392 0
81 -285 -416 0
113 125 444 0
-96 -221 -269 0
-85 227 -391 0
68 195 -267 0
-15 -88 -176 0
-44 197 -423 0
47 -187 193 0
-33 -181 261 0
84 -162 -337 0
39 -51 367 0
-198 -316 418 0
157 -233 365 0
-108 224 244 0
73 -161 -446 0
111 320 322 0
-142 314 407 0
97 109 -191 0
-21 72 -160 0
-135 -323 363 0
247 -343 444 0
94 -232 327 0
-212 -298 355 0
82 211 -213 0
90 -305 318 0
76 -196 209 0
192 -270 396 0
-184 273 -412 0
-47 97 168 0
67 410 -439 0
133 -308 -389 0
92 -381 403 0
-26 119 168 0
48 -295 -410 0
-111 130 350 0
5 -8 -303 0
-306 -425 -431 0
-366 380 -449 0
-211 -365 384 0
65 -106 -380 0
-144 145 -224 0
321 -329 -388 0
-32 -114 394 0
-355 -360 411 0
22 -52 -143 0
5 -182 -228 0
338 -339 -385 0
92 -355 447 0
95 171 -222 0
17 111 -427 0
-20 -239 251 0
80 443 -448 0
-68 -97 110 0
11 -312 431 0
147 -210 -315 0
-194 -240 -333 0
77 244 434 0
-45 -96 -165 0
-22 -373 -422 0
47 303 415 0
-12 124 -318 0
40 -219 -271 0
86 -210 -246 0
282 -312 400 0
41 -139 351 0
-268 -363 401 0
-214 254 395 0
-68 203 221 0
364 414 439 0
-72 236 400 0
7 216 -435 0
-113 -170 275 0
-29 -45 -404 0
-35 223 -394 0
269 334 -371 0
339 352 357 0
-15 78 -142 0
313 -402 445 0
-209 -367 386 0
-45 -206 -440 0
117 255 -385 0
117 -236 303 0
-176 313 430 0
-5 22 357 0
-306 -398 440 0
86 -232 -399 0
75 -376 -377 0
-125 156 -300 0
-23 -339 379 0
13 -283 -412 0
60 331 -359 0
72 130 152 0
41 -299 -321 0
-108 -237 -336 0
97 100 194 0
-80 -336 -394 0
98 -174 -374 0
-34 42 -254 0
-106 -308 313 0
-55 246 355 0
-48 -109 114 0
-210 232 -402 0
139 -231 -274 0
-258 -281 402 0
184 -197 429 0
-39 -138 -331 0
326 327 444 0
60 263 266 0
128 160 191 0
-97 202 -390 0
-9 223 -382 0
157 254 -337 0
-3 154 -202 0
-59 -239 334 0
-181 -273 435 0
94 -230 233 0
-212 -238 410 0
212 272 -348 0
-343 -354 -379 0
-86 169 176 0
24 -290 372 0
258 386 392 0
20 223 -365 0
37 -78 -435 0
-14 -164 -339 0
61 124 -250 0
-99 340 -371 0
-88 -181 362 0
-115 -213 -256 0
-77 -241 400 0
-36 -198 247 0
202 -218 -264 0
-69 89 193 0
361 -384 -423 0
-20 202 -299 0
236 300 337 0
-149 -163 368 0
42 213 387 0
128 140 -150 0
-104 135 281 0
-146 -327 -368 0
115 229 387 0
-12 154 335 0
130 344 -435 0
84 104 -203 0
334 -378 -418 0
-45 132 -172 0
-3 -324 391 0
85 -115 -369 0
-41 199 214 0
112 -217 255 0
-23 -86 -287 0
-257 -273 408 0
220 334 401 0
-14 -141 204 0
-256 -337 386 0
24 311 409 0
9 -11 -98 0
-215 263 378 0
1 -95 -369 0
-12 -171 250 0
-26 273 -422 0
-173 288 -303 0
-159 -295 406 0
62 136 -225 0
-258 -319 -412 0
104 -204 -442 0
116 -290 329 0
109 -195 371 0
130 -145 297 0
209 -312 -364 0
-142 310 328 0
-243 300 443 0
140 276 -344 0
-26 370 404 0
-28 100 -105 0
-130 -208 -433 0
-5 116 358 0
-86 -223 -379 0
113 -223 -251 0
-41 344 -449 0
144 -244 -388 0
186 -278 383 0
-65 142 -437 0
21 -301 -318 0
124 175 -340 0
17 -98 271 0
-212 254 359 0
198 249 -379 0
-125 165 -277 0
82 -108 285 0
4 -107 -358 0
-61 213 -332 0
172 -293 -332 0
-223 248 -250 0
-167 218 292 0
-211 233 -300 0
-163 -279 389 0
-128 377 450 0
59 144 -378 0
72 -179 418 0
36 -110 -213 0
25 -345 -347 0
36 302 358 0
326 332 -408 0
-267 -339 -385 0
241 304 342 0
-64 277 416 0
-194 -213 338 0
-31 -138 -329 0
15 189 -274 0
-196 -333 382 0
-303 337 -424 0
68 111 -407 0
6 21 55 0
-11 20 -23 0
-229 -355 -422 0
-247 -362 437 0
10 -63 265 0
-387 -400 402 0
123 167 -274 0
182 -327 -361 0
-140 -195 -325 0
-97 -154 203 0
-216 -237 -425 0
30 294 -416 0
33 128 327 0
-172 -227 403 0
32 264 299 0
203 -227 -362 0
-21 -138 -360 0
193 -200 214 0
116 -254 -345 0
-138 -278 391 0
37 92 -327 0
138 -304 389 0
-166 242 299 0
-49 365 410 0
-338 -355 411 0
-26 -48 166 0
167 -180 224 0
86 -246 -274 0
126 -382 404 0
-26 302 -328 0
-62 -69 -121 0
-223 -283 333 0
154 -303 -327 0
-287 -310 -396 0
223 418 -420 0
167 230 -251 0
-243 313 -348 0
79 -94 339 0
-70 -78 -339 0
148 -175 -267 0
-31 232 274 0
-8 331 444 0
-83 -97 442 0
-20 -269 -407 0
-65 -292 -372 0
109 -214 434 0
-38 124 307 0
66 230 -349 0
-125 143 148 0
-82 299 435 0
-25 39 -304 0
-151 -175 353 0
-78 -234 -414 0
-133 -177 -300 0
20 191 -318 0
95 -217 336 0
-149 -220 339 0
188 -221 -331 0
-21 -43 -447 0
-11 -107 -138 0
50 148 -222 0
131 -210 -349 0
-92 -144 286 0
-60 -254 -415 0
-185 -271 425 0
39 -263 445 0
187 -344 -442 0
-33 52 53 0
150 -178 -216 0
-27 -318 387 0
6 -107 423 0
143 -212 409 0
-73 -82 171 0
22 -325 -349 0
303 370 415 0
-12 122 -360 0
143 -378 393 0
17 380 -450 0
140 293 339 0
-39 -167 -256 0
28 -74 257 0
-45 -52 304 0
-21 -189 254 0
-20 -193 310 0
18 210 365 0
-12 -40 136 0
72 -254 -401 0
91 -143 262 0
138 -150 -265 0
7 -80 128 0
-161 261 -352 0
-34 -200 323 0
-236 -301 -369 0
5 -55 127 0
111 -125 284 0
-9 435 437 0
-64 230 435 0
12 33 230 0
-126 262 -344 0
23 148 216 0
188 -195 235 0
18 374 423 0
-65 -129 327 0
-67 95 323 0
154 166 -447 0
-258 289 -293 0
150 -197 424 0
168 231 -258 0
-325 349 -371 0
8 100 343 0
151 161 278 0
73 -276 407 0
129 -227 401 0
-230 -308 433 0
256 285 -446 0
28 179 325 0
-26 93 320 0
42 208 222 0
-135 171 -360 0
151 -198 329 0
-63 -358 417 0
113 186 -207 0
-206 -301 -365 0
257 -396 -432 0
-286 -294 -432 0
132 -308 -334 0
46 281 -315 0
69 -191 291 0
186 -346 386 0
-114 131 -143 0
-72 -272 293 0
65 78 -293 0
53 330 406 0
-136 240 401 0
247 320 -347 0
2 -62 250 0
-67 362 422 0
-11 168 -192 0
238 368 396 0
154 -220 280 0
14 78 204 0
-12 -182 -383 0
242 -259 -286 0
-225 305 -369 0
-39 -282 327 0
-45 58 73 0
-56 200 444 0
-38 113 322 0
-256 -258 -433 0
-15 63 77 0
-191 204 437 0
-44 -330 382 0
157 169 181 0
345 -402 418 0
17 -190 436 0
-214 -293 443 0
144 -237 -292 0
-307 384 -386 0
-35 -395 -413 0
16 222 -326 0
79 -126 -194 0
171 -348 363 0
31 -63 185 0
304 -358 -372 0
-63 -74 -194 0
37 213 248 0
70 170 256 0
-73 351 -387 0
113 115 442 0
16 -62 -450 0
-61 216 -341 0
7 -229 440 0
-221 295 437 0
18 -101 -391 0
70 223 -280 0
176 -256 281 0
-209 280 -444 0
-9 -272 -450 0
29 -126 -214 0
107 -282 -359 0
-52 -95 217 0
-17 96 -318 0
-147 -199 -270 0
-89 308 -326 0
-91 173 228 0
54 -167 408 0
-361 384 -399 0
-167 -375 -415 0
-185 186 372 0
30 398 401 0
-30 -228 328 0
-4 118 142 0
311 374 435 0
-341 380 389 0
173 -317 -376 0
32 -62 -288 0
40 189 -246 0
-293 -342 385 0
77 -97 -148 0
-59 -106 376 0
-160 228 -354 0
127 -185 211 0
-135 -257 -311 0
161 -162 226 0
104 -201 428 0
-14 -87 90 0
40 -55 -280 0
-83 199 -375 0
-18 234 360 0
231 267 -450 0
-88 192 431 0
-11 -51 -343 0
-46 -202 281 0
29 -174 227 0
-11 -144 412 0
199 -308 372 0
85 247 -362 0
25 116 -415 0
149 266 308 0
-114 263 -291 0
54 230 -330 0
-141 -143 -281 0
31 118 -215 0
180 -342 370 0
-85 179 300 0
85 214 235 0
-23 -154 -338 0
-54 -126 187 0
-75 -90 422 0
155 209 -394 0
-77 138 310 0
-23 139 -234 0
14 154 -375 0
-231 295 -398 0
49 75 -153 0
228 391 -424 0
224 -237 -323 0
209 364 412 0
90 -95 348 0
-54 -124 -442 0
93 -223 -240 0
38 187 409 0
-10 -117 195 0
28 115 121 0
295 352 360 0
38 -60 372 0
126 242 364 0
-4 -99 433 0
81 99 262 0
180 -300 -371 0
3 11 92 0
80 -291 -344 0
100 -419 -427 0
-84 -250 263 0
156 192 406 0
40 249 279 0
64 102 273 0
66 133 273 0
35 -82 -291 0
84 -226 -447 0
18 -243 -435 0
-170 274 333 0
18 -147 242 0
39 -179 274 0
-125 -287 -319 0
55 -103 449 0
56 60 -73 0
64 -351 -422 0
-10 -23 207 0
52 91 -303 0
-156 -335 -391 0
17 -40 339 0
21 -51 137 0
-181 -196 410 0
-66 -118 -248 0
11 -434 437 0
42 193 369 0
-80 177 246 0
-33 374 -442 0
-152 -184 440 0
276 -296 -435 0
172 -281 444 0
-13 -228 -368 0
-24 -231 -396 0
166 227 387 0
96 -322 393 0
-210 -248 -363 0
139 -388 -393 0
-9 -94 -186 0
-255 292 359 0
-192 360 438 0
54 -159 413 0
-64 -97 445 0
231 272 -399 0
-22 153 -366 0
335 412 432 0
-17 229 369 0
-116 -138 -394 0
-8 -213 -416 0
-92 -249 -351 0
-119 -180 -367 0
-49 96 -248 0
-279 371 -440 0
-112 264 343 0
-120 -250 293 0
84 -396 400 0
-90 -176 -364 0
-61 -124 312 0
29 -142 -313 0
80 119 325 0
20 368 429 0
-201 413 439 0
45 238 245 0
54 -168 -169 0
151 359 449 0
-35 179 -331 0
-53 -187 419 0
268 325 -333 0
139 218 -394 0
-9 -69 137 0
114 -167 -244 0
-146 375 -402 0
-56 209 266 0
-178 -192 -213 0
350 360 -418 0
-7 294 -328 0
156 216 227 0
-10 112 -361 0
115 -129 448 0
-216 -397 -412 0
36 60 429 0
-159 294 344 0
10 -333 443 0
196 267 -335 0
107 142 369 0
-31 -99 -110 0
18 -43 -436 0
301 429 434 0
36 -202 -325 0
285 345 435 0
-27 96 262 0
100 178 -271 0
347 409 -434 0
252 293 388 0
198 -247 446 0
249 -403 439 0
208 342 -450 0
215 -389 413 0
-167 -261 273 0
75 80 -253 0
366 -415 -434 0
111 -139 -418 0
-37 -101 -248 0
355 369 377 0
134 321 420 0
-166 -349 -362 0
29 183 323 0
-63 109 -277 0
-134 -229 -255 0
13 204 -208 0
110 162 416 0
21 112 216 0
-35 176 -386 0
-133 -223 -345 0
-46 274 -283 0
78 190 322 0
-68 -104 368 0
118 202 -229 0
