p cnf 450 1917
138 220 399 0
87 -352 387 0
295 372 -374 0
99 179 319 0
50 -101 390 0
-84 -170 290 0
-48 221 442 0
79 247 263 0
-45 144 277 0
126 -179 -246 0
-10 29 136 0
196 336 -342 0
209 -268 336 0
-133 209 -424 0
-44 -102 264 0
40 261 -411 0
23 -45 -389 0
-180 -242 -419 0
-198 235 339 0
27 234 364 0
71 208 -436 0
-127 290 -409 0
-3 69 -93 0
-246 338 -392 0
-110 137 -392 0
85 121 388 0
220 -288 416 0
47 -138 -405 0
108 -213 315 0
153 -165 -428 0
90 105 -426 0
4 -145 201 0
-129 -255 -299 0
-64 -79 -211 0
82 334 417 0
71 -167 -202 0
-85 171 176 0
55 -109 187 0
170 -221 -384 0
-128 172 227 0
-215 -348 405 0
180 -191 -350 0
-13 106 135 0
175 -301 -307 0
-130 409 -444 0
-92 202 225 0
-15 164 281 0
-140 311 338 0
-198 354 363 0
-23 -26 268 0
-109 -288 336 0
-154 -332 361 0
-43 254 -317 0
-88 357 395 0
173 -237 -262 0
-2 106 363 0
35 -76 380 0
83 226 313 0
50 60 -362 0
122 -192 319 0
-86 -116 -336 0
128 -410 435 0
17 342 402 0
154 197 -404 0
-192 278 370 0
222 251 -444 0
-28 -131 -347 0
74 -121 238 0
-322 324 -348 0
212 279 -342 0
-36 -162 -435 0
-176 345 426 0
45 -263 359 0
-35 172 288 0
125 154 -256 0
140 242 286 0
-145 -221 445 0
-194 -389 -435 0
97 323 343 0
-104 229 378 0
54 -85 -218 0
257 -345 361 0
-177 -328 408 0
-41 -237 -280 0
-53 104 294 0
-115 202 -372 0
-256 -302 310 0
-163 -164 190 0
-39 162 -183 0
-85 181 -239 0
-7 -147 247 0
105 288 373 0
17 127 -448 0
282 -292 412 0
80 136 -271 0
73 -110 431 0
-42 143 -171 0
-18 -138 147 0
-242 282 324 0
-233 252 -378 0
138 293 435 0
127 -183 293 0
-318 -393 -407 0
195 -262 -411 0
202 -257 380 0
73 -206 -440 0
-34 260 403 0
-81 -100 -207 0
54 166 380 0
-12 -355 -395 0
213 274 450 0
96 116 -167 0
-7 -25 -35 0
113 223 263 0
2 134 436 0
-116 -275 -375 0
33 -122 145 0
106 333 337 0
112 254 446 0
-11 191 408 0
18 -33 250 0
136 -179 -369 0
-19 97 421 0
137 -272 -325 0
100 111 269 0
-352 389 -402 0
-15 257 385 0
-258 -267 280 0
-111 266 -343 0
174 -287 -320 0
19 -250 -410 0
-103 175 -386 0
283 -337 441 0
-137 398 438 0
33 276 435 0
-218 383 -384 0
-200 207 -254 0
157 258 -291 0
234 -245 -266 0
97 240 -438 0
96 204 329 0
97 157 358 0
-58 309 -412 0
-60 128 373 0
-54 209 367 0
-209 -329 338 0
120 -231 -250 0
-81 133 402 0
53 -303 -349 0
-8 11 -148 0
-192 -274 342 0
150 -177 304 0
-2 -134 -404 0
-94 186 -427 0
205 -307 369 0
91 -271 297 0
-118 131 260 0
-101 204 -404 0
-7 283 -357 0
78 -105 167 0
-64 213 -352 0
52 -145 445 0
265 -347 367 0
-136 313 -366 0
-40 -198 -252 0
144 -363 398 0
14 -66 -161 0
53 -57 -424 0
-61 189 208 0
53 164 367 0
85 -100 309 0
28 -52 403 0
-69 314 369 0
70 261 -420 0
270 -408 -441 0
-258 357 -416 0
12 -190 295 0
323 382 -445 0
-74 -224 -315 0
-8 149 275 0
-25 -102 386 0
-254 326 418 0
-137 -325 355 0
5 137 -414 0
-2 -89 414 0
-79 159 257 0
-181 -308 -341 0
62 68 -154 0
85 188 -252 0
60 76 -156 0
-32 73 203 0
-35 -377 410 0
104 149 212 0
-29 109 182 0
-136 202 -422 0
139 -207 -357 0
54 188 247 0
-5 391 -402 0
115 -417 448 0
52 -262 -402 0
-75 209 -244 0
32 -178 209 0
-71 75 -85 0
29 311 -356 0
-229 263 284 0
166 -313 397 0
243 244 -270 0
-18 45 334 0
-26 -131 238 0
164 -190 392 0
240 436 -438 0
71 104 -324 0
13 -51 -374 0
158 160 203 0
-359 407 445 0
142 -268 -419 0
211 315 -407 0
-76 -362 420 0
107 -197 325 0
-105 -121 -136 0
201 318 334 0
137 168 -428 0
-68 -265 305 0
208 415 449 0
-346 -382 -397 0
-168 175 -263 0
200 -238 257 0
354 -440 442 0
150 175 -200 0
55 208 -324 0
271 -276 319 0
-65 -129 -431 0
113 -149 450 0
308 359 -433 0
47 -56 438 0
72 -333 -362 0
-154 250 426 0
-191 377 417 0
85 364 434 0
2 15 339 0
105 -245 -273 0
55 382 430 0
-30 66 -277 0
-211 -264 415 0
236 251 -412 0
165 -227 -414 0
-114 -229 305 0
106 237 425 0
-38 77 421 0
-72 233 -437 0
-59 236 -281 0
115 173 259 0
-188 220 344 0
-261 267 363 0
-235 -289 -447 0
-90 223 241 0
174 -409 435 0
39 -98 -154 0
211 -268 -319 0
147 164 364 0
57 -233 -441 0
-32 81 -113 0
86 -296 334 0
62 -127 224 0
-251 417 -450 0
44 102 -304 0
-52 -195 -227 0
-109 -288 -341 0
-286 345 -385 0
-51 95 -323 0
-198 304 -427 0
149 -222 323 0
-40 120 391 0
-78 267 319 0
-147 -221 262 0
-35 -302 -334 0
-2 -129 -287 0
111 -130 -428 0
165 193 -299 0
-91 -159 214 0
-40 -110 406 0
-70 -79 -114 0
219 235 -251 0
35 146 166 0
37 -99 -275 0
142 214 -250 0
46 -212 261 0
37 151 -264 0
-83 249 310 0
-233 -271 -328 0
11 -158 -363 0
-188 249 -285 0
121 280 429 0
13 133 -188 0
66 -101 -140 0
-86 138 -442 0
-156 235 325 0
87 232 305 0
58 290 -398 0
-8 -39 243 0
90 243 -247 0
38 115 -434 0
-30 204 285 0
9 -91 -316 0
96 -141 350 0
115 171 223 0
-52 185 339 0
68 323 -359 0
123 170 -392 0
33 397 447 0
162 -351 -365 0
129 258 263 0
87 -275 -343 0
201 -277 -287 0
-1 -17 319 0
-42 205 -351 0
-120 -235 -331 0
134 -178 -354 0
155 -258 -275 0
83 -119 234 0
7 203 -211 0
225 381 433 0
74 126 -215 0
-8 378 -383 0
29 168 375 0
126 188 241 0
245 272 -291 0
46 -55 299 0
-56 -266 277 0
-135 -201 366 0
-57 -193 385 0
14 -152 -271 0
165 299 425 0
41 246 264 0
-180 194 442 0
133 276 -432 0
-93 -135 419 0
17 20 -217 0
62 92 232 0
73 -251 -368 0
157 -176 380 0
-164 287 -341 0
-3 120 323 0
-170 -215 424 0
196 -214 336 0
-186 -230 -256 0
-105 169 -365 0
41 156 -259 0
236 240 302 0
29 183 -315 0
-178 250 -423 0
-125 -173 376 0
-142 -229 408 0
-154 311 -414 0
-276 429 447 0
-145 334 375 0
162 195 233 0
65 284 423 0
359 -418 435 0
58 75 362 0
67 -92 165 0
-47 -178 -274 0
-29 39 395 0
53 -211 -215 0
110 -124 -239 0
63 110 -393 0
145 272 403 0
36 -180 -365 0
151 287 343 0
170 -234 -372 0
-146 200 273 0
-70 82 229 0
103 335 -380 0
212 -281 -285 0
-325 -386 421 0
-65 -203 -357 0
-2 34 -401 0
78 -127 -344 0
-36 121 -161 0
24 330 447 0
-107 -230 336 0
-288 -296 388 0
-124 -153 -170 0
177 302 353 0
93 288 -421 0
-195 -230 -417 0
-37 360 -426 0
32 -120 256 0
-32 -79 -187 0
238 -286 -416 0
-326 -370 422 0
-155 -278 -318 0
-55 -194 -388 0
-233 238 392 0
-51 -74 -361 0
67 -123 275 0
129 134 154 0
-7 -38 -226 0
227 -296 -418 0
73 -243 407 0
-175 182 300 0
109 -113 408 0
-6 -234 -437 0
29 145 405 0
114 -128 135 0
76 186 -434 0
-294 -347 -439 0
135 -332 -336 0
-45 -62 -424 0
-78 171 -192 0
-116 132 -303 0
-115 370 -397 0
74 177 316 0
50 -259 -439 0
-2 -62 -97 0
43 175 192 0
379 383 439 0
107 225 243 0
-3 -185 -380 0
-70 -159 401 0
162 249 267 0
-31 -393 411 0
-282 -306 426 0
32 -338 443 0
174 -269 -374 0
-52 291 357 0
110 188 -292 0
-16 -176 193 0
58 73 172 0
-39 -333 391 0
77 329 -436 0
173 -240 394 0
-129 263 -417 0
-124 -127 -439 0
29 155 -224 0
-92 252 -356 0
8 188 397 0
59 -198 -399 0
-159 438 -446 0
-218 -310 436 0
20 167 -373 0
136 270 -324 0
-151 -416 -445 0
-69 408 419 0
92 103 -131 0
6 -50 -380 0
79 -146 -259 0
-94 -205 252 0
341 375 394 0
-17 184 430 0
160 -318 -429 0
-49 -100 115 0
-76 138 -322 0
-13 -101 -111 0
161 -351 433 0
-6 -94 288 0
265 -268 430 0
-110 120 -335 0
252 330 -367 0
46 73 -380 0
203 -338 -372 0
-163 375 445 0
-79 -145 -201 0
-245 327 -381 0
245 320 -349 0
-89 -286 413 0
57 86 446 0
-12 -222 -441 0
182 -379 -384 0
-214 -246 -433 0
184 254 387 0
-37 223 -444 0
-105 -170 -252 0
-27 259 430 0
-24 351 366 0
-274 -300 321 0
-33 -185 -287 0
83 127 -335 0
210 -215 289 0
77 -125 438 0
-262 289 -411 0
77 223 -321 0
-53 -114 428 0
-98 -146 408 0
-43 404 431 0
-293 -407 446 0
145 -262 -435 0
-213 -338 385 0
-283 375 -420 0
-17 -79 -155 0
-98 219 283 0
87 -248 382 0
-104 204 216 0
-196 214 -349 0
-187 255 339 0
-16 26 139 0
65 -71 -349 0
-122 175 -346 0
87 229 243 0
-104 254 -262 0
-43 251 284 0
-45 125 201 0
83 84 -248 0
-82 274 -410 0
5 -197 -423 0
-22 125 428 0
36 250 -287 0
107 240 331 0
-37 83 151 0
87 -162 228 0
57 -285 383 0
49 -119 353 0
257 -354 441 0
-101 -340 -343 0
-14 68 307 0
191 368 398 0
220 369 -422 0
53 -119 264 0
85 134 -445 0
-142 -171 -206 0
80 111 -255 0
204 258 -438 0
96 137 -201 0
-71 -163 -399 0
226 286 -302 0
91 -170 -286 0
-130 359 446 0
41 -75 289 0
217 229 -337 0
-43 300 -363 0
-193 223 342 0
-139 -258 331 0
-100 163 -165 0
-62 157 295 0
-111 -199 441 0
-87 -287 438 0
-74 -97 -196 0
35 -331 -412 0
111 217 -439 0
85 -232 -354 0
50 -95 -203 0
67 -76 94 0
170 -183 -357 0
-152 218 312 0
-89 -150 383 0
-29 -161 434 0
-25 28 -152 0
278 289 -378 0
-26 -218 -353 0
-109 114 304 0
46 333 388 0
-44 -145 -185 0
161 397 400 0
-80 -211 -382 0
-99 -322 -374 0
46 304 -334 0
8 -244 -370 0
87 -219 -446 0
146 -334 417 0
-259 -350 359 0
-156 249 332 0
64 82 378 0
143 -392 -449 0
47 -126 -403 0
-61 -209 424 0
-67 -216 -250 0
-97 118 -190 0
-121 -316 394 0
-14 185 -239 0
158 323 356 0
-288 391 -422 0
26 192 440 0
-11 163 363 0
-153 -289 395 0
-27 -116 -223 0
-160 -343 434 0
-221 -232 274 0
-47 304 341 0
116 -186 -251 0
-157 -265 414 0
4 -327 338 0
-101 129 404 0
9 171 -289 0
-201 212 -323 0
366 401 -441 0
-233 292 340 0
-113 297 -325 0
-103 169 -205 0
105 -334 435 0
-171 238 -269 0
-97 -315 -371 0
18 -126 -222 0
43 -229 301 0
121 -159 352 0
10 87 -254 0
262 -324 379 0
-45 -383 398 0
29 35 -410 0
84 -429 443 0
-85 -362 418 0
294 -349 -414 0
209 -298 414 0
49 180 303 0
-257 264 -297 0
-29 399 435 0
124 354 -438 0
210 338 -403 0
-219 -238 253 0
231 -263 -308 0
-167 252 366 0
91 -155 -413 0
-66 -372 -417 0
-192 234 -416 0
154 -229 -252 0
-103 305 330 0
-124 -236 279 0
78 -366 379 0
-67 73 287 0
-148 242 286 0
127 170 362 0
118 -264 -398 0
-44 340 355 0
-38 -198 385 0
-23 346 -441 0
-106 188 -344 0
-45 65 -143 0
-149 196 -237 0
135 -162 -443 0
-155 280 328 0
-19 -245 414 0
20 193 -254 0
88 337 -441 0
12 -218 -343 0
159 319 -410 0
112 -223 -305 0
82 -294 408 0
-129 -149 -443 0
116 -233 -392 0
260 -330 -382 0
37 281 448 0
138 201 -443 0
238 -291 358 0
-281 334 -382 0
-194 -240 -279 0
-31 186 -398 0
-57 265 -416 0
175 366 395 0
-140 197 442 0
134 -207 -228 0
239 -299 416 0
-20 269 -365 0
-223 -411 -445 0
266 -314 368 0
-204 209 -437 0
56 135 301 0
-44 128 -353 0
-245 390 434 0
-45 179 -290 0
6 -149 313 0
-94 -373 413 0
60 -329 411 0
197 221 -289 0
-128 -131 265 0
-126 315 328 0
-122 -281 -300 0
137 397 440 0
211 -235 346 0
-165 -288 -427 0
213 313 314 0
-65 101 -186 0
-245 360 -363 0
-37 135 -405 0
102 -121 -314 0
-112 142 -178 0
-68 335 348 0
-25 -233 -270 0
-16 -415 -442 0
-218 324 325 0
-324 369 -379 0
-78 224 -400 0
105 -144 306 0
65 -188 -316 0
80 -142 432 0
103 137 -255 0
107 -202 205 0
160 -302 406 0
-151 265 349 0
14 -199 -225 0
141 -172 274 0
112 -237 -449 0
268 293 336 0
-122 139 -299 0
63 -73 -181 0
276 328 379 0
-24 101 107 0
92 -293 -365 0
-118 268 414 0
219 -265 351 0
209 304 420 0
296 -309 337 0
4 152 424 0
272 -305 -437 0
-250 -252 440 0
-219 -333 334 0
-156 346 415 0
-76 101 -166 0
-87 142 -160 0
144 -243 -395 0
-181 -249 443 0
-192 352 -387 0
-117 126 200 0
54 -242 -353 0
285 -314 435 0
64 278 316 0
223 372 -419 0
-148 413 -434 0
1 271 -310 0
45 66 -444 0
-20 -78 -375 0
-20 -30 202 0
346 361 -393 0
105 -226 -394 0
58 -171 -293 0
100 137 170 0
28 -43 -73 0
-204 -259 -341 0
57 171 308 0
59 292 -361 0
-75 -125 375 0
-25 -61 -336 0
65 80 -358 0
224 377 399 0
-15 -298 376 0
-25 87 89 0
193 280 378 0
-6 -106 -168 0
-2 -154 -420 0
-127 216 -316 0
-304 407 -418 0
39 -359 433 0
81 -220 243 0
115 179 232 0
389 -404 414 0
-12 -75 -416 0
-145 -164 193 0
137 142 -231 0
130 356 -390 0
21 -80 299 0
110 -114 239 0
-12 -99 -298 0
-114 -432 444 0
31 68 -339 0
110 -292 -438 0
-357 -412 414 0
-48 278 365 0
-10 -101 -152 0
-26 -62 -446 0
-154 312 425 0
-64 106 -271 0
-32 119 236 0
-88 210 -307 0
131 430 -450 0
-2 -186 -230 0
17 97 -117 0
84 -293 -376 0
172 -362 -450 0
-15 51 -389 0
155 -217 -391 0
-198 349 355 0
-36 -172 -201 0
-355 -361 -440 0
-84 138 -190 0
-64 -112 -191 0
-238 242 -353 0
221 252 374 0
30 -177 417 0
140 -300 -441 0
175 -252 -419 0
-187 -325 364 0
101 -221 -301 0
199 -291 417 0
-9 89 -422 0
186 330 411 0
-96 -130 -376 0
-78 169 -270 0
-44 -197 423 0
-144 -218 235 0
301 303 306 0
21 144 415 0
276 -290 445 0
106 337 440 0
-168 -249 -291 0
47 -57 67 0
-141 193 396 0
171 243 430 0
-161 -190 -429 0
3 -177 336 0
-113 -266 -274 0
127 181 331 0
25 -53 284 0
79 96 -217 0
115 129 265 0
-292 -414 438 0
-45 303 -425 0
32 -133 -255 0
-30 307 -414 0
178 -261 -303 0
-73 -163 218 0
-71 176 309 0
29 -108 -182 0
-190 -259 266 0
-95 135 262 0
30 -115 361 0
38 -57 88 0
-127 216 223 0
49 87 -437 0
46 207 -293 0
96 -108 362 0
-81 -135 258 0
200 313 363 0
-60 -252 438 0
-51 76 268 0
-94 390 404 0
212 313 -449 0
-337 -346 -393 0
6 353 436 0
-267 381 421 0
-178 300 -437 0
-303 337 -414 0
25 203 386 0
-74 93 -111 0
-130 339 -370 0
-288 347 -387 0
11 -203 -279 0
-153 -201 384 0
-7 -321 443 0
-8 125 -229 0
-1 131 182 0
58 408 -437 0
90 190 -314 0
13 -96 -183 0
172 -306 358 0
-209 284 417 0
201 295 -373 0
-58 320 389 0
322 -350 -385 0
327 424 426 0
96 274 411 0
240 250 -400 0
-30 -358 -450 0
27 -250 -309 0
-76 -179 369 0
74 159 -429 0
-61 -248 304 0
-35 -44 195 0
80 97 303 0
-36 114 -190 0
36 291 -446 0
211 -272 344 0
-141 193 390 0
102 -154 -321 0
90 117 170 0
-89 -186 -342 0
-157 242 -244 0
15 104 259 0
255 -317 373 0
-243 -269 -320 0
346 -360 -438 0
-152 238 -241 0
178 388 440 0
82 -222 426 0
155 371 -435 0
65 -211 325 0
38 -207 -362 0
97 -320 -409 0
-241 407 -409 0
-155 -199 -394 0
-254 -411 -446 0
396 -406 446 0
106 181 -225 0
-25 115 -170 0
-69 165 -180 0
43 136 -417 0
59 -76 -251 0
79 -329 -337 0
6 297 -309 0
-9 -27 -51 0
-156 -293 401 0
158 285 -444 0
229 -321 392 0
-211 364 -365 0
200 250 440 0
-32 -139 -401 0
-31 290 -362 0
31 146 258 0
118 360 -431 0
55 271 299 0
14 -174 -428 0
-29 180 -303 0
-88 -139 -241 0
117 -175 -436 0
149 -218 322 0
-107 222 395 0
126 -186 210 0
340 -344 -421 0
203 -360 -377 0
-156 203 -367 0
36 141 -209 0
-102 -329 448 0
-5 -349 -418 0
-71 156 352 0
160 -260 355 0
53 -66 -240 0
139 -197 429 0
113 230 -421 0
-13 -71 -230 0
-222 300 -358 0
-75 -158 -234 0
-95 284 -401 0
6 -281 428 0
252 404 425 0
-15 120 -132 0
-43 -242 373 0
-195 -248 417 0
63 -168 289 0
-68 -69 -405 0
79 275 -286 0
-21 24 125 0
226 245 321 0
126 182 -343 0
-134 185 -398 0
-3 146 323 0
-169 -259 -430 0
-84 -137 -393 0
-248 286 431 0
-69 83 275 0
127 -155 -439 0
-29 -210 446 0
-34 -128 -429 0
-85 -166 334 0
70 80 -382 0
53 139 -232 0
-56 152 -448 0
95 101 420 0
-28 147 -176 0
-41 -143 -312 0
-229 263 -389 0
-14 -184 261 0
-55 -382 -403 0
-222 -252 -388 0
-109 -190 -447 0
-66 251 -436 0
43 109 210 0
88 101 -206 0
-44 58 400 0
-138 -204 227 0
257 -276 -304 0
-28 85 431 0
105 -198 -272 0
-168 328 401 0
17 128 413 0
-3 107 -286 0
21 -191 -361 0
-55 -186 249 0
-85 98 189 0
-37 -281 433 0
-251 328 -424 0
-263 -336 -389 0
-150 167 420 0
24 -342 -390 0
149 311 370 0
-83 -287 379 0
169 -321 361 0
154 -278 396 0
-43 297 -370 0
326 371 406 0
-143 -255 428 0
-104 323 384 0
-53 231 307 0
-119 264 311 0
259 -313 380 0
-124 -400 416 0
-260 304 -392 0
-38 -77 -221 0
99 -319 -410 0
-161 169 260 0
79 -106 -118 0
-44 -308 -330 0
74 -360 -446 0
-131 219 340 0
-98 -130 308 0
-74 94 259 0
64 -330 361 0
-356 371 424 0
150 316 420 0
-68 235 345 0
-2 -20 327 0
122 -314 447 0
-122 159 -375 0
163 -285 421 0
308 -316 -382 0
173 195 317 0
161 325 -426 0
-61 -72 194 0
63 -394 -422 0
140 -177 413 0
45 119 213 0
-82 -404 414 0
235 -262 409 0
-53 -235 -276 0
-3 121 212 0
277 336 393 0
-240 -241 -375 0
145 -175 199 0
-23 237 -440 0
272 -356 -443 0
33 -123 -299 0
136 -348 437 0
238 286 -310 0
-87 424 -442 0
198 374 427 0
-215 322 444 0
40 -159 -397 0
-58 -124 357 0
-64 334 -384 0
164 -196 290 0
106 -162 -257 0
1 -412 435 0
91 168 -232 0
316 377 -442 0
187 -297 -328 0
-21 168 -233 0
179 -286 -337 0
-251 -277 415 0
-191 -219 -388 0
11 303 -385 0
-158 191 -211 0
-247 -278 -319 0
-41 58 -160 0
-122 -183 -334 0
11 376 -443 0
65 -252 -345 0
-223 260 327 0
-108 164 -378 0
-58 102 263 0
-4 397 430 0
-269 -295 -447 0
182 -197 -399 0
199 -279 287 0
-15 -79 -361 0
-151 262 415 0
283 289 -314 0
50 -238 437 0
-104 -254 -365 0
-103 247 -253 0
-22 -37 375 0
-317 442 -450 0
155 348 -370 0
-110 282 380 0
-383 -393 -437 0
-13 -253 376 0
268 -396 -398 0
94 -158 183 0
-110 -135 224 0
-55 223 -252 0
103 171 449 0
173 407 437 0
-32 -65 100 0
-38 -42 -298 0
113 365 415 0
-47 78 -358 0
-40 100 140 0
267 278 343 0
152 231 -381 0
246 -298 -399 0
24 254 324 0
146 185 -291 0
55 206 215 0
-54 146 424 0
-126 283 315 0
32 -279 -312 0
7 -211 -402 0
-193 -314 -351 0
-148 -350 -401 0
268 294 322 0
181 -322 369 0
-12 88 339 0
-45 292 373 0
272 275 401 0
150 -190 -351 0
144 -317 -420 0
157 274 411 0
7 -131 -169 0
-146 -378 -440 0
-56 233 277 0
3 -7 109 0
243 -328 411 0
55 -74 -274 0
-183 -295 -344 0
243 276 -305 0
320 387 428 0
-7 -89 393 0
146 281 -376 0
-118 -183 -240 0
19 -133 -399 0
-107 -260 -349 0
-60 -132 417 0
67 -184 267 0
-12 -418 435 0
-46 102 140 0
-6 -73 369 0
-65 -296 368 0
-33 167 322 0
84 -337 422 0
157 372 -406 0
-112 320 -363 0
-178 255 -338 0
-30 331 415 0
-101 123 -399 0
-92 101 313 0
61 -65 -350 0
-163 -184 -302 0
-156 -225 -285 0
112 -163 346 0
352 399 423 0
-26 325 -390 0
-26 -133 -382 0
252 -340 354 0
23 -112 328 0
-47 152 274 0
161 -339 424 0
50 209 -237 0
-3 63 271 0
2 -232 264 0
-318 -350 371 0
261 -405 -427 0
-80 -98 -103 0
-50 179 325 0
-80 93 -162 0
95 -133 144 0
-377 -405 -434 0
109 -221 359 0
-108 200 -308 0
55 114 300 0
9 175 -297 0
129 -344 -420 0
121 311 404 0
155 -178 450 0
58 -138 440 0
201 -213 287 0
231 368 -428 0
170 -368 -374 0
104 213 419 0
261 -372 409 0
-63 182 -445 0
-72 -153 208 0
-96 -118 145 0
-118 -157 247 0
84 273 -405 0
23 283 -402 0
171 -244 -265 0
186 -371 402 0
-100 192 199 0
130 314 -450 0
-189 -276 416 0
326 333 386 0
7 122 165 0
-97 -214 -411 0
-8 -94 404 0
22 177 -314 0
-97 -105 -377 0
80 -205 -416 0
-80 168 205 0
-93 -117 310 0
43 -64 -286 0
-333 394 397 0
-104 226 289 0
-6 -295 350 0
-154 -180 -338 0
114 229 391 0
-42 -252 265 0
-41 90 322 0
-58 -199 -270 0
55 192 -352 0
-124 407 -412 0
-129 271 -273 0
266 303 381 0
-49 -70 221 0
72 -257 -265 0
54 132 -426 0
119 147 -408 0
42 -44 442 0
37 -67 -348 0
97 243 -267 0
41 -115 196 0
-136 214 -370 0
195 -413 435 0
108 -252 -272 0
-150 -220 221 0
-240 -384 -387 0
196 306 -347 0
-224 -311 444 0
-107 138 -292 0
-302 -394 -437 0
106 155 -350 0
202 218 -407 0
17 256 -348 0
-163 -211 222 0
-142 -245 345 0
-8 -9 14 0
-86 246 -336 0
74 285 -380 0
149 222 333 0
-69 -95 389 0
-103 150 -153 0
-127 214 -376 0
-51 156 -274 0
-62 -128 -199 0
-60 134 -271 0
179 289 -387 0
-234 341 -427 0
98 134 -236 0
-25 231 -250 0
-45 -195 -363 0
291 -297 364 0
6 251 269 0
25 149 209 0
-30 -87 -230 0
-200 -230 382 0
331 -356 -402 0
123 -226 -255 0
57 408 -417 0
78 112 200 0
-42 273 277 0
91 -251 -408 0
-221 245 440 0
199 -280 -296 0
-7 199 -292 0
-55 280 -353 0
-108 304 439 0
-8 35 -361 0
-112 -325 361 0
-23 -57 260 0
-260 265 -336 0
-21 94 118 0
39 41 165 0
19 -267 273 0
-59 135 -339 0
-40 -75 305 0
305 447 449 0
-52 -276 -443 0
186 361 -444 0
122 197 268 0
86 224 292 0
-155 -248 260 0
39 -133 -247 0
66 -68 -423 0
94 209 358 0
67 -145 -147 0
-9 52 241 0
199 217 -414 0
166 -303 305 0
-149 171 -379 0
91 319 -353 0
-88 114 311 0
-156 241 414 0
24 -252 -375 0
62 172 219 0
212 -223 361 0
26 -126 289 0
248 255 294 0
54 146 234 0
225 -353 377 0
-41 -123 -334 0
178 212 -248 0
-4 -221 245 0
-62 -64 96 0
-162 340 418 0
31 192 211 0
-86 108 -190 0
-44 -170 -321 0
-255 271 -390 0
198 229 295 0
108 153 211 0
-5 122 -333 0
-163 203 399 0
17 -127 231 0
22 73 -263 0
110 -247 -312 0
1 -308 -419 0
-171 -230 342 0
130 136 413 0
207 268 422 0
280 296 343 0
130 178 -404 0
-209 346 -368 0
-58 313 356 0
-62 107 -190 0
23 119 -172 0
276 293 302 0
-217 273 -382 0
-116 160 -435 0
222 338 424 0
-32 -119 -446 0
38 169 -389 0
-105 -214 446 0
-62 396 -433 0
-143 -270 -406 0
31 267 427 0
49 -216 272 0
420 421 441 0
-62 124 -433 0
25 -351 -357 0
-2 -207 379 0
-3 -92 -227 0
123 -207 -354 0
-3 180 363 0
40 267 390 0
33 -93 395 0
312 -428 -435 0
275 -392 -409 0
82 -170 317 0
-164 -178 -386 0
-40 -88 -232 0
-171 311 440 0
86 98 110 0
-15 255 -307 0
167 -261 -436 0
-224 -282 331 0
-196 -230 -308 0
350 392 -443 0
97 -335 -369 0
-138 218 -439 0
-31 65 249 0
-128 176 354 0
-71 302 365 0
48 -79 -370 0
101 -158 -392 0
-58 89 384 0
147 -259 277 0
-114 156 -370 0
-24 67 329 0
-4 -146 -414 0
-116 138 -426 0
203 -368 436 0
82 117 390 0
-282 -346 -445 0
-63 184 295 0
-118 -148 -368 0
-44 -163 -298 0
335 -402 -448 0
-49 86 -315 0
64 85 -366 0
-13 98 -170 0
-152 -188 283 0
81 167 -251 0
-6 -165 -229 0
-75 342 -387 0
-43 152 -179 0
-34 -379 -397 0
62 -175 307 0
24 -109 268 0
-50 54 428 0
13 -28 226 0
40 118 366 0
151 340 -372 0
-284 -341 421 0
4 -286 366 0
62 -394 430 0
-159 -183 -204 0
-164 -260 -349 0
50 -66 171 0
-134 -160 -329 0
-86 232 248 0
-286 -367 -399 0
205 -248 315 0
-201 227 -447 0
102 -385 436 0
-192 -266 449 0
21 -204 342 0
177 -203 -352 0
-95 121 414 0
-114 -197 427 0
163 284 429 0
6 -205 -328 0
42 -217 352 0
-6 -58 -268 0
-190 -249 448 0
-67 292 373 0
1 11 -373 0
-86 253 301 0
20 -336 380 0
-51 155 -391 0
-15 -284 405 0
316 -447 449 0
-38 -89 375 0
38 -130 -371 0
58 -179 339 0
139 180 -257 0
14 -78 401 0
88 -134 -297 0
213 -270 385 0
-51 81 228 0
183 -368 -369 0
-7 54 -281 0
21 216 -342 0
42 -293 311 0
111 123 266 0
-63 188 197 0
20 118 146 0
363 419 434 0
-59 262 -310 0
-131 -143 -276 0
269 -302 324 0
-250 365 400 0
-26 132 353 0
20 157 437 0
261 -291 329 0
-29 -52 -148 0
-209 375 427 0
-34 137 -214 0
-78 -278 291 0
-254 276 -401 0
1 267 -317 0
-99 -120 -174 0
-45 -92 207 0
108 -176 342 0
369 420 -447 0
-145 185 251 0
42 -341 -406 0
94 220 -258 0
175 237 -427 0
227 261 294 0
-18 -66 -160 0
-21 46 209 0
-175 262 361 0
-212 275 294 0
150 323 -350 0
-172 270 -303 0
-12 46 434 0
98 230 447 0
152 -418 -424 0
303 340 -394 0
-78 253 -379 0
-125 -198 -375 0
267 349 408 0
14 281 -440 0
35 -187 391 0
97 -316 -422 0
287 -343 390 0
53 -85 -203 0
-102 -367 379 0
-93 235 327 0
-11 -34 -332 0
217 -348 -352 0
-32 -69 -383 0
-6 141 -143 0
107 190 335 0
46 -103 301 0
-87 89 -138 0
43 97 424 0
69 170 311 0
184 194 196 0
194 -226 -266 0
119 -143 279 0
164 236 399 0
-92 -129 -411 0
265 274 436 0
-190 231 279 0
194 -273 335 0
30 188 394 0
-115 342 -442 0
-36 -132 295 0
110 139 -212 0
22 -70 -213 0
63 -139 -161 0
-41 288 446 0
76 -118 -215 0
168 -352 -399 0
-182 331 348 0
-177 -210 367 0
-26 -80 -217 0
-114 191 298 0
-152 -234 -442 0
5 238 262 0
38 -158 301 0
-298 365 366 0
-74 202 260 0
110 294 -399 0
2 -9 231 0
34 201 -226 0
65 149 374 0
39 126 346 0
-10 -229 -438 0
-23 50 -328 0
16 -217 -384 0
194 254 -369 0
-11 330 -417 0
-82 116 291 0
-104 -218 362 0
-125 128 230 0
2 53 395 0
24 -266 346 0
-8 -202 -236 0
-61 -117 -162 0
-142 -262 313 0
150 262 346 0
198 -345 441 0
-70 -283 304 0
-73 -168 -317 0
-112 -131 372 0
-22 -30 -69 0
283 -391 -416 0
-110 -244 -300 0
96 -210 396 0
176 -188 373 0
236 -297 -419 0
-85 279 -414 0
22 -54 -216 0
32 36 -80 0
-50 -373 435 0
41 -71 363 0
199 -235 -271 0
47 -68 -367 0
80 -299 337 0
-74 194 283 0
265 -271 -404 0
-95 324 -388 0
-50 192 -368 0
-95 201 432 0
137 208 396 0
-98 -202 449 0
16 185 404 0
18 128 340 0
-174 246 261 0
-26 82 94 0
-38 -174 367 0
96 -319 379 0
-132 -292 -376 0
1 40 -332 0
221 232 -355 0
54 66 81 0
-211 357 -384 0
-78 -137 -403 0
-9 210 389 0
136 250 -405 0
137 -334 438 0
-268 -440 446 0
25 197 -199 0
292 311 339 0
-30 -207 414 0
-233 245 401 0
-72 166 -390 0
15 20 325 0
114 -222 -350 0
-91 246 -296 0
341 -351 -416 0
324 -325 415 0
-217 227 350 0
38 98 -350 0
283 293 327 0
-104 201 232 0
141 -158 172 0
-58 267 -422 0
112 -205 224 0
66 -222 344 0
79 -145 368 0
-103 -182 -199 0
-2 327 379 0
-142 -317 383 0
-17 -40 73 0
-54 391 -444 0
-138 236 443 0
-260 262 -370 0
-92 -226 245 0
110 298 326 0
282 336 420 0
31 -120 -310 0
-9 -183 -384 0
81 -117 247 0
-63 344 442 0
-205 -225 -336 0
116 147 -298 0
-2 -33 252 0
-101 136 277 0
53 284 -419 0
-72 -209 383 0
-8 51 -355 0
172 228 -268 0
-157 289 399 0
-60 -193 235 0
-4 -330 -404 0
-65 197 361 0
-32 192 430 0
99 142 325 0
362 383 -437 0
59 423 435 0
12 34 -299 0
-17 173 -449 0
-93 -303 -418 0
-230 -268 -356 0
-41 -106 159 0
-159 -186 195 0
56 93 -167 0
10 -188 -337 0
41 -179 -346 0
-26 -193 -349 0
-140 194 217 0
-156 -291 373 0
-14 -179 328 0
-69 -158 -396 0
35 126 273 0
128 314 -352 0
57 -249 443 0
-47 96 288 0
29 -146 -219 0
91 -115 238 0
-26 -42 294 0
-94 226 440 0
5 209 -225 0
55 255 -261 0
185 -190 246 0
74 -146 -243 0
93 -249 -343 0
-146 159 331 0
29 -271 -366 0
-134 138 205 0
-275 -288 421 0
-106 239 -421 0
-15 -177 326 0
-164 -181 -380 0
257 270 -329 0
-53 -222 -289 0
6 -116 374 0
45 -105 325 0
-32 65 362 0
-131 -276 446 0
-22 -374 -419 0
-31 -397 435 0
121 220 -256 0
118 -124 144 0
-255 293 -393 0
201 293 -445 0
-12 -305 -356 0
48 98 -304 0
-23 -210 329 0
-62 133 -215 0
25 -42 114 0
-40 -60 428 0
-5 -284 315 0
86 115 160 0
-36 198 -383 0
131 341 -438 0
241 -355 424 0
94 132 -150 0
-29 -71 -344 0
54 -97 277 0
158 -216 -402 0
101 -164 366 0
-165 189 392 0
-90 -275 386 0
140 -366 -415 0
289 332 426 0
-201 -279 -398 0
-141 -287 -379 0
130 -400 415 0
222 -244 275 0
39 362 -364 0
-291 296 390 0
-9 167 282 0
142 385 -415 0
-58 -283 348 0
-64 -216 307 0
-156 286 -334 0
70 -139 -154 0
-118 -293 359 0
80 -150 -238 0
-60 336 -374 0
122 -161 -208 0
-74 233 397 0
84 157 186 0
-287 -337 -396 0
11 -137 303 0
187 209 -374 0
-56 194 -445 0
12 -75 -412 0
-143 -303 338 0
-198 209 371 0
-36 -306 -308 0
86 -230 -378 0
145 -325 -326 0
17 -100 198 0
-100 216 -242 0
-165 -213 -244 0
-212 242 340 0
317 327 419 0
-164 -221 265 0
-343 383 406 0
51 -258 -317 0
-157 277 415 0
119 256 436 0
-1 124 -394 0
-15 224 -409 0
-202 -321 -352 0
257 294 328 0
56 -183 -212 0
-51 233 -251 0
-134 -248 353 0
-326 -363 -441 0
280 313 -368 0
136 -238 329 0
-291 -295 399 0
-29 145 -405 0
148 -303 -385 0
-83 -154 -352 0
65 214 -337 0
-45 63 -271 0
102 125 267 0
104 -154 -196 0
58 -122 374 0
-45 135 165 0
-355 -415 428 0
6 79 200 0
-174 333 -410 0
50 -112 -176 0
-8 121 199 0
-213 -235 377 0
-48 91 418 0
-121 212 313 0
-99 -169 -304 0
-194 248 374 0
330 334 355 0
71 316 -384 0
-36 80 -204 0
236 306 347 0
249 274 375 0
184 -277 410 0
-193 -365 -448 0
234 -353 441 0
12 20 23 0
-68 -158 357 0
-102 -134 257 0
-4 -82 -244 0
-378 -380 -442 0
-14 51 -173 0
-259 -327 -450 0
-33 235 -296 0
-166 -321 -422 0
98 -171 415 0
-168 173 -174 0
54 348 421 0
23 -26 -345 0
-206 -242 411 0
-153 183 207 0
-35 82 -378 0
-42 -211 -264 0
1 121 -345 0
74 260 292 0
139 145 -223 0
-265 -269 323 0
-60 -140 301 0
-71 -110 -128 0
-72 -260 -285 0
30 -237 -259 0
174 -181 -246 0
-131 191 -396 0
-192 -250 -286 0
-223 294 359 0
51 251 346 0
5 -306 -359 0
156 444 -448 0
-24 181 401 0
-3 -301 340 0
-244 401 -412 0
117 -247 405 0
-46 280 -372 0
90 185 269 0
-41 222 301 0
236 246 259 0
-8 -128 221 0
-22 -286 420 0
-34 -57 140 0
77 195 -430 0
161 337 343 0
-12 -237 367 0
-41 64 68 0
169 292 -375 0
-18 190 263 0
23 192 -445 0
-23 88 333 0
133 366 -376 0
24 -236 382 0
10 -271 -428 0
10 -279 300 0
-179 -400 419 0
133 369 379 0
26 62 175 0
111 118 -287 0
79 -253 -376 0
16 -351 -419 0
-6 67 -393 0
134 -252 409 0
-194 -223 258 0
-7 -93 -104 0
6 328 360 0
252 -316 -434 0
-17 21 -235 0
108 396 410 0
-172 -311 -342 0
135 186 445 0
125 -127 260 0
58 118 -204 0
173 442 -445 0
-51 320 361 0
142 -171 -351 0
62 -67 -427 0
-128 203 370 0
-132 271 -439 0
-62 -246 293 0
-114 310 349 0
-30 123 -378 0
-106 -140 388 0
77 101 -410 0
16 298 394 0
32 -98 -255 0
-241 -277 -381 0
224 264 -409 0
143 196 -221 0
21 58 -341 0
249 348 437 0
59 -290 -378 0
15 230 323 0
-259 311 -344 0
41 -178 -450 0
146 358 -414 0
-223 348 416 0
-67 172 376 0
-28 -137 -196 0
-106 -244 -370 0
138 209 -275 0
-2 101 162 0
81 -343 -444 0
52 -193 -367 0
130 278 -440 0
64 -84 184 0
151 254 304 0
-165 -385 437 0
15 110 -194 0
-63 338 402 0
145 281 -284 0
281 373 -438 0
-99 175 261 0
34 426 -435 0
-280 315 -406 0
34 99 -215 0
122 -220 -394 0
240 332 334 0
-188 -227 -437 0
-34 172 225 0
-2 -44 341 0
30 -156 -161 0
-105 350 -377 0
-23 345 365 0
-45 254 -397 0
92 298 -360 0
-135 -231 -429 0
-42 377 448 0
-31 64 -315 0
-26 191 317 0
144 -355 420 0
-2 -32 -172 0
-203 -246 -395 0
-421 441 -443 0
-146 189 329 0
-29 39 428 0
-33 -119 174 0
262 295 -427 0
-17 266 396 0
5 -25 -447 0
16 196 358 0
-267 320 -372 0
-135 -198 313 0
24 187 -321 0
182 226 235 0
104 -401 450 0
94 117 341 0
-90 347 428 0
29 -30 -399 0
-154 -163 -341 0
169 -252 -431 0
20 22 147 0
31 -153 178 0
-57 187 298 0
-113 -300 316 0
-12 -343 -440 0
-132 -262 -399 0
51 142 234 0
-31 -129 -173 0
-174 236 -378 0
183 189 -222 0
33 100 277 0
140 -143 247 0
59 -312 -440 0
51 -237 -434 0
3 9 112 0
1 -17 -70 0
206 -301 -438 0
-27 153 -233 0
82 -107 216 0
368 -392 -443 0
60 143 -210 0
-61 -367 401 0
61 109 -195 0
114 118 294 0
102 -205 423 0
-158 -215 424 0
-48 -223 -262 0
