p cnf 450 1917
54 164 -167 0
-295 -332 354 0
73 -174 271 0
30 -281 413 0
-265 -268 -376 0
-200 317 -401 0
256 -284 -348 0
-63 -386 393 0
-336 -416 440 0
113 -226 -245 0
156 -314 350 0
-37 320 -379 0
182 -282 333 0
39 320 -369 0
211 -259 -283 0
108 -140 -252 0
-123 -200 295 0
-72 112 337 0
94 -126 -168 0
95 -191 228 0
-114 133 333 0
-10 120 330 0
-188 -202 315 0
-5 83 338 0
-57 -368 -390 0
24 131 -369 0
-38 -177 404 0
-44 201 -358 0
39 44 78 0
104 284 -413 0
116 -207 359 0
210 294 -395 0
-93 -280 448 0
65 338 -432 0
96 177 -390 0
21 136 436 0
-140 -174 -242 0
-138 271 -284 0
-295 -364 -430 0
150 184 234 0
192 -261 -371 0
14 -89 -426 0
187 407 443 0
-107 -377 437 0
16 245 386 0
155 432 -435 0
-16 439 -448 0
-34 122 278 0
-57 -154 370 0
-189 379 430 0
36 -353 -387 0
16 -65 -144 0
56 160 -325 0
-67 -333 346 0
-10 269 -413 0
-190 -239 -371 0
-87 150 -175 0
-25 101 -256 0
-126 311 360 0
-115 210 -291 0
113 -276 -394 0
-353 398 434 0
31 -177 212 0
254 -400 -436 0
199 -323 374 0
201 248 -274 0
147 -188 227 0
12 -24 172 0
82 -192 391 0
-131 -318 -381 0
246 342 -388 0
45 77 -409 0
-22 93 -199 0
-142 216 -430 0
35 -375 -386 0
51 133 -395 0
-31 -112 428 0
-208 -261 -378 0
-132 284 406 0
-53 -63 -426 0
65 -140 273 0
24 -76 302 0
3 341 425 0
-79 -418 445 0
178 -190 383 0
-49 -60 211 0
239 260 -302 0
49 188 407 0
244 -360 369 0
-349 379 440 0
-140 211 -444 0
-134 -353 -443 0
-134 -147 -409 0
-256 -300 -376 0
-224 376 397 0
-158 313 441 0
147 222 323 0
190 -252 443 0
42 311 417 0
298 375 -426 0
155 -357 363 0
-61 92 -401 0
78 -113 -182 0
-149 189 -318 0
284 -341 423 0
94 -240 301 0
86 159 181 0
-93 -168 382 0
-87 224 -391 0
-34 -131 443 0
209 -262 -436 0
162 235 -369 0
-2 -26 -279 0
-27 -253 300 0
140 282 -292 0
84 140 -142 0
21 -56 125 0
-196 -226 -306 0
128 -172 -360 0
-32 -296 -421 0
149 -253 425 0
-284 -294 393 0
-212 301 -313 0
-117 133 383 0
116 -202 221 0
334 343 -352 0
-38 246 408 0
102 158 -281 0
156 -226 353 0
238 364 -445 0
-174 -184 203 0
-20 146 -307 0
21 68 -367 0
179 194 377 0
100 105 -360 0
80 143 -257 0
23 -65 402 0
-346 388 -396 0
-55 -316 -413 0
-59 134 189 0
224 275 289 0
-264 -278 394 0
-49 -135 423 0
225 -234 318 0
146 242 -443 0
99 -256 -422 0
176 244 409 0
-173 -174 -447 0
166 189 294 0
238 252 -306 0
114 -135 418 0
57 -67 169 0
36 180 -394 0
-87 107 -223 0
44 -188 302 0
137 151 204 0
-29 -64 162 0
151 -429 445 0
92 311 -414 0
-13 -73 182 0
35 -153 -277 0
-172 347 -414 0
33 -80 184 0
204 -210 -442 0
-151 -157 -384 0
19 -317 386 0
-130 -194 216 0
111 186 -416 0
-8 -76 -304 0
65 -156 -398 0
9 16 87 0
66 -143 369 0
10 81 211 0
-22 69 -169 0
30 277 309 0
53 -117 -265 0
296 -331 -400 0
-156 217 447 0
-39 -206 -355 0
-58 -180 200 0
82 -201 299 0
36 -109 -151 0
34 -52 -81 0
-227 391 415 0
375 405 -410 0
-181 316 348 0
77 246 -250 0
94 -196 359 0
271 373 -390 0
-125 -132 -139 0
51 -54 -203 0
145 288 -404 0
5 122 -313 0
44 236 -239 0
-122 235 352 0
-162 212 424 0
113 -126 -229 0
74 311 -415 0
-192 -263 348 0
66 -119 -219 0
277 -334 421 0
-211 265 367 0
85 117 264 0
164 332 416 0
-126 -146 -312 0
126 -294 328 0
-161 -180 -385 0
28 -77 174 0
73 143 397 0
-324 369 -435 0
13 152 339 0
-85 97 132 0
361 -422 439 0
-85 116 -444 0
-128 -182 313 0
79 -270 -329 0
190 251 292 0
78 264 -299 0
-158 186 -393 0
314 -336 340 0
-61 130 -342 0
118 123 -409 0
189 -195 -304 0
-35 -148 402 0
117 167 297 0
-7 317 -400 0
-134 -417 438 0
10 175 178 0
294 -307 -400 0
-46 -290 -423 0
-117 -241 -275 0
116 342 420 0
-16 230 -387 0
50 -242 265 0
25 -350 408 0
202 -235 -358 0
-48 -58 -430 0
101 340 444 0
-210 218 389 0
-42 192 279 0
-65 71 -372 0
-6 -255 -358 0
125 266 -301 0
-16 189 -307 0
59 -79 304 0
66 -75 412 0
83 -182 -278 0
2 130 -261 0
303 331 354 0
412 414 -426 0
138 296 -353 0
131 -139 -253 0
145 175 -304 0
77 -387 407 0
129 132 -183 0
-132 -191 322 0
-30 284 -289 0
-122 145 -374 0
16 330 -392 0
-47 232 -403 0
95 130 321 0
-4 -262 -265 0
-76 137 -386 0
-140 -142 -364 0
28 78 -415 0
-73 -170 -439 0
-6 207 234 0
-4 16 -173 0
37 -190 345 0
207 238 263 0
201 -212 323 0
-135 -141 -143 0
104 314 -319 0
-84 -109 366 0
-19 -93 186 0
158 186 437 0
25 354 442 0
-111 -163 -426 0
76 226 396 0
-10 104 296 0
209 234 252 0
64 -147 188 0
-19 59 -224 0
40 -198 423 0
-99 369 411 0
330 -341 436 0
-90 -180 204 0
123 -296 -399 0
-154 -192 224 0
-92 -110 -213 0
-47 250 -318 0
182 241 -415 0
127 -254 -283 0
-60 114 -272 0
24 -243 247 0
199 256 -339 0
140 257 -332 0
195 230 -404 0
-164 -229 -330 0
15 -281 404 0
43 123 323 0
391 -414 -429 0
175 -213 387 0
-235 -287 361 0
27 91 409 0
-142 -227 365 0
-63 -98 -111 0
200 267 -276 0
79 158 386 0
175 392 429 0
-120 152 -180 0
-66 81 -338 0
-153 -186 -249 0
303 -332 447 0
165 -172 -399 0
-179 302 393 0
-28 102 -391 0
-126 267 -302 0
73 -137 -325 0
-202 265 428 0
1 -368 -415 0
180 -292 -300 0
-13 99 -199 0
43 173 191 0
111 -207 -257 0
-30 -233 444 0
36 138 -156 0
173 -237 -238 0
50 290 418 0
89 375 -420 0
130 357 358 0
-198 205 246 0
-33 204 -393 0
139 -247 -260 0
48 72 90 0
-63 -78 238 0
-78 146 -312 0
125 184 -437 0
145 -269 427 0
20 -201 295 0
125 299 -333 0
185 -328 -370 0
-76 -311 -414 0
-123 192 -438 0
245 377 405 0
-237 -250 332 0
108 -356 446 0
-158 175 332 0
-115 -159 -420 0
-19 70 -450 0
-30 256 345 0
-215 330 -443 0
45 -92 397 0
362 -369 -414 0
29 271 -415 0
-168 -197 -342 0
-92 168 217 0
30 187 308 0
260 -284 -352 0
-21 62 136 0
-258 267 348 0
113 318 -379 0
-111 129 -450 0
121 -321 -426 0
-151 167 242 0
-33 -68 319 0
-59 -259 337 0
106 242 318 0
-97 247 313 0
-64 103 -141 0
-121 184 421 0
-28 64 385 0
63 146 242 0
124 131 -432 0
-96 190 -432 0
-199 260 279 0
-133 -163 -327 0
94 -135 400 0
158 324 -430 0
-114 -348 -377 0
-49 -180 408 0
48 -78 417 0
-16 -31 -382 0
60 -96 -226 0
-265 302 -348 0
-105 -254 -351 0
-18 90 -266 0
-181 -273 -291 0
-158 313 -412 0
14 174 -180 0
202 -299 371 0
-34 298 423 0
-34 -87 -182 0
168 195 333 0
46 -333 -429 0
78 -162 295 0
136 212 349 0
-191 264 330 0
-114 -166 -444 0
-271 273 359 0
-223 261 413 0
-47 158 388 0
219 -358 359 0
107 289 -356 0
4 -364 -402 0
347 352 -447 0
161 -250 275 0
71 -339 356 0
-2 150 -180 0
93 -139 -144 0
-87 151 -450 0
298 -323 432 0
-164 -309 -349 0
-122 225 357 0
-118 -234 274 0
32 127 -427 0
-80 286 -376 0
-59 243 403 0
-241 267 344 0
95 -315 373 0
50 66 254 0
-15 -300 437 0
-107 -141 246 0
-56 -120 -183 0
275 -338 -393 0
-128 276 374 0
-96 -353 435 0
-37 249 -428 0
67 -361 381 0
-42 314 -337 0
196 262 -362 0
13 18 132 0
-26 -49 -398 0
55 221 266 0
198 248 -294 0
192 -251 -387 0
117 218 422 0
140 -225 440 0
-83 183 351 0
-29 -48 -53 0
-86 170 -272 0
117 -200 249 0
-10 -22 220 0
36 -59 84 0
14 -60 126 0
74 -215 -383 0
34 50 -348 0
-23 243 -310 0
77 273 -281 0
-50 -290 -444 0
16 163 -198 0
-93 325 426 0
24 76 -339 0
-276 285 -417 0
21 -230 393 0
-48 308 339 0
46 394 405 0
47 -172 392 0
89 162 348 0
6 283 287 0
35 -54 -330 0
-184 -200 -299 0
81 230 -441 0
102 260 441 0
12 -104 232 0
-98 -110 -270 0
-79 -166 297 0
-27 -64 365 0
267 396 -436 0
191 -334 375 0
18 310 370 0
-147 178 -443 0
96 373 -411 0
24 66 -351 0
-104 215 236 0
-51 206 222 0
-108 146 383 0
55 167 -178 0
24 -246 308 0
15 -398 401 0
270 293 -425 0
118 -210 -432 0
-224 368 400 0
-21 -91 -136 0
101 284 380 0
58 -81 -437 0
116 -282 -352 0
54 237 280 0
14 -154 379 0
58 -120 161 0
34 -229 -384 0
-90 -162 -371 0
88 -179 -366 0
69 117 327 0
-89 258 -260 0
-19 -348 -426 0
14 44 404 0
-77 -86 -92 0
-73 288 -322 0
-19 -346 -378 0
87 103 -439 0
-56 402 -428 0
-101 139 -298 0
7 257 427 0
-38 -277 394 0
177 235 396 0
-83 97 154 0
-79 276 425 0
51 290 -314 0
22 143 -418 0
22 183 -198 0
-22 256 -411 0
-55 -122 394 0
161 -178 -274 0
-37 55 290 0
153 -302 405 0
185 -295 399 0
-54 -164 -302 0
-101 341 359 0
138 178 253 0
-164 208 -304 0
224 289 419 0
-419 -432 -447 0
287 -375 437 0
-10 -250 -325 0
18 133 423 0
-261 -277 -303 0
85 192 -369 0
-49 -50 -227 0
-38 242 403 0
229 286 365 0
13 -315 392 0
113 183 408 0
98 -124 355 0
17 85 176 0
-21 -76 -338 0
-217 264 -334 0
186 -214 437 0
-136 -275 -284 0
162 258 -301 0
-82 221 292 0
105 -188 -273 0
-56 109 -432 0
199 -356 387 0
80 97 417 0
79 -95 -271 0
-220 283 -326 0
-46 -265 -450 0
-46 -310 -344 0
347 402 448 0
-248 -256 276 0
35 -217 342 0
166 -375 392 0
55 88 -231 0
223 -263 -332 0
238 353 414 0
-151 -169 393 0
176 243 -419 0
-142 242 349 0
221 428 436 0
3 100 -391 0
-225 -305 381 0
-26 -110 -256 0
-1 86 196 0
20 108 167 0
-55 391 435 0
-59 -162 385 0
-38 217 303 0
61 109 -307 0
-185 237 -290 0
95 -169 378 0
-45 177 -322 0
117 -149 172 0
124 247 338 0
314 -352 398 0
184 -395 -402 0
-282 398 421 0
166 -401 448 0
-199 411 -420 0
-294 -417 419 0
107 359 427 0
-170 234 -320 0
63 134 310 0
-3 -125 -330 0
-231 259 319 0
-190 251 -303 0
357 372 -388 0
195 -439 443 0
208 399 417 0
66 -127 322 0
82 -284 -325 0
-197 -319 367 0
188 -214 -445 0
-95 271 333 0
20 175 -292 0
9 -47 -71 0
-199 219 422 0
-104 235 324 0
38 75 -233 0
176 -262 -420 0
44 -252 345 0
48 179 225 0
-8 -179 420 0
248 -281 -364 0
-69 -171 -368 0
-210 -285 305 0
-212 218 -415 0
-164 -311 -350 0
-115 140 -404 0
-168 -281 290 0
-159 211 409 0
-16 176 -421 0
-113 156 -160 0
-5 50 -119 0
46 67 284 0
-54 168 375 0
-49 -186 -368 0
114 -194 397 0
163 385 387 0
111 198 306 0
376 -431 -447 0
44 323 381 0
61 371 -386 0
-103 283 -290 0
132 226 -359 0
-21 185 -374 0
-289 343 407 0
-176 235 381 0
69 -288 -437 0
134 200 -397 0
194 -348 450 0
354 386 403 0
162 -239 372 0
-155 -195 -351 0
-28 96 -194 0
42 104 160 0
206 350 384 0
-161 405 412 0
-74 -345 -392 0
42 -179 365 0
119 147 240 0
-394 -408 -427 0
-160 -348 440 0
-380 383 -428 0
192 -324 414 0
-10 -30 -388 0
-48 -350 374 0
-23 -180 -295 0
-9 252 312 0
110 -137 387 0
13 -166 -206 0
-183 -389 -419 0
-29 -56 -196 0
-87 346 413 0
78 -339 -385 0
326 339 -387 0
154 331 -400 0
-263 283 -300 0
-49 288 327 0
-73 164 -257 0
10 283 -399 0
40 212 260 0
78 319 -357 0
-209 337 393 0
93 114 330 0
3 -33 -75 0
8 -46 256 0
-160 178 -332 0
349 373 429 0
77 -100 306 0
17 -164 -171 0
9 -283 352 0
132 -417 -430 0
-267 -273 -351 0
52 383 450 0
-133 155 306 0
103 397 -426 0
3 62 63 0
102 -256 -383 0
185 -200 222 0
162 190 208 0
-185 -213 -369 0
-2 -154 432 0
-5 76 213 0
-8 -201 -372 0
-16 -129 -238 0
-2 49 -150 0
103 371 372 0
127 136 343 0
73 92 352 0
-63 277 444 0
133 233 -268 0
42 -84 -409 0
132 -248 308 0
110 -214 -311 0
120 192 378 0
210 245 345 0
58 -204 411 0
333 -411 -423 0
1 -49 68 0
-81 197 300 0
-73 -98 432 0
-9 -201 229 0
182 331 -384 0
-19 -155 326 0
85 -119 139 0
204 -339 -379 0
44 208 -348 0
70 306 -387 0
-26 -122 214 0
-195 224 435 0
-88 -95 154 0
28 -178 286 0
165 277 325 0
58 212 306 0
177 -191 -377 0
-14 -167 -358 0
73 -124 -241 0
-155 -278 -446 0
29 38 311 0
56 -197 306 0
127 350 364 0
122 245 443 0
-60 -102 -228 0
128 -189 -393 0
-83 -124 -320 0
-95 223 354 0
-7 -414 -444 0
135 -226 376 0
-192 198 -397 0
156 -213 315 0
257 -307 351 0
-221 -290 -431 0
-99 166 386 0
-4 142 -198 0
194 -208 246 0
-95 -211 -281 0
-204 217 379 0
-68 220 415 0
-124 161 372 0
-41 -190 333 0
-21 -258 -316 0
30 -78 -104 0
84 -142 -317 0
-295 -319 -359 0
-83 146 -311 0
78 -283 318 0
-1 -208 -333 0
-96 147 349 0
128 -318 -336 0
-90 93 399 0
3 260 282 0
-65 84 -251 0
19 340 -346 0
291 -357 412 0
25 -47 -355 0
23 -99 -435 0
10 -234 407 0
117 -257 289 0
-250 -292 401 0
67 -167 171 0
127 215 368 0
50 85 -405 0
197 306 385 0
12 47 -405 0
-24 -78 360 0
11 -93 178 0
2 278 -310 0
-99 -118 198 0
-233 -377 417 0
-28 -34 202 0
-72 -118 -286 0
86 -111 270 0
-216 -276 298 0
93 165 -238 0
-35 126 -391 0
-101 -158 -404 0
5 -38 -213 0
-35 -147 -362 0
-42 77 -224 0
198 -207 -422 0
-16 -124 198 0
-150 216 -384 0
60 217 407 0
204 -226 -390 0
199 273 -386 0
249 -315 -426 0
264 -315 432 0
136 377 -417 0
-69 -213 380 0
128 -155 280 0
-198 210 446 0
63 -114 133 0
-85 -107 417 0
-208 -269 346 0
-22 -291 -301 0
-45 -316 -338 0
83 -206 -449 0
252 -296 402 0
-122 -243 377 0
295 -329 437 0
51 98 148 0
12 -249 409 0
16 -333 -353 0
99 245 252 0
203 232 390 0
-115 -181 364 0
174 221 -376 0
-131 -186 -223 0
-297 -373 385 0
-98 330 -396 0
-219 354 381 0
-74 238 241 0
9 -94 282 0
115 304 -309 0
97 255 277 0
27 -273 -370 0
-58 89 -268 0
-220 223 -306 0
-166 -188 -419 0
59 -131 -415 0
5 182 439 0
-258 -278 355 0
158 -160 383 0
33 -171 -347 0
-20 76 -105 0
-14 -143 -427 0
-111 -251 -351 0
-170 276 -403 0
228 231 384 0
-32 -127 -136 0
99 301 -310 0
9 244 251 0
-189 312 327 0
135 405 -420 0
-20 158 -351 0
-74 189 -240 0
308 314 -381 0
107 109 266 0
-66 -75 275 0
-142 336 446 0
288 362 -364 0
110 -225 260 0
81 301 405 0
-140 294 376 0
43 105 306 0
275 350 365 0
114 273 -295 0
-60 148 -274 0
121 132 396 0
-43 -125 391 0
8 -91 -411 0
277 -327 -400 0
225 -325 329 0
-321 -396 -418 0
-136 -269 -409 0
54 239 -305 0
-50 -325 -352 0
130 -282 -443 0
144 -217 399 0
87 -303 -427 0
46 -244 417 0
103 406 449 0
78 -335 446 0
86 218 -293 0
-93 313 357 0
142 148 -201 0
-227 -352 376 0
93 -328 -416 0
245 -255 289 0
2 -148 296 0
105 -349 -381 0
-84 226 230 0
-126 133 433 0
-136 184 -192 0
-149 214 -419 0
-193 233 -379 0
-20 -283 -290 0
58 174 198 0
-69 121 -373 0
107 168 278 0
-10 -145 -413 0
-6 179 337 0
80 353 436 0
-30 365 400 0
195 204 -416 0
-318 -353 -420 0
14 15 177 0
-101 338 375 0
-189 -406 -412 0
139 -436 450 0
1 273 327 0
-209 249 266 0
105 -141 -396 0
170 328 -440 0
-117 -165 352 0
12 64 -387 0
355 408 -446 0
102 321 -442 0
-82 371 423 0
-205 -220 419 0
-20 -32 -190 0
-50 66 188 0
-165 -214 -419 0
-1 -156 -410 0
-119 -296 376 0
-219 223 449 0
87 97 197 0
230 -341 -342 0
-101 209 -300 0
-17 307 412 0
-55 -129 439 0
-101 143 171 0
57 -352 -357 0
297 337 -386 0
-43 171 329 0
-233 242 321 0
17 -168 -404 0
-187 -349 450 0
100 -341 -427 0
96 -356 -438 0
-158 245 386 0
86 -183 -408 0
32 267 -307 0
174 307 361 0
318 -397 -417 0
33 -209 437 0
7 -278 -338 0
134 -154 -232 0
164 237 301 0
100 339 414 0
203 205 382 0
156 -279 -363 0
173 -179 305 0
-64 243 286 0
29 -170 436 0
2 -50 445 0
35 125 -332 0
-114 -317 -403 0
9 -188 241 0
79 134 -256 0
-15 -196 360 0
-39 110 293 0
-58 115 -236 0
-67 81 129 0
70 -292 329 0
-50 -250 404 0
167 -229 -364 0
226 227 -298 0
-89 173 -437 0
134 -216 266 0
158 421 -430 0
-2 80 -146 0
-6 183 378 0
-268 355 405 0
-113 -218 322 0
-53 -140 207 0
131 -166 436 0
-32 -237 -333 0
-86 -305 443 0
-95 123 -371 0
62 -123 -385 0
353 -388 427 0
-43 110 300 0
132 -310 320 0
-28 68 385 0
147 319 374 0
-78 -264 -312 0
-179 286 370 0
237 264 395 0
18 -98 -298 0
344 -354 -378 0
16 -285 375 0
-106 -126 -218 0
-49 -408 421 0
-14 -102 -304 0
39 134 280 0
124 261 -406 0
215 -296 377 0
-23 218 415 0
241 -245 352 0
-248 -313 352 0
17 140 395 0
134 331 -407 0
19 -288 422 0
-58 366 -436 0
182 -250 416 0
30 219 -365 0
84 -181 322 0
-270 375 395 0
95 243 -401 0
114 -164 -441 0
61 -209 345 0
11 380 -425 0
171 234 239 0
-21 23 -122 0
131 -355 -379 0
106 -397 -409 0
88 -113 -374 0
113 304 -416 0
283 318 423 0
93 288 425 0
-27 67 -283 0
51 -120 -439 0
-90 124 270 0
117 -329 353 0
-95 264 436 0
-74 -92 163 0
2 178 -367 0
3 101 -412 0
-102 -191 418 0
-31 -49 -188 0
75 192 -341 0
-209 213 -390 0
292 -358 381 0
-7 328 -394 0
131 -260 -356 0
-19 -87 -90 0
107 -117 406 0
-264 -413 424 0
53 -98 446 0
-111 196 363 0
299 387 -443 0
-130 -253 388 0
121 143 -175 0
235 322 -382 0
-105 113 -326 0
256 363 -435 0
-156 262 -415 0
22 -48 68 0
81 -168 316 0
20 -34 393 0
-142 201 -299 0
240 -260 -283 0
90 212 353 0
242 -248 396 0
-65 91 272 0
-53 -210 278 0
50 -99 -170 0
-51 -207 -323 0
4 -103 -202 0
-7 -89 -383 0
-17 -54 198 0
-103 317 439 0
362 372 -385 0
-123 129 186 0
133 -171 433 0
-168 -281 302 0
80 110 -206 0
258 417 420 0
78 404 439 0
25 398 -416 0
150 301 426 0
-42 -304 -354 0
131 -259 395 0
-110 226 371 0
34 42 -320 0
-122 -430 450 0
39 216 -241 0
92 260 294 0
-236 -389 -416 0
59 164 280 0
78 -246 412 0
-289 -436 -442 0
142 -174 367 0
314 405 450 0
-91 -223 -422 0
83 220 -377 0
-53 281 -334 0
-72 -187 -339 0
-269 295 -436 0
119 159 -395 0
-272 -292 393 0
124 257 443 0
-29 210 -269 0
99 -131 226 0
-162 189 -227 0
245 -278 287 0
90 201 208 0
-122 223 -233 0
-255 -259 395 0
84 304 422 0
14 -104 128 0
-344 -386 434 0
-215 366 -441 0
3 19 -68 0
179 -181 -349 0
-163 -250 -342 0
-12 290 -340 0
64 174 -386 0
-22 -73 166 0
16 -405 429 0
152 -181 -437 0
-261 -414 -420 0
15 221 -322 0
-2 84 -304 0
-291 378 -431 0
-99 134 -168 0
-51 251 -375 0
283 -299 409 0
-63 -133 297 0
149 225 292 0
52 -213 217 0
132 156 168 0
88 264 423 0
45 -400 -428 0
-33 -204 252 0
-221 241 -430 0
-241 313 -325 0
79 186 380 0
-320 405 420 0
322 323 -426 0
-73 115 -207 0
79 -370 -443 0
-2 193 -358 0
52 365 418 0
116 -336 -374 0
-108 308 349 0
-161 185 323 0
-213 236 -393 0
-202 282 283 0
-55 -207 370 0
-48 191 234 0
4 54 -90 0
61 81 -182 0
141 193 360 0
105 -196 402 0
28 -301 -416 0
44 -140 305 0
166 -254 -443 0
-9 14 -324 0
279 -283 300 0
10 70 -227 0
-165 -292 -297 0
286 333 -344 0
316 -335 -373 0
153 214 318 0
-21 -306 446 0
-37 130 -392 0
31 -324 -388 0
26 -66 -273 0
-210 -224 278 0
-111 263 275 0
-15 53 116 0
-32 -79 -326 0
15 -24 -428 0
-158 -231 -333 0
-179 274 -303 0
-137 155 396 0
327 369 383 0
-25 59 -339 0
-266 339 -364 0
148 241 311 0
-155 -228 -408 0
266 327 384 0
208 -299 -426 0
-85 -375 -395 0
18 24 390 0
116 -141 -265 0
-94 286 -333 0
-54 -218 -286 0
-96 -214 -254 0
-161 304 348 0
14 -17 295 0
-109 -152 -393 0
173 -309 -320 0
-168 -286 -349 0
70 -274 396 0
-101 -252 346 0
6 -168 292 0
370 384 -449 0
-119 171 -341 0
221 -245 390 0
94 -319 381 0
292 294 -430 0
-41 361 -382 0
-102 243 -304 0
71 194 340 0
253 279 -383 0
12 -242 -439 0
-65 -391 444 0
-12 -33 121 0
-96 -407 425 0
15 -227 286 0
55 -297 -415 0
20 -296 438 0
-76 146 -336 0
-334 -389 -433 0
198 201 -302 0
-146 394 429 0
1 -22 -441 0
-105 163 -296 0
254 268 432 0
18 107 259 0
131 136 370 0
-9 263 -345 0
59 -114 440 0
199 246 -301 0
-190 -260 -371 0
-111 203 204 0
132 150 271 0
8 -135 -312 0
88 -382 408 0
71 300 441 0
46 -61 283 0
-115 381 -432 0
-27 39 368 0
-41 -243 -312 0
-24 149 191 0
-143 -281 -419 0
30 -290 -445 0
6 158 -235 0
-240 304 315 0
212 230 -418 0
-152 -155 -371 0
-228 259 286 0
-20 -249 -296 0
67 184 283 0
117 -340 369 0
53 325 326 0
-21 210 -254 0
-35 -193 432 0
182 425 -431 0
-106 -271 -345 0
-73 180 -328 0
58 -67 -186 0
91 203 -248 0
101 172 247 0
142 386 -436 0
-14 171 -205 0
-12 83 -148 0
11 -202 -437 0
64 -140 426 0
-69 -100 208 0
68 99 -111 0
79 -128 241 0
-153 -334 -436 0
3 211 253 0
36 46 356 0
-26 -148 -435 0
76 -198 356 0
4 58 359 0
5 -313 430 0
15 223 -263 0
-39 57 -142 0
-112 260 386 0
-212 312 322 0
-121 187 -323 0
-45 287 315 0
61 -68 -267 0
34 289 -343 0
-131 168 316 0
-117 -135 211 0
-175 305 -384 0
-143 158 431 0
-3 -4 93 0
68 130 -378 0
-68 225 413 0
-81 114 194 0
95 264 -342 0
160 267 -407 0
-55 100 -160 0
59 103 -383 0
135 -159 227 0
-40 75 355 0
-19 -251 291 0
17 -251 -384 0
-139 203 -427 0
36 54 -323 0
-188 221 -285 0
-51 -163 -353 0
-146 210 -301 0
178 190 291 0
-195 336 -354 0
290 -372 430 0
-154 294 -413 0
360 372 -415 0
136 299 346 0
-182 438 -449 0
-233 406 -437 0
-121 -221 320 0
93 256 394 0
-105 -409 441 0
-71 -163 -171 0
146 -211 224 0
-141 -303 368 0
75 -91 -118 0
39 274 297 0
106 -223 -243 0
-262 -354 -423 0
125 -240 432 0
141 147 -429 0
30 -130 218 0
-87 -363 -439 0
238 308 439 0
-158 314 400 0
90 -267 331 0
276 360 -381 0
-151 -261 -336 0
41 -173 -323 0
104 186 -389 0
-98 -108 139 0
58 235 416 0
38 119 278 0
94 286 -362 0
96 118 249 0
284 378 -429 0
-194 299 444 0
-56 -160 -285 0
-192 349 376 0
165 175 -193 0
14 -125 -175 0
-171 -238 -433 0
31 -60 377 0
77 101 -334 0
182 372 377 0
137 -176 230 0
-7 242 361 0
7 176 -369 0
82 -330 393 0
-13 -261 -449 0
222 -264 376 0
-74 -136 176 0
9 -175 407 0
-111 163 193 0
99 220 372 0
-103 148 442 0
-185 -340 401 0
216 -327 -350 0
245 -279 -403 0
-53 227 393 0
137 -143 -291 0
-156 -285 -427 0
20 70 -155 0
90 190 -210 0
-278 316 -416 0
-41 315 -371 0
51 -259 -264 0
-29 142 450 0
-367 422 -430 0
-3 90 400 0
71 -138 167 0
-48 82 328 0
-79 204 343 0
-6 140 -207 0
-68 108 -304 0
14 370 423 0
78 204 250 0
-170 -287 -327 0
-80 -165 345 0
-109 -167 350 0
-231 267 318 0
167 -329 429 0
48 -199 373 0
112 181 -359 0
-123 124 -206 0
-74 -211 -223 0
-16 -67 239 0
39 55 -302 0
43 144 332 0
-97 244 350 0
-17 -304 -380 0
-198 401 419 0
-39 126 -339 0
-94 109 -317 0
88 -313 -388 0
15 -246 -386 0
-72 -155 300 0
-56 172 -343 0
304 334 -381 0
151 158 240 0
296 -335 -372 0
52 -146 291 0
-158 -203 320 0
-35 -316 400 0
24 -65 -321 0
-40 -144 -274 0
-196 -232 327 0
155 -294 396 0
47 179 236 0
170 -329 -409 0
7 113 -449 0
46 -90 378 0
178 -197 -445 0
-97 -140 211 0
-83 -138 349 0
-28 103 319 0
-294 423 -428 0
201 -258 -422 0
270 277 -351 0
19 -207 -392 0
39 192 438 0
-166 210 390 0
57 -71 -362 0
172 233 406 0
32 -242 432 0
-14 108 -383 0
-182 221 -408 0
-244 -426 -444 0
78 -98 179 0
120 201 333 0
-80 -203 -331 0
19 30 -220 0
31 151 265 0
149 -176 -300 0
-76 201 -221 0
93 -377 450 0
96 -263 -403 0
-16 -128 -387 0
-165 -275 372 0
-128 294 -402 0
-136 156 162 0
-93 101 -425 0
137 250 421 0
214 -405 -420 0
-111 327 419 0
23 -323 -345 0
258 306 -339 0
43 241 347 0
17 -76 100 0
27 -163 449 0
-61 75 178 0
-25 320 -407 0
-11 68 -309 0
148 340 391 0
-20 -133 248 0
-3 97 -437 0
166 348 -364 0
-16 368 397 0
58 -168 327 0
-74 157 -254 0
-167 -247 310 0
248 -332 444 0
282 345 -382 0
-76 -82 286 0
185 338 -435 0
-60 -293 373 0
-24 -33 -125 0
-297 -353 -450 0
-194 -275 -322 0
-159 190 328 0
235 -249 -338 0
231 -293 365 0
-99 157 277 0
7 186 203 0
15 -53 -141 0
-131 277 -297 0
-127 -242 262 0
230 -435 439 0
10 -39 390 0
178 -336 -414 0
-238 261 -446 0
162 -223 -404 0
-41 231 331 0
91 -111 -315 0
-19 312 370 0
-65 70 112 0
112 -118 177 0
127 134 253 0
-49 316 363 0
150 207 -273 0
58 -170 250 0
88 -160 398 0
-210 221 -248 0
-265 368 -410 0
36 209 -400 0
131 -345 -435 0
-31 -104 173 0
-231 -296 -414 0
-171 -174 -234 0
22 101 237 0
173 -330 334 0
24 -39 -41 0
-99 215 -272 0
47 -53 -280 0
-28 -186 381 0
-21 -28 -421 0
13 249 373 0
-116 -196 -276 0
49 118 -440 0
-322 324 424 0
-162 -364 366 0
151 -297 -404 0
-219 -227 -435 0
307 -425 -446 0
-16 164 -307 0
-133 -268 -345 0
-55 -343 -405 0
-21 -50 128 0
4 -34 380 0
109 333 398 0
282 296 327 0
198 -244 395 0
181 385 -410 0
100 -181 -422 0
-42 -155 210 0
106 -342 392 0
184 -318 409 0
-123 -187 215 0
6 -57 -160 0
-9 -122 -198 0
-128 198 -441 0
-293 -336 343 0
-29 296 393 0
131 -141 223 0
-39 -85 124 0
105 -205 386 0
281 -377 -413 0
-49 147 -424 0
-198 -210 256 0
77 -307 -362 0
89 -237 -411 0
-51 -118 -420 0
48 213 423 0
-106 147 338 0
-13 -150 404 0
-100 -316 -419 0
-17 81 -385 0
-191 -205 272 0
-381 -420 -431 0
-33 348 415 0
-374 385 449 0
72 197 -362 0
360 363 388 0
122 159 -437 0
-212 -350 444 0
-116 130 -180 0
49 -302 372 0
44 -189 -261 0
-265 -368 405 0
-68 -156 304 0
-117 140 417 0
-162 183 -205 0
-59 108 -365 0
-26 44 89 0
44 223 -359 0
167 -177 406 0
-39 -48 87 0
-265 -280 310 0
-4 151 -289 0
74 261 395 0
-6 -239 -344 0
149 193 -254 0
65 -281 284 0
1 -257 303 0
-2 244 413 0
-1 -105 114 0
202 336 419 0
-80 -387 431 0
-52 -150 -396 0
-5 -196 -430 0
86 -222 241 0
-140 -168 -213 0
-18 140 -371 0
50 -135 -368 0
-92 200 317 0
137 144 -275 0
132 -170 285 0
54 159 -427 0
-28 109 442 0
-202 -324 423 0
199 -327 -341 0
-66 194 287 0
-19 -108 194 0
1 -132 -270 0
135 -146 -285 0
-258 442 446 0
227 372 -373 0
18 -60 -401 0
15 -30 39 0
-74 -232 427 0
-12 237 427 0
284 -351 443 0
27 -91 -299 0
-128 -288 -340 0
-27 -38 -260 0
-152 -243 318 0
1 143 -304 0
-22 -162 -267 0
-101 206 281 0
22 363 -406 0
-84 224 227 0
422 427 -428 0
-345 360 441 0
-284 286 -414 0
42 -382 409 0
39 -114 150 0
-314 -411 417 0
-153 271 -438 0
-38 255 -369 0
-221 228 442 0
125 -161 402 0
-76 -129 316 0
197 -284 -358 0
-140 -192 248 0
119 -278 -372 0
160 244 -422 0
134 -348 392 0
34 110 -442 0
-70 272 424 0
-114 -216 299 0
67 -256 -331 0
-158 -274 378 0
-211 355 -443 0
-51 233 -246 0
52 291 -364 0
49 236 -289 0
151 199 -315 0
225 -326 -355 0
135 177 -251 0
185 334 449 0
-200 222 -433 0
58 220 443 0
225 284 426 0
61 163 -276 0
-180 -342 442 0
-108 -272 298 0
45 113 -447 0
194 -219 410 0
-30 -231 343 0
-13 43 -363 0
137 319 355 0
24 205 215 0
261 325 -391 0
-89 138 -403 0
41 238 -312 0
25 310 388 0
-8 139 197 0
-107 -158 241 0
34 101 227 0
-54 -241 329 0
-236 -248 -316 0
-13 -260 -310 0
87 360 -385 0
-13 -143 -437 0
42 -243 404 0
-36 94 -375 0
-132 261 278 0
276 282 -423 0
-109 225 330 0
195 -203 -303 0
20 198 -408 0
-107 199 -387 0
14 -234 -324 0
-33 -137 -170 0
148 203 373 0
17 -45 -183 0
-79 177 -449 0
171 193 -269 0
50 332 438 0
15 59 -93 0
-71 -244 300 0
22 48 -94 0
119 -195 -374 0
-109 130 175 0
-290 -303 -379 0
-325 -402 443 0
87 172 238 0
-32 -65 379 0
-174 262 397 0
166 267 281 0
-235 310 410 0
-87 185 -212 0
-20 -51 132 0
113 350 435 0
252 -331 392 0
-50 62 -234 0
-102 -165 217 0
34 61 417 0
-5 71 298 0
-96 238 326 0
-170 187 -264 0
-243 -250 275 0
-112 -284 -371 0
-20 -164 -171 0
-31 -169 199 0
-122 -186 203 0
141 -197 -358 0
-15 330 -366 0
16 -149 -267 0
-242 -243 348 0
115 230 -386 0
-128 -143 -262 0
199 -200 414 0
-31 -62 172 0
-6 -133 -172 0
-82 -274 345 0
-12 -267 337 0
19 -72 83 0
-1 -280 -300 0
-367 383 409 0
39 -40 -377 0
24 -76 -100 0
107 347 382 0
202 239 267 0
6 -67 -306 0
-167 -169 436 0
-162 -290 -343 0
-41 93 -100 0
127 325 420 0
79 246 -363 0
268 -383 -386 0
-94 109 -137 0
129 280 -434 0
-67 -398 402 0
114 223 -296 0
-220 -265 326 0
-113 -151 419 0
-222 343 366 0
5 -61 118 0
269 368 439 0
145 -178 197 0
136 206 -379 0
-242 -271 362 0
-33 -115 219 0
-7 -185 -310 0
-373 -396 -428 0
56 -242 -267 0
406 -430 434 0
245 -271 434 0
36 -105 134 0
-118 150 420 0
95 217 -275 0
-345 -386 -433 0
211 -237 -387 0
-121 143 -289 0
291 420 -446 0
246 -371 -449 0
35 -50 433 0
122 -390 431 0
-28 -202 215 0
268 315 418 0
5 -280 -431 0
-38 99 -434 0
19 -166 370 0
-196 -337 -420 0
86 -126 -438 0
-125 223 407 0
-21 62 -225 0
-42 -49 -364 0
-163 386 -405 0
-122 -153 364 0
-76 -176 269 0
-266 416 424 0
-38 215 -398 0
19 205 -335 0
-206 -208 306 0
-38 -160 359 0
-206 -298 -351 0
160 273 -324 0
-273 377 -382 0
23 98 -374 0
18 -68 -258 0
-297 324 -361 0
231 -238 -355 0
145 -209 -292 0
-290 376 380 0
130 -308 437 0
-16 -315 330 0
-167 368 -411 0
185 -272 -442 0
-41 -77 -308 0
104 220 286 0
-50 91 410 0
-132 -283 364 0
-99 -331 -446 0
-50 -198 422 0
105 147 -377 0
-239 330 -418 0
99 -175 -431 0
99 111 -430 0
275 -283 339 0
-23 59 -355 0
94 296 -298 0
3 267 -306 0
-227 -334 345 0
-98 -295 -402 0
-213 307 -353 0
-171 307 369 0
36 240 -245 0
236 -246 247 0
282 284 339 0
288 367 -410 0
153 -228 -352 0
47 -62 -262 0
-33 244 -319 0
286 305 376 0
12 -59 -437 0
69 -228 -450 0
-62 253 -367 0
-18 -104 385 0
-118 -154 182 0
26 -314 435 0
-100 -388 -434 0
-184 222 444 0
87 -237 -279 0
-264 282 -350 0
-24 174 -205 0
152 -203 -277 0
-32 -263 -369 0
72 91 -347 0
28 40 -174 0
-144 273 279 0
-73 -375 425 0
46 -204 -295 0
14 26 360 0
-6 -189 255 0
238 -314 385 0
-94 -199 -406 0
163 229 -234 0
-48 134 197 0
-256 281 343 0
223 343 393 0
231 254 301 0
-132 -343 405 0
-110 281 -363 0
-25 94 220 0
43 -125 -403 0
29 -238 359 0
-226 -297 354 0
47 -53 -315 0
-21 -99 421 0
75 229 -373 0
354 379 448 0
-92 -283 -284 0
18 -327 -450 0
83 -137 294 0
-25 333 446 0
-125 287 -357 0
-105 -175 180 0
180 192 197 0
71 -158 -337 0
-176 354 400 0
-134 -389 401 0
122 -136 346 0
-45 243 -391 0
-35 167 -395 0
-25 84 302 0
-90 -381 441 0
-136 240 391 0
241 245 -439 0
124 150 345 0
-3 121 230 0
-35 -205 -258 0
-204 -234 -449 0
-11 -297 -359 0
120 134 -173 0
159 -275 -362 0
-88 174 -390 0
-222 251 281 0
40 50 -370 0
-77 221 -414 0
134 -392 -402 0
-35 115 134 0
259 -372 412 0
18 -179 -435 0
-131 -134 -196 0
65 -158 299 0
-246 263 -391 0
-191 292 -410 0
-19 39 -357 0
-16 -74 -420 0
-91 -231 418 0
-206 -276 410 0
-233 246 -424 0
394 405 414 0
8 51 318 0
101 -251 442 0
108 -204 371 0
-38 -94 -222 0
-34 -38 256 0
-92 -268 -355 0
-142 -154 198 0
61 229 292 0
141 -231 386 0
-74 -165 -196 0
-2 78 -175 0
-153 -319 326 0
-152 274 -286 0
49 -265 -377 0
156 -302 391 0
3 142 226 0
-136 239 -313 0
2 -84 -247 0
-10 -206 274 0
53 -264 -429 0
99 338 -435 0
-7 175 353 0
73 212 310 0
42 -52 -195 0
49 238 279 0
245 -357 430 0
-98 -361 -365 0
-163 -392 399 0
114 250 -369 0
-269 -317 -324 0
-115 308 412 0
59 -179 -387 0
85 -329 348 0
-259 380 -450 0
32 -185 -353 0
-103 295 318 0
123 132 -260 0
-62 126 269 0
65 -118 312 0
-53 84 328 0
13 283 436 0
-303 324 -370 0
-109 -362 363 0
-28 -46 424 0
283 385 410 0
-258 335 -410 0
198 -312 434 0
-288 -299 -390 0
-35 -226 -286 0
-76 -88 235 0
-36 206 265 0
