p cnf 450 1917
-243 366 -388 0
42 203 -253 0
216 233 -323 0
-240 432 -433 0
-172 204 333 0
-46 -86 -126 0
-223 -349 385 0
-47 -66 436 0
-149 314 -393 0
-19 148 296 0
68 195 409 0
-88 -159 432 0
-89 -121 151 0
-199 262 272 0
98 214 -341 0
25 257 339 0
54 225 360 0
114 189 -378 0
244 -341 -370 0
-70 357 370 0
-115 -295 438 0
-188 416 -446 0
100 -128 -445 0
-104 -173 -208 0
37 200 231 0
-127 -212 306 0
39 103 -357 0
341 368 -379 0
-2 -202 -319 0
29 74 -364 0
47 123 -238 0
118 270 360 0
-6 178 -210 0
142 193 -291 0
-369 -388 431 0
222 -256 -400 0
-132 -215 328 0
130 -265 -428 0
-11 -45 -111 0
-138 -384 -434 0
123 198 -389 0
-21 -283 -368 0
256 -342 398 0
168 265 -424 0
99 154 -218 0
75 -171 403 0
-48 301 359 0
-75 -83 -132 0
179 289 -357 0
-146 -182 306 0
88 215 -334 0
127 -402 446 0
-68 289 -352 0
-130 227 377 0
45 150 230 0
-96 130 -325 0
30 -352 368 0
-113 -154 171 0
-162 259 300 0
-89 108 -242 0
-244 -341 393 0
185 260 -298 0
136 -290 368 0
162 249 -380 0
137 -143 322 0
50 -445 -447 0
-59 147 363 0
-57 178 -221 0
-253 -349 -392 0
133 -383 414 0
183 197 386 0
-16 261 -388 0
132 -188 376 0
12 -98 -157 0
48 180 -329 0
-246 -251 -350 0
-360 381 -407 0
-3 -176 181 0
12 235 -280 0
166 249 303 0
1 -355 363 0
98 -102 -304 0
-127 -228 -355 0
-66 -93 206 0
-56 -331 -336 0
213 -307 311 0
-16 91 -167 0
94 256 -339 0
-98 120 -139 0
64 -388 -413 0
70 82 146 0
76 -336 348 0
151 -341 -362 0
75 85 -168 0
-111 -203 -371 0
72 -138 282 0
105 287 312 0
181 343 -425 0
-113 372 -427 0
-268 -269 -308 0
224 252 -322 0
-153 160 333 0
-107 312 322 0
89 -163 217 0
-68 -72 -263 0
-6 136 -352 0
154 240 -322 0
66 -74 -390 0
139 141 216 0
111 -114 -283 0
-185 352 387 0
-27 41 -350 0
130 -247 415 0
-10 -212 -232 0
-108 205 -388 0
-45 85 -320 0
238 328 -418 0
32 -207 249 0
-314 -319 351 0
-63 137 344 0
41 -227 -363 0
-180 -390 -412 0
113 405 415 0
47 -194 334 0
-16 -208 362 0
-74 -206 274 0
128 198 -348 0
-119 396 -420 0
218 -296 388 0
-34 -262 324 0
218 -295 -394 0
-19 -32 79 0
-136 167 -411 0
-230 344 -350 0
296 341 -418 0
-73 208 -447 0
148 -204 349 0
-221 -386 -396 0
54 -146 -262 0
-154 287 -297 0
-52 299 -315 0
-209 412 -423 0
52 60 374 0
-390 403 -439 0
174 -316 409 0
4 7 -91 0
-14 -171 270 0
-51 148 316 0
210 -227 252 0
184 -292 315 0
158 276 288 0
-250 387 443 0
61 93 -427 0
336 -383 -413 0
55 89 390 0
-54 286 -433 0
-8 -47 -339 0
48 -116 241 0
-280 -297 348 0
-51 -184 350 0
-307 353 419 0
160 221 -312 0
224 -299 354 0
-125 -232 -373 0
132 148 369 0
-84 -215 303 0
259 -333 375 0
-23 96 156 0
-278 365 -429 0
-1 -363 409 0
36 -170 264 0
-19 161 184 0
23 209 240 0
-185 194 436 0
-55 201 357 0
52 -191 450 0
201 -203 -358 0
107 -185 -367 0
93 292 341 0
-138 -152 -442 0
1 -184 -317 0
4 6 142 0
102 266 423 0
14 -32 -178 0
174 239 -253 0
41 151 -217 0
74 246 -399 0
266 -342 397 0
80 90 -389 0
-297 353 -423 0
-56 -126 -381 0
50 -137 153 0
19 -286 306 0
9 34 359 0
236 278 -293 0
-32 -233 376 0
-118 -191 226 0
35 -182 -408 0
128 274 324 0
53 109 -375 0
-206 -312 -319 0
35 -431 -439 0
196 341 433 0
-59 -270 424 0
-21 128 318 0
-74 79 -88 0
233 -327 -336 0
-46 -144 -389 0
145 -256 -343 0
40 116 169 0
-105 123 375 0
-133 369 397 0
-124 350 -421 0
9 15 392 0
-93 189 239 0
230 -336 381 0
256 284 397 0
-263 -290 291 0
148 -219 392 0
389 -397 -447 0
-233 271 -321 0
-144 -191 211 0
83 -85 -248 0
102 289 340 0
77 150 272 0
73 -182 -417 0
-240 390 410 0
69 -72 -178 0
-141 -221 404 0
-19 -79 -99 0
-186 215 344 0
-108 136 373 0
-35 -203 406 0
227 260 340 0
114 143 -423 0
-106 -126 183 0
-66 206 -326 0
198 234 289 0
71 294 368 0
23 104 -127 0
-100 -260 -279 0
-186 -254 -425 0
-111 125 -349 0
-78 -402 -449 0
90 -344 -396 0
-117 140 -202 0
-247 397 -414 0
-68 70 392 0
-31 -265 390 0
-100 -410 -431 0
81 345 383 0
45 114 -304 0
84 188 220 0
-67 -133 416 0
-52 -66 -225 0
-186 -349 -350 0
219 224 415 0
249 -265 310 0
54 -275 375 0
-43 45 340 0
-8 282 360 0
-65 227 -288 0
46 -223 333 0
64 156 441 0
-188 331 -395 0
-199 -251 333 0
-7 194 -257 0
-142 269 -281 0
114 -140 -302 0
-214 -416 423 0
-229 357 367 0
263 -286 301 0
-29 -119 356 0
-247 290 450 0
186 -257 293 0
-85 -141 -322 0
5 -70 269 0
40 77 407 0
-200 -396 -446 0
-51 -323 -398 0
-283 -390 428 0
3 -121 223 0
56 -307 316 0
120 -316 424 0
193 -213 253 0
80 -158 423 0
-47 -107 137 0
261 -308 404 0
-52 351 442 0
55 175 -445 0
-180 319 -423 0
-356 -365 409 0
-283 -318 -389 0
-198 -356 415 0
-104 -283 -397 0
-102 -257 352 0
235 -257 433 0
139 203 -443 0
-26 102 359 0
-363 -386 -449 0
122 131 -403 0
108 120 -394 0
160 -286 401 0
106 213 -238 0
-69 74 -171 0
33 267 -310 0
-44 -101 -127 0
-17 -82 -393 0
28 -406 444 0
120 143 264 0
-62 112 229 0
56 -157 -421 0
109 209 -310 0
-247 -360 -442 0
-121 209 251 0
-45 -166 -322 0
133 -253 -331 0
262 -313 -367 0
215 -303 341 0
55 -231 -283 0
-68 -212 -414 0
80 -111 -318 0
-42 -241 -360 0
-294 -329 -368 0
320 -360 -398 0
-128 217 -273 0
-28 -92 367 0
265 -276 -393 0
-87 93 177 0
4 -201 -304 0
60 -176 364 0
-132 -165 390 0
151 230 -397 0
18 -334 -406 0
49 380 -430 0
-233 234 -240 0
-143 -172 256 0
23 -184 191 0
128 154 232 0
15 76 -201 0
395 -406 -413 0
-3 350 -377 0
-84 -190 428 0
9 271 317 0
257 404 -434 0
149 191 -373 0
-52 120 -318 0
-22 225 -449 0
78 -342 428 0
60 -135 185 0
-185 349 -386 0
174 -177 179 0
-295 342 -392 0
-226 304 -343 0
80 308 403 0
-148 -322 -390 0
35 -156 359 0
-57 313 -347 0
31 -232 269 0
2 74 -303 0
2 -201 267 0
-95 -166 -261 0
-125 -168 -200 0
117 164 270 0
118 -179 -352 0
-173 -177 -293 0
39 292 396 0
114 120 -142 0
-264 307 -320 0
164 -258 -369 0
-177 181 335 0
-30 -223 426 0
-108 265 437 0
-181 285 -298 0
-327 -336 405 0
33 320 -410 0
-33 -274 302 0
226 -287 -374 0
-31 184 332 0
-266 308 -447 0
25 -327 391 0
96 -156 -301 0
-232 -251 -270 0
-1 -203 -228 0
-120 -132 -188 0
-63 -256 381 0
-255 -388 -398 0
-156 252 -413 0
32 67 -77 0
-42 -270 350 0
78 -136 -380 0
384 -391 416 0
135 -156 377 0
39 130 -132 0
-54 -255 -371 0
-156 250 422 0
-95 180 421 0
-20 85 409 0
64 -286 378 0
227 -312 -418 0
-140 158 -189 0
-11 -110 -329 0
-36 -133 -191 0
17 -180 -335 0
-69 262 -270 0
-95 -110 333 0
51 -54 -279 0
-40 -402 435 0
-211 242 365 0
-9 -90 -280 0
-205 238 -441 0
-61 -86 -428 0
-281 310 312 0
5 -79 340 0
34 -134 -325 0
34 54 -412 0
-118 181 -441 0
179 284 -351 0
-222 331 -364 0
-236 -273 -444 0
59 112 338 0
172 237 303 0
-302 432 -447 0
207 234 428 0
-105 115 -402 0
80 94 172 0
-181 -355 387 0
-201 205 -386 0
-93 131 -198 0
-126 -152 324 0
69 -178 264 0
80 -137 266 0
-214 391 -424 0
134 -278 407 0
87 137 324 0
23 -116 -169 0
59 135 332 0
-299 -315 -396 0
-102 -116 165 0
25 -138 148 0
226 -418 -446 0
134 -157 -176 0
-61 -289 414 0
265 307 354 0
215 359 -408 0
240 339 407 0
79 -328 -397 0
129 -134 168 0
-7 49 130 0
37 -202 449 0
-17 57 -389 0
-172 209 230 0
-30 334 352 0
31 -106 213 0
-210 -252 437 0
-26 374 446 0
-30 -428 439 0
-219 274 -357 0
-28 106 390 0
147 -176 302 0
133 265 347 0
3 128 -135 0
94 235 -241 0
-41 -125 -298 0
58 -87 129 0
-49 215 426 0
-15 -184 -449 0
122 -183 -383 0
8 -49 89 0
-209 -267 -444 0
228 -229 -380 0
-10 232 442 0
-201 327 367 0
83 110 183 0
-34 46 447 0
-91 -92 -242 0
97 -184 261 0
49 384 -406 0
-178 315 -322 0
113 369 -435 0
144 -209 -221 0
37 -253 -367 0
80 442 -445 0
91 -113 278 0
230 -261 -339 0
54 116 165 0
-13 24 161 0
-316 -321 -426 0
-178 -223 -346 0
-63 213 -265 0
-38 257 -349 0
-161 -167 365 0
375 -417 426 0
-82 276 444 0
2 -211 -236 0
93 383 -441 0
-418 426 -433 0
-54 237 349 0
118 245 399 0
-11 76 445 0
358 -368 -418 0
103 -119 -335 0
-50 -257 308 0
-21 -78 -85 0
-183 -348 446 0
205 298 438 0
-117 -159 306 0
-283 377 -441 0
-231 257 358 0
-5 60 -173 0
-95 352 366 0
52 -229 309 0
-91 -243 -314 0
-31 102 225 0
44 90 -416 0
177 423 425 0
275 338 429 0
232 245 333 0
1 44 -182 0
-237 -245 -332 0
33 34 68 0
127 -222 -366 0
-127 199 402 0
25 -355 -439 0
-339 -372 -450 0
25 309 450 0
120 241 256 0
-92 103 329 0
-5 13 264 0
51 116 -338 0
-31 193 219 0
238 -357 -424 0
99 -234 351 0
-30 -175 301 0
-195 -440 444 0
85 -143 442 0
-37 -140 -288 0
27 -234 258 0
-13 -34 80 0
110 -145 377 0
33 46 414 0
-25 75 258 0
-147 -159 -253 0
-135 275 340 0
-14 382 385 0
-38 287 352 0
-82 -281 -315 0
202 317 444 0
80 137 -430 0
-27 283 -292 0
122 -212 -364 0
112 -170 214 0
-79 -170 -203 0
202 299 -301 0
175 -286 -448 0
-11 -50 -442 0
-20 -34 -311 0
-34 63 266 0
2 55 174 0
-154 -247 386 0
-115 173 209 0
163 350 408 0
-46 219 357 0
59 139 -286 0
61 172 -382 0
-20 -129 178 0
-59 -312 344 0
221 326 -328 0
172 309 -332 0
-10 27 240 0
44 -62 -122 0
108 -166 -306 0
-197 223 -249 0
-28 166 320 0
73 -130 358 0
-59 -202 389 0
-35 303 346 0
-122 -123 -414 0
-210 252 298 0
413 439 440 0
-15 200 360 0
130 -155 217 0
-146 262 -365 0
-70 149 352 0
-32 -345 360 0
49 139 -177 0
-162 176 -407 0
47 -129 -263 0
-270 -296 -361 0
-82 -399 436 0
-103 -124 -386 0
-81 317 -352 0
-142 -183 -206 0
-25 -128 -172 0
100 156 -238 0
-277 -326 365 0
131 -274 433 0
-179 -310 339 0
136 -287 376 0
32 132 -226 0
-14 -65 -247 0
-280 298 421 0
-101 217 391 0
-15 207 221 0
-67 120 -186 0
-76 190 -247 0
204 302 353 0
46 94 -341 0
102 -248 -350 0
-49 160 -338 0
-108 144 -194 0
-179 182 -359 0
134 -165 -271 0
142 379 417 0
29 104 260 0
114 -231 291 0
-163 184 401 0
-110 -142 426 0
-2 -98 -242 0
13 132 314 0
-78 126 258 0
-223 -249 344 0
-212 -224 -322 0
-41 -306 -408 0
-35 55 -120 0
62 230 327 0
8 131 -371 0
20 31 433 0
-39 -178 -190 0
65 207 -441 0
61 183 323 0
76 -198 -211 0
137 211 372 0
41 184 -414 0
80 252 -435 0
143 322 404 0
125 268 291 0
-99 -109 178 0
-336 339 -431 0
-41 292 417 0
-17 -46 -221 0
250 287 361 0
238 -259 292 0
84 -143 285 0
-120 128 132 0
70 -146 -393 0
-88 -116 358 0
-118 204 405 0
97 -418 -425 0
9 -309 383 0
-21 -22 425 0
-245 311 -416 0
-91 243 -296 0
-118 318 442 0
-44 -63 217 0
242 258 349 0
-100 -193 287 0
-192 -228 275 0
25 -102 -379 0
-237 425 428 0
1 -124 -161 0
-369 431 450 0
58 170 308 0
22 -108 193 0
160 317 430 0
-154 -330 -357 0
6 -47 102 0
108 -170 -181 0
-75 115 340 0
65 210 -324 0
-107 184 263 0
3 93 294 0
285 -396 450 0
-109 -144 -189 0
22 -323 388 0
95 -204 420 0
-248 254 -260 0
-381 398 -407 0
-53 -91 254 0
-194 -283 -394 0
-49 166 322 0
-34 139 -431 0
155 -296 376 0
29 102 -260 0
120 287 -322 0
45 -64 -169 0
-19 -99 -132 0
-198 -279 -410 0
36 124 225 0
41 217 262 0
-90 98 206 0
-264 -366 379 0
-217 392 -449 0
272 -317 408 0
80 203 377 0
-42 256 413 0
200 279 -383 0
-49 137 207 0
-16 370 382 0
-225 318 -404 0
-228 229 348 0
-75 294 439 0
-75 -378 -414 0
59 137 -273 0
-259 280 330 0
44 131 333 0
164 -214 -384 0
-216 229 -325 0
-65 -179 -373 0
187 312 376 0
-84 220 427 0
-97 -331 413 0
-96 -137 -358 0
288 -314 -429 0
88 138 176 0
31 -287 361 0
-4 -60 -230 0
224 294 -349 0
-197 -262 -294 0
-104 320 333 0
-176 208 308 0
142 -211 405 0
-31 -123 346 0
-40 43 -248 0
-87 107 325 0
-10 -198 365 0
44 179 -233 0
-1 -264 274 0
195 222 -363 0
200 -294 -314 0
152 -269 413 0
60 134 -344 0
29 -165 346 0
-6 -246 299 0
41 206 -427 0
-155 -201 350 0
163 174 417 0
-124 176 -205 0
-31 -38 149 0
45 75 83 0
-8 -105 133 0
-102 131 -172 0
27 33 220 0
-168 317 329 0
-14 -233 443 0
121 -131 -358 0
-111 -193 -349 0
-184 367 -383 0
37 150 197 0
22 297 400 0
283 -300 -361 0
195 -201 219 0
95 -232 -363 0
234 264 277 0
152 298 -433 0
7 -21 344 0
-67 -322 400 0
153 -189 -227 0
324 351 -384 0
79 150 -292 0
178 -243 -376 0
-110 304 -383 0
-47 -172 369 0
158 -192 404 0
240 292 437 0
-220 -321 -440 0
-69 -110 227 0
-278 335 -444 0
-180 -324 376 0
-217 429 -444 0
153 243 416 0
23 67 272 0
-95 -206 -301 0
-44 -239 430 0
114 -119 397 0
11 43 -155 0
68 335 389 0
-226 432 435 0
136 268 -446 0
434 438 -444 0
-32 119 -323 0
-25 -235 288 0
-112 -170 354 0
-54 357 416 0
53 -139 340 0
-41 -356 -415 0
-164 -292 -416 0
158 222 -412 0
93 351 -399 0
-40 102 -173 0
86 225 -320 0
-81 -197 -436 0
-240 -283 287 0
-119 302 -350 0
-265 -285 -291 0
311 383 415 0
-77 81 -362 0
28 76 148 0
-101 284 -366 0
-8 125 -290 0
144 200 220 0
-202 -219 360 0
-101 122 131 0
-127 -143 275 0
-295 313 -345 0
-66 -106 446 0
22 334 351 0
-30 183 246 0
-66 -251 -295 0
29 96 -372 0
-62 -358 -411 0
213 -319 348 0
65 128 -215 0
371 -381 407 0
-244 303 307 0
118 -178 -442 0
14 301 -386 0
-16 99 -273 0
-169 320 367 0
-215 293 392 0
-25 -134 -220 0
-93 -150 436 0
2 242 -420 0
20 -99 208 0
-231 342 -450 0
-148 -212 399 0
-218 -259 423 0
31 181 308 0
-250 -315 -442 0
105 -114 400 0
60 -80 -440 0
-101 147 215 0
137 411 -444 0
-125 -184 364 0
-287 -376 -377 0
-151 193 305 0
240 279 321 0
3 41 115 0
-136 155 396 0
60 -75 -151 0
352 361 416 0
-228 313 -387 0
-88 -216 -369 0
-8 45 192 0
11 -24 408 0
42 295 -372 0
-258 381 413 0
36 164 258 0
180 -215 -218 0
5 95 -150 0
-69 -221 315 0
84 144 -294 0
147 -157 -423 0
7 -25 340 0
-154 346 358 0
-92 -205 251 0
83 151 443 0
-147 -251 448 0
-95 -103 424 0
180 -364 -439 0
-56 -161 -406 0
-280 -387 419 0
-137 -244 254 0
237 243 395 0
70 -355 447 0
-199 329 414 0
189 239 428 0
-134 143 -340 0
-47 122 449 0
56 223 -341 0
-192 -197 285 0
249 364 379 0
308 403 443 0
-173 -239 430 0
211 411 417 0
227 -260 -358 0
-188 -279 -357 0
75 -167 -286 0
87 330 -439 0
402 430 -439 0
205 374 392 0
242 -409 419 0
-235 262 430 0
-256 -395 -405 0
-39 153 299 0
55 -153 -354 0
32 234 -425 0
-222 227 316 0
173 391 -429 0
-52 147 -171 0
96 -171 193 0
-167 328 -336 0
13 -70 -132 0
-71 180 266 0
-23 -24 54 0
-100 154 168 0
-198 265 268 0
216 -344 353 0
59 203 235 0
-25 -193 381 0
72 -347 429 0
46 292 392 0
-40 80 -352 0
-140 -241 333 0
-3 71 380 0
205 -211 420 0
112 385 -400 0
62 99 -119 0
-165 359 -445 0
-96 -203 -326 0
-21 -256 -347 0
-57 330 336 0
-32 -95 -277 0
214 -334 393 0
-217 267 -340 0
-5 -78 132 0
79 84 -374 0
54 -67 -445 0
98 -170 -389 0
129 315 384 0
-82 244 296 0
-100 -163 -302 0
-56 429 -437 0
69 256 414 0
161 169 -428 0
37 -191 373 0
-87 -213 218 0
4 143 -354 0
-79 -103 -254 0
-21 329 -424 0
-39 -163 449 0
-19 55 429 0
-169 384 -440 0
-160 174 208 0
-25 190 430 0
-45 -330 -393 0
378 396 -422 0
28 -55 -328 0
-67 -162 370 0
115 -348 371 0
246 -372 423 0
-61 -168 418 0
26 179 345 0
-71 187 -425 0
246 -288 -372 0
109 156 -268 0
-233 243 -257 0
74 322 -448 0
-184 -189 216 0
61 311 347 0
-105 249 383 0
352 -387 431 0
-149 -334 -421 0
104 223 -319 0
151 358 -430 0
68 195 -245 0
-222 -340 349 0
109 -265 354 0
-31 -156 -233 0
179 360 -388 0
129 -272 325 0
-141 150 -192 0
90 325 350 0
205 282 319 0
195 -256 -319 0
153 -305 378 0
-80 236 261 0
177 -398 440 0
-54 -109 -362 0
-244 273 -330 0
-56 97 401 0
-7 162 379 0
-122 208 303 0
-339 -369 398 0
332 -406 -435 0
92 -270 389 0
-39 -208 385 0
95 -352 -434 0
-64 -239 293 0
-73 -142 -370 0
8 -100 155 0
77 -264 -365 0
146 -339 -435 0
119 276 419 0
-34 100 -269 0
26 111 -166 0
-26 192 345 0
-33 -142 -312 0
-92 170 -242 0
-19 -307 315 0
-55 -413 -449 0
15 -350 -439 0
-74 190 327 0
-255 265 276 0
-112 197 439 0
-36 163 -446 0
81 -131 -144 0
-194 209 -398 0
49 202 -240 0
9 22 234 0
-156 392 -429 0
-198 343 -373 0
119 359 415 0
11 281 305 0
-54 -76 -429 0
119 194 -301 0
-55 -215 450 0
-47 -294 -445 0
138 245 283 0
-133 227 -407 0
69 236 419 0
-12 -352 -355 0
67 -168 181 0
-146 159 -255 0
115 -128 339 0
94 125 -372 0
-45 171 -196 0
-62 89 365 0
223 268 417 0
80 -130 241 0
61 -107 434 0
-244 -292 312 0
22 88 -138 0
-154 -332 431 0
23 133 -196 0
-29 86 -213 0
232 301 -429 0
25 -90 -260 0
62 332 -447 0
173 -286 -366 0
188 -201 -442 0
98 364 -417 0
-135 -200 -336 0
64 -131 -366 0
-213 -321 353 0
-46 415 -448 0
255 -290 337 0
-217 -253 -324 0
72 376 408 0
8 12 30 0
-34 345 -428 0
-30 -301 393 0
-36 -129 -353 0
-34 -296 -369 0
-122 -345 368 0
-40 94 -278 0
-273 -290 410 0
-243 -251 336 0
129 292 380 0
265 -385 408 0
-314 349 450 0
-130 215 325 0
58 77 242 0
293 -309 -449 0
-63 -200 -259 0
107 -330 -427 0
269 -317 -325 0
-158 -271 413 0
-40 97 -261 0
152 352 409 0
-77 168 313 0
134 252 -368 0
-130 208 -295 0
320 -373 381 0
-124 -174 335 0
159 172 -315 0
-146 -177 -303 0
36 345 -424 0
-46 -388 -398 0
9 -57 -358 0
-47 -80 195 0
-3 16 -158 0
34 69 -391 0
46 272 -288 0
-235 -253 289 0
56 401 -431 0
189 -191 -259 0
90 207 242 0
15 195 275 0
-127 379 -432 0
322 -325 -337 0
-24 -235 -308 0
-32 -77 160 0
-171 -231 -366 0
-127 -221 304 0
41 47 -226 0
9 96 -389 0
-274 291 341 0
21 68 -230 0
-7 348 383 0
148 -184 290 0
-119 298 380 0
-55 -119 -345 0
-204 -281 -450 0
-42 -79 87 0
21 152 164 0
-7 39 298 0
-214 326 437 0
-408 427 435 0
65 112 -309 0
11 -238 -283 0
311 353 -364 0
123 -127 -212 0
220 -371 -437 0
129 -264 -323 0
4 -138 241 0
255 -330 400 0
-249 -295 329 0
144 178 349 0
9 -217 -340 0
-86 254 -386 0
-3 -10 -78 0
-140 -232 -337 0
-307 -349 -399 0
-52 187 275 0
48 70 -385 0
-133 313 -330 0
-15 191 402 0
-2 -214 -254 0
-201 -210 -260 0
50 -136 -155 0
-43 -133 -427 0
119 131 435 0
89 -189 418 0
232 -304 441 0
-212 389 -391 0
-120 243 284 0
-157 230 -356 0
89 187 192 0
291 312 -398 0
-33 -159 353 0
136 286 372 0
32 296 -337 0
-120 382 -430 0
-91 179 -192 0
53 -188 -313 0
97 -184 -416 0
56 85 -151 0
69 -211 -424 0
4 232 449 0
-91 -203 343 0
-42 -221 -281 0
123 -155 -173 0
-130 232 367 0
67 166 -325 0
149 -187 -336 0
69 177 396 0
-5 -82 378 0
54 -133 282 0
280 323 441 0
261 -271 -441 0
-264 290 366 0
64 170 383 0
-12 -296 -393 0
147 -333 384 0
-7 276 353 0
-103 -203 -299 0
-235 432 -441 0
95 260 -309 0
-85 326 -365 0
32 -98 379 0
100 200 -427 0
75 -333 -353 0
52 143 -362 0
184 -248 -331 0
-80 275 344 0
161 328 -437 0
200 -215 217 0
78 -260 339 0
-76 166 -443 0
-61 122 -257 0
68 179 -267 0
20 193 -253 0
-106 -147 346 0
-150 -264 314 0
3 -212 -280 0
34 181 -277 0
-11 -178 -338 0
-3 -102 279 0
109 162 316 0
14 253 272 0
-44 73 -410 0
-124 190 356 0
-12 -128 132 0
154 212 340 0
-15 -198 254 0
-48 -309 416 0
92 146 333 0
18 41 388 0
-187 -233 -445 0
-242 436 447 0
181 347 -426 0
-252 307 373 0
-214 -222 -302 0
-167 -205 340 0
109 -353 -435 0
-107 -243 -303 0
-28 138 177 0
-139 184 231 0
63 410 428 0
5 50 -398 0
34 222 423 0
175 -298 -376 0
206 -320 -380 0
-109 -209 300 0
19 -103 355 0
-82 171 188 0
1 166 208 0
-295 348 -386 0
20 -195 370 0
183 -220 -351 0
135 -314 -398 0
120 -229 381 0
-103 285 358 0
302 401 437 0
-56 -348 356 0
-187 -365 -384 0
87 -244 -332 0
-22 -42 384 0
136 -262 -333 0
-60 -359 -411 0
143 -239 -283 0
124 -329 -368 0
151 -342 388 0
17 120 168 0
186 -279 -385 0
306 350 414 0
-26 319 -337 0
-40 190 -339 0
-104 172 344 0
152 309 -349 0
18 -186 -352 0
31 -156 -182 0
77 -262 -265 0
161 210 -368 0
250 -329 -435 0
226 434 436 0
84 91 261 0
-147 -249 415 0
32 90 -323 0
-150 166 -387 0
-38 -49 -391 0
79 313 336 0
65 103 202 0
312 -346 402 0
-69 212 -264 0
96 -172 -315 0
292 406 -433 0
58 406 -419 0
34 -159 -345 0
43 -215 392 0
-117 302 -440 0
74 -127 -129 0
195 248 413 0
-201 -226 347 0
-372 429 -437 0
-8 -43 -62 0
-86 -107 303 0
-335 340 398 0
-29 32 -344 0
-25 -162 199 0
57 -183 -196 0
212 275 363 0
-246 274 400 0
179 250 424 0
143 -232 323 0
-320 343 -350 0
-153 -242 -283 0
53 341 366 0
105 144 -363 0
173 393 -423 0
9 64 191 0
116 -155 233 0
-236 277 -286 0
-72 -222 -401 0
373 421 -425 0
-118 265 308 0
212 -250 383 0
141 -281 373 0
29 159 -350 0
125 249 -370 0
82 105 161 0
-111 -136 407 0
-74 -193 418 0
10 207 -228 0
-137 -235 -276 0
-10 -37 -71 0
-268 -404 415 0
-204 221 -441 0
388 -420 -438 0
-207 -213 354 0
-300 -315 -362 0
67 -265 266 0
-54 -311 -324 0
147 267 -409 0
-204 -357 393 0
32 -98 -233 0
-11 -118 -389 0
-86 -186 319 0
285 -305 444 0
84 234 -390 0
303 -397 -420 0
131 -223 -245 0
77 -134 268 0
-166 -290 -332 0
-97 364 -378 0
-138 153 -324 0
-10 191 204 0
-14 138 384 0
180 284 318 0
-60 227 317 0
-57 -162 168 0
75 -138 329 0
26 47 178 0
107 -283 375 0
48 -241 275 0
107 150 276 0
73 167 190 0
-29 422 -449 0
-157 163 -356 0
334 350 -419 0
8 -212 -315 0
144 -161 -322 0
-90 -105 -357 0
-4 -54 67 0
341 392 -438 0
176 -220 -298 0
-28 -54 353 0
-24 79 135 0
170 -190 -206 0
3 277 438 0
88 149 218 0
-19 73 -440 0
152 -246 -357 0
142 191 -313 0
-139 143 -184 0
23 -312 -440 0
-80 157 -198 0
170 -305 422 0
146 -364 439 0
-28 149 -260 0
-150 217 -338 0
82 196 -439 0
276 283 -291 0
-173 -233 -308 0
77 183 198 0
-250 349 -441 0
-44 -169 198 0
-23 -91 -229 0
-169 276 -436 0
-107 237 317 0
-267 382 -419 0
15 -77 -226 0
174 -175 394 0
-24 326 398 0
-28 66 -235 0
-43 100 -431 0
161 -195 -229 0
236 372 -449 0
-3 38 243 0
123 251 -338 0
-13 -150 409 0
-152 165 -194 0
75 134 -448 0
-56 -227 346 0
308 383 402 0
175 188 -392 0
-272 366 -405 0
9 256 -319 0
-255 -321 400 0
101 210 -241 0
39 131 -209 0
86 190 -304 0
-200 -273 -415 0
46 428 -448 0
168 350 -412 0
239 -241 -276 0
95 -141 241 0
-286 297 -304 0
94 301 413 0
-144 247 378 0
-12 -70 257 0
-46 312 -356 0
-82 329 445 0
-80 -255 -261 0
-64 370 441 0
24 38 60 0
-83 -314 -387 0
-280 -406 417 0
164 -225 363 0
38 65 -346 0
-124 -161 -169 0
27 269 288 0
-3 -180 -371 0
63 -416 436 0
-108 -161 334 0
-134 136 -153 0
-151 -381 -406 0
105 -310 386 0
174 179 -335 0
96 -114 221 0
-8 -226 434 0
2 -46 -108 0
145 175 331 0
-245 -320 -398 0
43 172 -232 0
-54 -65 -174 0
72 -191 -290 0
-17 113 -344 0
-132 -194 -432 0
-130 -249 309 0
-101 186 -408 0
23 44 -99 0
178 -260 347 0
-13 -33 434 0
-1 -7 86 0
-52 -71 403 0
-107 -195 427 0
-1 -11 177 0
201 224 385 0
76 -116 -328 0
105 110 142 0
-271 285 425 0
-198 336 342 0
61 -101 -129 0
117 -315 -356 0
-103 119 190 0
99 308 348 0
-259 295 -430 0
140 -262 428 0
-84 -210 217 0
-57 183 -302 0
-147 229 -324 0
177 336 -427 0
76 -294 -401 0
-10 162 410 0
-64 -250 -332 0
-107 127 234 0
58 -131 438 0
113 -167 -229 0
-130 163 346 0
144 -423 -439 0
-62 149 278 0
-134 -336 355 0
-29 130 137 0
51 -229 275 0
71 256 -272 0
404 -408 -441 0
59 175 -381 0
-25 142 -374 0
-278 292 -317 0
-99 113 158 0
-97 -138 447 0
126 -143 -150 0
-111 -300 432 0
234 -289 349 0
255 -340 -450 0
4 -109 195 0
-160 363 404 0
83 -94 323 0
30 -63 160 0
-212 377 -441 0
-72 -77 -395 0
227 -266 -293 0
186 -274 279 0
30 -347 -361 0
222 -364 372 0
49 -51 261 0
13 248 -385 0
206 -356 439 0
-32 -56 -426 0
-328 -395 425 0
-121 285 394 0
-63 -104 376 0
35 69 -231 0
109 132 208 0
69 -352 -446 0
-119 -220 296 0
35 38 -384 0
-77 -159 -325 0
-28 112 -194 0
-188 -248 261 0
38 59 -238 0
-109 -333 -424 0
-9 264 436 0
-87 303 -322 0
-93 295 -315 0
162 222 404 0
-81 182 -221 0
-40 107 124 0
-287 -422 429 0
58 407 441 0
-100 -178 -389 0
-52 354 -440 0
-55 329 -392 0
-193 -336 434 0
-163 -318 417 0
319 362 414 0
277 291 414 0
92 -125 -275 0
-116 204 -406 0
-356 -407 -440 0
-206 -266 -283 0
220 315 397 0
-294 -367 -412 0
34 -59 129 0
-52 123 277 0
-119 154 163 0
134 280 -337 0
-168 -194 -338 0
-37 -314 423 0
37 -191 361 0
1 57 -319 0
229 -436 450 0
-140 394 -444 0
-159 257 -266 0
29 225 284 0
128 380 426 0
121 179 253 0
266 298 -303 0
192 207 360 0
-255 -261 -338 0
-31 113 189 0
370 -419 427 0
-7 251 385 0
99 -308 318 0
73 -101 -363 0
160 -338 420 0
-47 -56 447 0
-302 305 -370 0
117 -225 415 0
78 -197 299 0
186 265 -302 0
1 176 252 0
113 227 447 0
145 190 290 0
-18 284 -427 0
248 -430 445 0
20 156 -280 0
-2 -102 371 0
146 250 350 0
124 138 320 0
-82 396 410 0
156 242 254 0
92 -415 -439 0
-98 218 -432 0
9 -109 231 0
-234 -373 -423 0
-90 376 409 0
-28 145 -369 0
-125 -312 -389 0
27 -121 -328 0
-234 327 350 0
-273 360 423 0
244 -313 -437 0
201 239 448 0
69 198 236 0
-72 -190 247 0
15 224 310 0
121 167 377 0
-98 -162 316 0
220 281 375 0
-42 86 228 0
-235 272 412 0
40 202 -289 0
53 -191 -247 0
69 -122 389 0
-97 -115 405 0
60 149 -238 0
-200 -365 437 0
166 173 426 0
46 316 -346 0
221 268 -396 0
-212 280 -283 0
138 220 299 0
221 228 -346 0
24 -138 324 0
181 -209 -374 0
63 201 -438 0
256 -396 399 0
199 -206 390 0
-270 -280 300 0
-5 73 -321 0
18 371 -441 0
46 298 423 0
-36 72 -194 0
-86 -365 -388 0
21 211 -254 0
-105 -418 449 0
98 111 173 0
-333 338 434 0
80 -321 -363 0
156 -242 378 0
-68 -88 -406 0
-100 115 205 0
235 410 427 0
-297 -328 418 0
106 261 406 0
155 -169 340 0
128 227 -418 0
-147 -168 -312 0
-300 -344 -401 0
108 162 239 0
-135 389 -444 0
200 241 -289 0
79 196 -281 0
-73 -112 -358 0
136 -376 -429 0
36 -71 120 0
20 -82 319 0
65 105 -261 0
-102 -229 252 0
216 220 260 0
30 173 -313 0
-75 -249 -337 0
204 -314 -350 0
339 376 436 0
3 276 383 0
92 -361 372 0
64 -92 -418 0
-82 -88 185 0
115 209 -240 0
7 -107 234 0
118 -210 262 0
84 174 205 0
-160 310 401 0
90 -222 243 0
110 -125 269 0
263 281 -410 0
-32 -127 296 0
-123 -165 176 0
-159 -217 -363 0
17 -270 353 0
89 214 -256 0
-44 45 439 0
-135 280 322 0
-57 118 -305 0
-39 -41 -180 0
-313 -337 399 0
287 -331 -402 0
71 -289 -380 0
119 -192 308 0
320 -328 392 0
192 360 369 0
17 -187 293 0
-108 219 312 0
-19 -59 -443 0
109 242 -338 0
-12 33 -154 0
346 -426 -441 0
-42 -178 -243 0
-228 281 384 0
196 -240 254 0
16 211 228 0
154 -255 -395 0
202 -207 344 0
-38 89 116 0
-1 -343 -449 0
-78 -90 -384 0
-292 375 396 0
219 348 430 0
-141 -263 266 0
-264 371 -402 0
178 218 -423 0
379 425 447 0
-153 189 407 0
140 -255 287 0
-309 343 384 0
-30 -50 312 0
-175 227 -304 0
-225 -266 -446 0
100 195 196 0
-3 351 385 0
-36 -156 -232 0
-159 253 -412 0
-48 160 -214 0
79 -181 -245 0
-7 16 193 0
55 -186 -443 0
-35 -129 -191 0
3 62 223 0
-150 -188 314 0
194 -207 447 0
109 302 -306 0
33 61 96 0
50 -204 -327 0
-77 243 322 0
65 106 269 0
121 249 -350 0
84 108 -202 0
32 191 -409 0
-80 -94 298 0
128 -343 -346 0
-56 -63 73 0
205 -294 400 0
268 283 -402 0
22 -350 356 0
112 -153 341 0
-131 158 339 0
-71 265 362 0
34 -158 -182 0
282 322 424 0
142 144 -213 0
124 -208 396 0
73 164 356 0
85 202 -409 0
72 -262 -296 0
84 393 -422 0
-224 -392 -404 0
-235 -409 -412 0
284 293 -359 0
165 -230 396 0
-85 100 320 0
158 -244 417 0
60 123 320 0
-86 235 345 0
64 -304 -442 0
43 143 -289 0
215 360 386 0
-71 167 204 0
48 127 300 0
87 346 385 0
-104 264 -307 0
87 344 -361 0
-142 -210 -337 0
104 262 378 0
-102 -170 407 0
31 137 191 0
-180 -188 -300 0
-3 106 110 0
-18 138 268 0
-167 -205 304 0
-251 375 -402 0
-296 -362 -373 0
71 241 -358 0
-41 -118 412 0
109 -305 373 0
337 380 404 0
234 -251 255 0
-110 292 -391 0
59 -348 -406 0
-178 212 369 0
-235 -318 -421 0
-76 -91 402 0
-137 181 426 0
-136 -296 331 0
-116 382 405 0
-60 -108 -172 0
-30 -132 -190 0
54 -106 371 0
273 -403 -429 0
56 -158 306 0
-90 -207 282 0
165 -314 -430 0
250 -264 -432 0
-22 -135 286 0
47 126 -347 0
-172 -212 -408 0
-40 197 -373 0
57 -84 148 0
226 -394 447 0
242 282 -286 0
55 -128 -420 0
60 -238 265 0
78 164 -198 0
171 -200 288 0
-49 192 -334 0
78 -99 200 0
116 131 -170 0
64 -357 398 0
11 -242 432 0
40 -103 -440 0
-117 380 415 0
-59 213 -374 0
-150 -154 -404 0
52 -424 441 0
-66 182 -190 0
-244 -245 334 0
220 296 -397 0
-246 -406 420 0
-115 324 -329 0
-140 227 -304 0
-143 -243 359 0
191 -274 387 0
74 -82 -303 0
137 177 -256 0
-127 -182 444 0
-134 -262 -364 0
-57 -224 344 0
28 -272 427 0
-367 -405 -434 0
-76 -153 215 0
37 45 198 0
-59 -134 380 0
205 -408 418 0
-47 -99 100 0
49 -334 343 0
172 -285 -437 0
70 -137 227 0
47 -288 -328 0
53 -165 306 0
-40 -210 -402 0
-102 -131 231 0
73 148 -337 0
310 370 -407 0
339 372 -383 0
-129 136 291 0
42 141 -205 0
23 331 361 0
60 -139 209 0
-14 -19 -397 0
53 -125 291 0
-14 -365 442 0
-31 -68 181 0
-47 367 386 0
91 102 -262 0
-161 -196 437 0
-44 -362 -372 0
-80 336 -356 0
394 -396 415 0
100 -103 357 0
189 -235 447 0
-25 238 -316 0
41 142 -389 0
-36 -93 -392 0
-40 254 -411 0
101 -382 441 0
222 236 -347 0
-332 369 -386 0
-119 274 -327 0
-369 394 -420 0
271 -319 -370 0
-11 32 98 0
-22 387 447 0
-60 -218 -250 0
-138 165 326 0
-174 -258 -386 0
-8 -173 -207 0
113 243 269 0
167 364 -407 0
-57 64 252 0
-149 238 -276 0
-94 134 269 0
21 155 235 0
17 339 -404 0
-98 237 -321 0
-15 130 -215 0
88 95 -109 0
-31 59 -314 0
-15 -41 304 0
-248 252 -375 0
-28 263 -317 0
175 -275 -449 0
-72 303 404 0
32 42 298 0
-54 204 -428 0
-1 90 93 0
-143 295 -422 0
-116 362 -392 0
-34 -153 -226 0
-349 382 -437 0
93 -193 -367 0
79 -145 -416 0
-71 309 -441 0
-144 -266 360 0
241 -349 427 0
-174 -181 -272 0
-214 231 -325 0
-79 -185 209 0
6 221 -356 0
9 -108 -224 0
-40 -245 -303 0
-16 26 212 0
201 -357 -375 0
-128 215 411 0
-171 -245 -409 0
-391 -392 -403 0
4 -73 438 0
-83 153 279 0
153 -224 -290 0
105 263 377 0
136 -225 -311 0
69 -402 414 0
30 -154 192 0
-96 -102 -287 0
225 -275 442 0
-212 -309 448 0
-51 -148 317 0
-5 -95 388 0
-183 286 -433 0
121 -147 -200 0
36 123 400 0
21 75 102 0
-8 334 -409 0
-47 113 -164 0
122 141 -365 0
133 -298 340 0
-151 -286 300 0
-122 135 276 0
23 239 -325 0
-159 -293 -386 0
21 -157 188 0
170 300 401 0
-39 -117 292 0
-141 195 336 0
55 340 -430 0
-292 -336 432 0
117 398 -417 0
-93 -194 323 0
85 236 392 0
-181 410 440 0
-278 -298 -312 0
-103 197 321 0
-74 175 -296 0
137 254 270 0
-222 352 373 0
-54 -145 394 0
