p cnf 450 1917
107 224 293 0
-105 120 -319 0
-16 -160 -211 0
-43 -110 194 0
226 308 -426 0
-6 -172 -417 0
140 -173 -434 0
175 -218 -262 0
58 -225 -246 0
-147 199 212 0
160 -243 332 0
-53 -371 -439 0
67 -157 305 0
-190 357 -364 0
-177 305 440 0
193 198 -334 0
7 -85 329 0
176 282 -346 0
56 -360 -403 0
84 185 -446 0
-89 -224 282 0
54 -178 263 0
-41 54 193 0
-126 300 351 0
-131 308 330 0
-121 123 -384 0
-56 -190 319 0
29 -144 -153 0
-74 427 -429 0
72 -263 308 0
122 409 -424 0
12 253 -298 0
-2 -247 415 0
129 -209 -254 0
74 133 -382 0
108 264 -372 0
23 52 139 0
-29 -198 257 0
-223 346 -353 0
-20 287 341 0
-79 160 -441 0
-25 321 442 0
15 -94 -317 0
7 -28 107 0
-188 -292 -349 0
-302 324 410 0
-287 -343 419 0
250 -295 411 0
-233 -297 375 0
19 -45 260 0
163 229 -418 0
-43 320 -362 0
283 -316 -365 0
-21 90 382 0
-293 326 -410 0
77 -436 447 0
-179 -232 392 0
210 -213 380 0
108 -265 326 0
-13 108 327 0
59 147 -288 0
151 291 -300 0
22 97 138 0
82 -141 -174 0
134 215 -289 0
-206 243 -415 0
291 -368 384 0
202 358 -397 0
-50 117 -312 0
-54 279 312 0
147 262 -450 0
-44 -208 -415 0
167 192 222 0
-6 -59 -377 0
53 -253 442 0
165 202 -365 0
-139 -258 412 0
114 164 -323 0
98 -106 318 0
-149 334 -394 0
115 267 284 0
94 214 225 0
5 43 -311 0
122 133 336 0
-73 -96 -361 0
-20 77 -210 0
-163 -275 303 0
-23 79 157 0
-191 -290 429 0
-51 440 450 0
68 -241 346 0
-28 -44 78 0
96 -194 -362 0
-104 313 380 0
-321 -331 339 0
7 45 292 0
-116 165 -339 0
-42 -104 143 0
10 -140 260 0
320 -354 -361 0
-9 220 -288 0
-174 196 234 0
-237 -271 -339 0
-24 -105 324 0
-107 -209 -267 0
48 280 -446 0
117 -401 447 0
-89 223 435 0
-99 362 405 0
-108 -154 250 0
168 -287 -326 0
-10 -58 351 0
176 371 423 0
-22 235 -394 0
205 303 -317 0
52 103 -226 0
-271 -284 326 0
105 -198 -358 0
260 276 403 0
-297 303 -437 0
-142 192 429 0
-34 -191 -366 0
-106 226 346 0
35 -313 402 0
-158 307 366 0
91 201 -209 0
95 153 176 0
35 51 -172 0
232 -378 -426 0
1 333 423 0
-43 107 -227 0
18 42 177 0
44 -379 -403 0
-174 -189 -324 0
-162 271 -289 0
69 -215 224 0
-189 -296 406 0
-59 126 330 0
159 282 288 0
-27 103 228 0
-64 -341 -420 0
-112 215 349 0
148 -153 362 0
375 -418 -427 0
162 257 433 0
124 -249 -331 0
232 284 -399 0
228 -249 -432 0
2 150 331 0
-211 -275 -315 0
-71 225 -347 0
88 226 -339 0
17 156 -329 0
-12 -86 -444 0
-10 -16 48 0
-23 -390 -444 0
3 -9 356 0
-197 -217 449 0
201 -258 397 0
22 -345 -429 0
-116 -122 -130 0
94 346 -365 0
98 -243 335 0
-211 231 304 0
-79 87 -299 0
-36 168 -257 0
-3 302 -428 0
249 280 362 0
45 -158 -164 0
184 -404 -446 0
116 359 -372 0
-29 -244 374 0
197 -230 -265 0
38 -95 -365 0
142 -258 -403 0
146 -211 359 0
-4 131 -192 0
277 -422 -432 0
248 -257 -384 0
-221 265 294 0
-158 -221 -345 0
78 -97 -136 0
-97 -154 -367 0
88 270 -286 0
8 -259 262 0
-176 -227 -370 0
-57 86 -210 0
-109 148 -379 0
-4 -21 -372 0
141 150 163 0
-51 -157 -286 0
-126 -164 275 0
-48 -122 133 0
18 83 -283 0
-55 -95 436 0
101 269 437 0
-92 -156 -360 0
-100 -151 -218 0
-82 314 322 0
375 379 415 0
-107 303 306 0
111 -182 -198 0
87 -140 324 0
-29 54 234 0
40 211 -294 0
-183 207 -224 0
52 -291 -299 0
10 189 -302 0
121 -195 -378 0
30 108 238 0
-57 73 117 0
-36 38 -99 0
-173 -365 428 0
20 -57 -118 0
-266 -281 -416 0
46 -248 259 0
60 261 325 0
-105 -153 173 0
-73 362 391 0
88 -275 -444 0
74 75 -293 0
24 -35 127 0
-49 222 370 0
274 276 367 0
-53 225 239 0
80 -327 -361 0
47 200 -233 0
-79 -282 357 0
192 236 304 0
41 -254 358 0
48 -253 364 0
129 254 424 0
249 317 337 0
28 -130 -422 0
-52 68 329 0
-26 51 380 0
-199 -339 -428 0
45 -67 -432 0
90 -183 311 0
-99 -212 441 0
258 260 359 0
136 316 -407 0
-208 366 -431 0
-50 -117 387 0
-15 -55 220 0
-18 113 194 0
334 -366 -386 0
9 -115 -139 0
-71 -101 361 0
-149 -206 -252 0
-62 291 386 0
-285 -356 -399 0
-152 -161 -441 0
-4 10 226 0
14 409 440 0
384 388 421 0
-221 246 276 0
-38 151 415 0
237 -308 -420 0
108 143 358 0
220 -427 -437 0
121 -149 169 0
-118 -297 343 0
26 172 -261 0
66 133 365 0
186 221 -335 0
-58 289 389 0
144 204 241 0
47 -368 -422 0
177 341 -415 0
26 99 -346 0
-242 -303 -420 0
94 168 -309 0
-273 376 -407 0
-12 -90 -217 0
309 -313 -315 0
30 290 356 0
-266 363 399 0
235 255 336 0
8 -166 -442 0
-114 -135 -350 0
4 -175 389 0
-22 129 -408 0
53 -308 428 0
-139 -194 -347 0
113 402 -407 0
65 -194 263 0
49 263 285 0
-32 277 -431 0
99 158 282 0
-156 231 350 0
-215 -331 414 0
-132 152 -217 0
114 150 -412 0
97 -98 -259 0
96 129 147 0
-302 317 -382 0
-141 142 378 0
-308 -336 -357 0
-68 -104 296 0
176 -207 334 0
-7 -202 -294 0
80 -181 -256 0
6 -303 -430 0
111 -250 -335 0
-226 -286 333 0
43 192 -320 0
189 -277 -312 0
-41 -110 -240 0
-182 -331 -447 0
-22 -377 -393 0
-262 274 367 0
54 -124 -274 0
33 -305 -380 0
109 239 296 0
-5 266 442 0
76 326 -416 0
10 -78 196 0
127 -128 -218 0
-228 241 298 0
66 248 -333 0
-154 405 406 0
-7 -158 -205 0
-340 362 -395 0
320 402 408 0
-23 277 -366 0
-14 266 421 0
-158 393 -399 0
-58 -136 -385 0
-14 107 -419 0
-147 -220 -436 0
-298 322 -389 0
81 -113 -309 0
17 64 -369 0
398 434 437 0
103 -325 437 0
208 328 381 0
74 175 269 0
-39 -343 361 0
-163 -285 -387 0
-175 -237 241 0
-57 -99 -385 0
-174 -232 -325 0
-169 323 343 0
82 197 -389 0
261 -296 363 0
98 -200 -387 0
-103 -149 -257 0
89 -174 291 0
-66 -209 -256 0
118 201 -392 0
10 -214 -247 0
215 360 418 0
-41 -49 400 0
-184 416 441 0
148 -212 -298 0
-137 -139 301 0
106 151 217 0
167 415 441 0
-98 126 -301 0
116 -192 409 0
-37 347 -391 0
-176 261 -335 0
-271 328 426 0
-35 -228 370 0
-103 155 330 0
146 220 285 0
3 -214 -335 0
208 -269 355 0
14 -366 -449 0
-10 -60 332 0
-32 273 -340 0
6 304 338 0
-83 -151 420 0
-276 377 -410 0
-21 -163 380 0
-95 284 382 0
63 295 331 0
-32 -110 365 0
88 136 -177 0
12 60 -112 0
-154 -252 264 0
-119 -308 -341 0
209 -275 343 0
181 375 -387 0
9 28 -347 0
-42 287 387 0
27 -348 376 0
-177 253 -362 0
35 -230 -300 0
-48 -363 -372 0
198 232 -365 0
57 -84 -285 0
18 -91 -190 0
-6 10 -319 0
-26 -221 -340 0
168 -350 -360 0
236 296 376 0
-172 350 367 0
332 357 434 0
126 363 407 0
-25 -154 295 0
-159 -314 -409 0
110 -128 206 0
-135 430 -438 0
28 210 370 0
169 -242 -336 0
-157 298 416 0
184 192 -288 0
146 188 -249 0
129 -224 -365 0
-85 157 -239 0
185 234 356 0
229 365 396 0
187 -354 398 0
87 106 310 0
60 312 405 0
32 431 -438 0
-109 -252 -367 0
173 336 -437 0
10 -355 380 0
-216 -338 -394 0
-10 -22 -224 0
-60 -253 -307 0
-21 387 -446 0
196 287 308 0
70 -84 -195 0
182 -389 417 0
-308 339 -347 0
194 232 298 0
-17 38 404 0
26 350 397 0
-34 237 -361 0
-126 176 -429 0
-184 -213 286 0
-388 -415 416 0
-202 -265 441 0
246 251 289 0
-5 47 313 0
-333 367 -413 0
-90 -191 -270 0
-8 284 -332 0
-123 -295 -314 0
-180 -216 -348 0
27 291 -378 0
63 233 293 0
-350 -431 435 0
-131 -391 440 0
124 -275 -326 0
198 -225 337 0
10 -383 -395 0
43 -208 380 0
-32 -68 -230 0
48 -159 401 0
96 130 265 0
-40 266 -302 0
48 -86 131 0
17 87 407 0
253 -375 436 0
-305 -308 399 0
-8 105 -165 0
-24 91 183 0
-64 318 430 0
-107 -138 -162 0
106 -161 -286 0
176 -196 -267 0
188 -277 342 0
22 -117 -356 0
-66 -98 -138 0
1 -79 -219 0
103 -226 270 0
-22 266 324 0
238 335 -345 0
-92 121 242 0
-133 -145 437 0
-54 -196 225 0
25 -31 88 0
-8 -373 439 0
-32 -278 -386 0
-130 146 206 0
19 -212 303 0
3 191 386 0
-25 343 -448 0
70 -312 448 0
-51 52 148 0
96 189 -233 0
34 -266 447 0
-106 301 -396 0
-117 -206 -319 0
141 -142 -252 0
54 102 -318 0
-2 77 303 0
43 287 414 0
114 -218 279 0
-65 126 -212 0
-1 168 -281 0
-20 -114 391 0
1 48 236 0
54 322 368 0
163 195 -366 0
-27 339 377 0
-90 302 -367 0
-24 -51 98 0
55 -289 334 0
57 -166 -212 0
-50 -116 198 0
110 -249 -316 0
64 -184 -293 0
66 -278 -308 0
-37 -174 212 0
-188 -219 361 0
204 314 411 0
-108 -153 182 0
191 -303 415 0
106 299 347 0
-190 -210 238 0
-122 210 -390 0
66 -184 190 0
-310 -415 -436 0
-167 -181 -429 0
205 -350 -399 0
21 123 -288 0
88 -361 -446 0
72 119 203 0
-177 201 -218 0
-47 -113 -351 0
-257 -322 389 0
-3 -73 94 0
95 -272 -371 0
117 -150 -335 0
-235 248 391 0
88 198 -275 0
32 225 -422 0
-172 426 432 0
63 -403 -429 0
-27 132 -294 0
161 274 334 0
209 281 318 0
-146 -166 307 0
-91 316 430 0
-22 -150 448 0
24 374 -446 0
3 9 -296 0
-78 -108 209 0
114 127 290 0
-8 -110 421 0
259 272 391 0
-290 -383 -406 0
-186 -209 259 0
232 -347 -394 0
152 -258 -387 0
-153 360 -370 0
-244 -308 404 0
-31 150 -204 0
-212 -272 390 0
-341 426 -446 0
95 -202 -253 0
-77 -220 -317 0
31 -106 -333 0
-52 -62 171 0
26 -45 258 0
-149 236 320 0
279 -406 418 0
78 -206 275 0
131 -151 246 0
-214 245 -262 0
-88 164 446 0
34 -126 136 0
-66 -171 -384 0
175 -200 221 0
52 -144 -423 0
23 -33 253 0
-78 365 405 0
26 172 417 0
-96 189 -193 0
-213 324 327 0
97 274 -316 0
116 -133 179 0
-153 193 353 0
-130 229 300 0
40 -67 -249 0
-13 -16 -47 0
31 153 -181 0
-68 -93 -172 0
-229 266 -392 0
49 -62 -327 0
-149 -283 -362 0
-6 -376 437 0
144 -208 -385 0
281 -283 -407 0
-43 -69 -170 0
31 -102 398 0
-205 -278 -440 0
65 136 -297 0
39 259 -393 0
-68 -168 198 0
-66 -77 -267 0
-62 153 -388 0
41 349 372 0
56 -94 -428 0
-186 -345 -374 0
-315 325 -422 0
-82 145 434 0
255 256 -396 0
10 277 357 0
40 -393 -398 0
36 59 427 0
246 -290 -384 0
-2 78 -248 0
-31 404 -449 0
-160 266 410 0
-75 -139 -351 0
-62 73 -317 0
10 -258 384 0
8 -138 243 0
138 187 250 0
-37 -188 425 0
352 -372 441 0
229 261 419 0
12 -362 -396 0
-200 -248 -358 0
16 88 314 0
-24 94 123 0
42 -130 406 0
62 -183 -394 0
100 269 308 0
9 -107 126 0
-185 208 -269 0
-83 103 170 0
84 228 -386 0
-11 -114 327 0
40 114 422 0
178 -325 410 0
-71 -120 -248 0
-98 -292 388 0
-13 87 248 0
-222 -252 -335 0
217 -350 442 0
118 265 -298 0
-181 -301 360 0
-49 -63 213 0
-12 269 439 0
-109 399 404 0
35 -64 163 0
-190 -235 325 0
104 -186 -256 0
-219 -367 -369 0
58 111 126 0
-145 312 -414 0
201 412 423 0
-144 247 388 0
-158 -306 392 0
11 76 -125 0
183 306 -339 0
-53 -340 -413 0
-45 100 -408 0
-11 -109 -219 0
8 74 -115 0
276 -308 426 0
-263 -381 440 0
24 134 211 0
-17 41 -325 0
-63 184 450 0
13 -14 429 0
-106 -128 272 0
48 -156 404 0
-164 -184 369 0
28 -105 -161 0
68 -358 -389 0
52 -142 -287 0
50 135 -193 0
325 -354 -358 0
123 -303 353 0
-71 -133 334 0
-307 384 441 0
-41 130 -139 0
-47 -96 -214 0
-61 209 -374 0
-107 336 -392 0
41 307 -336 0
61 -254 -379 0
2 35 -83 0
-172 246 -343 0
-127 274 -392 0
326 -390 -399 0
-48 -114 -237 0
-91 301 368 0
-212 234 -385 0
194 390 -438 0
70 -119 367 0
85 212 -273 0
-168 307 331 0
-137 304 422 0
-110 -271 400 0
176 -264 -418 0
1 272 -415 0
214 344 375 0
-113 -291 429 0
-20 -46 102 0
-55 -60 -111 0
8 -77 -299 0
240 434 -447 0
-367 426 441 0
-191 -209 -401 0
-36 -139 -409 0
-147 224 386 0
328 -339 344 0
68 158 -311 0
-79 -136 162 0
156 280 308 0
-106 239 -261 0
24 -329 -353 0
182 220 318 0
-250 296 364 0
-65 -360 445 0
-134 -356 434 0
298 304 444 0
105 117 -410 0
185 -306 -352 0
219 247 -381 0
92 -184 274 0
-151 368 377 0
102 167 188 0
-150 -344 423 0
-39 237 -311 0
93 181 417 0
15 -127 -183 0
-118 182 -281 0
-27 133 420 0
-97 -223 447 0
125 357 384 0
314 -389 -409 0
-219 -224 -447 0
33 208 -443 0
178 -204 -410 0
-63 -302 -378 0
-267 275 -291 0
-184 294 357 0
-39 -165 260 0
-64 108 300 0
-241 301 -412 0
284 -298 -324 0
38 -51 85 0
86 -275 -381 0
64 96 -416 0
176 356 396 0
277 287 -392 0
-144 365 440 0
-24 257 -373 0
-40 -409 420 0
-182 -241 -326 0
-152 223 360 0
1 -157 206 0
68 79 134 0
132 -231 -341 0
174 -303 -384 0
-141 -334 -366 0
47 119 232 0
-6 85 -322 0
198 270 -391 0
-138 -335 448 0
10 104 381 0
-180 228 299 0
189 311 -418 0
120 -169 -182 0
-287 355 369 0
-97 -174 -228 0
-66 333 352 0
-206 -365 413 0
272 -332 -371 0
64 -213 -260 0
-50 175 -263 0
277 -284 415 0
-191 308 377 0
-52 134 449 0
-6 -115 -403 0
155 -220 -312 0
-226 -336 422 0
143 -174 298 0
80 -167 -228 0
61 -95 321 0
11 -391 430 0
2 -68 164 0
107 372 -438 0
1 -7 391 0
-25 236 359 0
186 -308 -392 0
-200 338 414 0
-43 247 350 0
119 -247 -433 0
-79 -264 -395 0
48 311 400 0
1 -227 423 0
24 -277 385 0
11 -174 -242 0
26 44 404 0
-162 193 -319 0
291 -325 -447 0
-132 334 -361 0
169 -286 344 0
151 212 338 0
82 215 389 0
19 206 -268 0
55 -105 134 0
-96 382 -399 0
4 -160 -405 0
8 33 263 0
-155 -199 220 0
-10 -259 322 0
80 209 -374 0
-20 73 443 0
-2 -264 322 0
-114 135 301 0
142 409 -432 0
-209 216 385 0
-23 -322 -346 0
-104 -232 268 0
-151 154 -344 0
31 221 283 0
-51 -105 245 0
124 -282 373 0
-67 408 -415 0
122 -126 -309 0
77 -272 -365 0
20 288 -330 0
-59 -204 -411 0
-37 210 -377 0
89 189 -418 0
-27 -76 298 0
-38 56 -251 0
278 -351 -404 0
258 -286 -409 0
-12 -144 -341 0
-153 357 385 0
-167 227 319 0
3 -186 -356 0
5 -341 403 0
-67 -107 354 0
172 -433 442 0
249 260 325 0
176 -252 -339 0
119 -174 -320 0
-140 -266 -334 0
-263 -296 314 0
-195 373 -400 0
-63 220 372 0
-130 226 424 0
-191 240 -243 0
-51 -327 -343 0
177 -187 -305 0
-209 -231 311 0
289 337 -437 0
-311 -312 -385 0
-26 187 -248 0
-168 201 377 0
79 -171 396 0
195 240 441 0
312 -347 -432 0
177 239 337 0
-38 221 348 0
-127 343 -378 0
4 120 -126 0
-24 223 -264 0
-147 -197 287 0
-77 120 -291 0
73 239 447 0
140 163 326 0
-28 378 381 0
-30 -301 336 0
211 -330 386 0
20 -317 -448 0
7 44 -178 0
175 -371 435 0
339 342 411 0
4 -77 -119 0
74 238 370 0
-193 320 343 0
153 157 400 0
-195 217 446 0
-130 -407 444 0
-367 -374 -442 0
-99 273 -364 0
-207 -234 -364 0
41 128 -308 0
127 -206 -449 0
-41 234 -374 0
-88 -261 -343 0
228 -235 273 0
150 -232 -390 0
256 269 330 0
84 258 378 0
-49 -158 190 0
-62 -132 -214 0
24 41 87 0
-256 -362 431 0
54 208 -273 0
-135 280 353 0
3 164 -276 0
-243 -250 338 0
37 -186 -193 0
-58 -291 297 0
94 290 448 0
-105 -116 394 0
31 -233 348 0
-242 -302 406 0
-26 207 322 0
72 -74 -175 0
-94 -143 165 0
-123 305 -401 0
74 80 161 0
185 -304 359 0
150 189 -308 0
-16 -356 419 0
134 -250 288 0
-354 -405 411 0
93 -198 322 0
283 -319 -370 0
-203 -254 -351 0
17 -256 -319 0
-14 -87 -414 0
69 -162 347 0
-68 206 -367 0
367 384 442 0
184 295 376 0
-147 335 391 0
-221 -387 -410 0
38 -50 320 0
74 -106 194 0
-25 247 -404 0
-33 -81 348 0
-48 -84 222 0
-15 -52 -256 0
-64 -314 346 0
-51 134 -163 0
-34 316 -318 0
196 344 -439 0
97 123 397 0
73 -113 273 0
-172 245 359 0
27 -350 395 0
-81 106 -274 0
109 -282 323 0
-216 -262 -354 0
121 -178 237 0
-62 145 -253 0
-161 168 -253 0
55 203 405 0
84 -130 396 0
22 249 -289 0
-259 323 -372 0
94 -402 425 0
17 -139 313 0
-30 -152 409 0
100 158 -411 0
-196 444 -450 0
1 -109 -356 0
230 399 -422 0
147 -248 422 0
-36 56 137 0
-54 87 237 0
253 270 -435 0
-132 -231 302 0
108 117 -403 0
153 236 343 0
101 212 -431 0
-9 165 324 0
330 -421 427 0
37 248 -392 0
-282 397 438 0
106 114 -403 0
-25 -261 310 0
12 260 389 0
76 -204 -343 0
-46 294 351 0
273 424 425 0
-206 304 -416 0
274 -367 -380 0
-132 231 -395 0
367 -373 395 0
-72 -96 -417 0
-300 -345 420 0
208 340 440 0
-13 70 -215 0
171 204 261 0
-17 48 93 0
136 -215 316 0
249 -352 -409 0
-89 151 -172 0
192 -302 447 0
27 233 -317 0
-329 -391 409 0
34 -78 351 0
-7 96 120 0
188 -225 289 0
-1 -172 394 0
12 -146 384 0
-62 269 398 0
63 103 383 0
179 261 417 0
70 -97 407 0
47 -210 -221 0
-77 -334 -424 0
74 -125 -231 0
182 273 405 0
-26 -290 -348 0
-268 -309 -397 0
-92 400 421 0
-82 -147 -328 0
137 257 292 0
-84 130 -271 0
-141 345 446 0
213 294 369 0
-68 183 210 0
-271 275 -362 0
196 232 323 0
34 -46 -97 0
-295 352 -438 0
-285 361 -362 0
-87 128 279 0
-92 -190 347 0
-181 -220 313 0
196 243 -331 0
206 280 371 0
-310 -398 -439 0
-112 360 422 0
-127 -213 -263 0
-32 -113 -311 0
55 63 -345 0
-252 -263 409 0
138 240 -280 0
93 -194 -351 0
-3 -356 -402 0
234 254 -342 0
-41 -76 -187 0
35 -159 -327 0
-3 215 -276 0
-238 260 -339 0
-267 332 336 0
122 191 301 0
-303 -316 396 0
-188 194 -278 0
-104 143 -256 0
-228 -247 262 0
199 -354 -355 0
-4 295 305 0
-169 -231 433 0
-37 -40 193 0
78 100 -437 0
-238 287 -379 0
6 231 404 0
77 154 -201 0
-77 323 427 0
209 325 -365 0
-35 121 -420 0
2 -204 -415 0
36 -130 442 0
50 -86 277 0
95 -128 430 0
-5 -95 308 0
-88 -123 413 0
-74 -250 -325 0
-60 158 437 0
-15 -91 -274 0
-221 -224 -367 0
60 -89 246 0
41 -228 270 0
-176 341 388 0
-22 98 -182 0
207 -244 448 0
95 133 415 0
155 -377 403 0
-74 -223 369 0
-96 185 298 0
46 -266 278 0
111 319 -352 0
74 -134 189 0
74 -101 -361 0
70 110 126 0
67 -73 206 0
-17 393 404 0
-74 84 -364 0
26 83 -184 0
93 -273 -379 0
313 364 -370 0
61 -374 -434 0
40 -285 363 0
211 -279 401 0
-124 -151 369 0
32 -127 273 0
260 286 -387 0
44 166 176 0
-116 -122 -159 0
-258 -289 -444 0
-82 -191 -400 0
300 309 423 0
-100 -324 426 0
-124 -194 391 0
-37 189 371 0
-57 -260 400 0
-300 371 -446 0
1 220 -388 0
-72 206 220 0
-14 371 -387 0
-213 -223 -428 0
-1 -28 -32 0
-130 349 -360 0
371 374 425 0
-97 -253 333 0
117 -203 -429 0
-14 -43 370 0
-146 -174 -434 0
22 246 -421 0
-308 -338 -409 0
-23 88 216 0
-155 -362 -387 0
12 61 -161 0
124 -370 -443 0
-129 261 -319 0
376 385 393 0
79 -105 -259 0
-1 -211 -302 0
78 -111 170 0
-155 270 314 0
28 167 290 0
-112 125 281 0
-90 -204 446 0
-123 -283 381 0
-82 403 413 0
149 407 -438 0
65 111 126 0
106 217 -341 0
203 342 -428 0
60 225 -337 0
-34 164 -396 0
-20 145 -175 0
31 -271 -367 0
141 -233 381 0
98 226 -359 0
-158 262 -361 0
37 -211 -230 0
93 -231 345 0
-60 220 -260 0
45 -79 -196 0
-299 353 422 0
198 -257 -299 0
-59 -129 216 0
-247 306 426 0
-220 -232 -278 0
65 -129 206 0
226 339 -383 0
9 26 -209 0
-180 -253 390 0
67 -304 -340 0
-50 175 -220 0
35 -241 325 0
151 -309 -434 0
-340 -372 424 0
113 227 -385 0
-174 221 -329 0
130 210 -385 0
179 -181 -404 0
109 322 -398 0
12 -243 265 0
288 382 428 0
-37 138 249 0
-136 -143 449 0
-34 -44 -355 0
50 -105 206 0
29 327 -335 0
-23 -45 -83 0
155 350 360 0
-58 204 -438 0
-307 -357 446 0
89 136 -444 0
85 212 -381 0
-109 -299 399 0
-23 330 360 0
54 219 257 0
61 285 -341 0
260 349 430 0
-315 329 -352 0
116 -151 -378 0
13 -68 -426 0
-58 -96 433 0
-116 346 -379 0
-218 333 397 0
-10 -62 80 0
-21 -105 367 0
-115 142 -281 0
232 359 402 0
110 -419 -434 0
97 -113 -350 0
166 -305 -379 0
101 -302 -324 0
-38 64 179 0
-241 257 341 0
-240 -364 422 0
102 -190 -303 0
-184 -298 304 0
-105 169 300 0
50 -275 390 0
-93 104 257 0
-250 312 336 0
-128 146 -275 0
89 -141 278 0
-170 -310 443 0
207 -341 -421 0
-98 214 309 0
-39 354 432 0
277 -413 -417 0
-218 -364 -435 0
-300 310 -369 0
156 304 415 0
-209 -379 -441 0
-88 278 326 0
-139 279 -333 0
4 -45 -360 0
96 114 393 0
284 -390 -409 0
-19 -143 -432 0
-208 -441 442 0
131 -170 444 0
84 -396 436 0
-85 -304 305 0
50 153 -427 0
-34 297 -341 0
-80 111 -188 0
262 372 -419 0
197 206 326 0
-43 105 325 0
125 -415 419 0
-78 363 -401 0
-176 362 -373 0
140 146 -416 0
3 166 -390 0
-128 -241 -327 0
-78 149 -358 0
3 -260 -402 0
-156 -377 -413 0
-65 315 -393 0
-33 -211 295 0
341 -355 397 0
78 269 376 0
-94 -164 -279 0
-228 248 400 0
76 -350 -423 0
-291 -389 437 0
-256 -272 -434 0
-129 209 424 0
49 106 -331 0
-100 207 256 0
150 -220 -301 0
119 327 -397 0
-63 210 427 0
7 -304 -403 0
85 -212 216 0
23 -307 387 0
-124 -131 -139 0
188 271 354 0
311 -371 388 0
41 -222 -420 0
-143 -289 449 0
-12 -98 -445 0
-73 290 -331 0
1 344 358 0
108 251 -414 0
177 253 436 0
144 253 373 0
-202 -205 -307 0
195 -287 359 0
-39 65 -86 0
-22 126 202 0
346 -366 -432 0
152 292 383 0
-197 372 -379 0
26 -75 179 0
-262 -312 330 0
163 275 -285 0
-105 132 -177 0
-105 -194 261 0
163 -212 -401 0
-251 -262 438 0
-169 273 -449 0
-278 322 334 0
-234 -295 -445 0
149 -153 222 0
195 -397 -400 0
-32 -221 345 0
81 -151 293 0
9 130 394 0
108 291 434 0
-313 367 387 0
-241 276 -312 0
199 -322 358 0
-89 -253 -254 0
273 -302 322 0
35 -118 -158 0
255 -293 -439 0
-108 -405 -428 0
-48 278 -326 0
-115 -241 -301 0
99 324 -349 0
202 -351 415 0
-154 -210 -314 0
-278 423 -425 0
138 -283 361 0
119 -225 336 0
95 -140 -444 0
-125 174 297 0
109 -218 -397 0
-42 173 -344 0
388 420 432 0
20 -203 430 0
-138 161 352 0
317 -328 -393 0
45 165 -388 0
-31 79 -151 0
215 -261 299 0
-178 -342 -413 0
-93 302 -365 0
-164 184 -444 0
128 271 -291 0
137 148 345 0
25 -50 180 0
-333 406 435 0
84 -128 372 0
35 -155 -224 0
120 305 -387 0
249 308 -419 0
167 361 443 0
-44 -255 -355 0
-74 -87 151 0
1 -89 -324 0
38 -65 -133 0
-92 -138 150 0
102 400 -419 0
50 147 194 0
-7 87 239 0
32 -195 -304 0
-19 239 -357 0
45 228 -334 0
87 152 -165 0
152 155 -254 0
-143 216 -385 0
35 -285 340 0
-175 236 -375 0
27 88 128 0
-125 253 358 0
129 136 239 0
-252 -387 441 0
321 333 -429 0
241 -292 -372 0
35 -369 423 0
82 326 421 0
115 -205 294 0
188 240 -415 0
-99 179 296 0
-235 353 422 0
-29 -161 -247 0
53 224 -362 0
-11 -125 245 0
83 -90 -407 0
59 302 -430 0
17 351 -438 0
48 74 -344 0
-79 81 -214 0
-16 -88 166 0
-92 -176 316 0
16 36 -291 0
25 -142 321 0
-76 194 217 0
179 -242 292 0
-25 -171 377 0
-15 -101 258 0
-34 -114 -130 0
77 215 -369 0
-97 159 194 0
94 -263 -341 0
50 110 -343 0
-239 -254 -281 0
273 313 411 0
303 327 403 0
-6 -101 -440 0
19 277 450 0
-121 137 263 0
-81 -237 414 0
-76 -141 -400 0
-150 -173 326 0
-11 -325 -364 0
135 -242 -244 0
-8 177 346 0
-207 -303 -367 0
-83 88 107 0
215 228 -448 0
-25 -49 375 0
97 224 413 0
98 -166 225 0
-281 -284 410 0
-2 -27 -149 0
237 347 -425 0
-53 105 -219 0
-276 -304 -447 0
37 171 -173 0
82 -132 -310 0
46 67 247 0
-135 -139 -378 0
-59 391 -450 0
58 368 -399 0
68 132 364 0
-186 267 363 0
122 123 -406 0
-153 349 -417 0
-10 103 191 0
-308 328 -362 0
-153 -383 -429 0
-178 -302 327 0
-6 123 -358 0
28 200 -255 0
80 -142 214 0
87 -395 428 0
-117 -127 145 0
134 -231 433 0
-178 -208 -249 0
-35 -63 -357 0
13 51 -179 0
75 240 264 0
-117 128 303 0
79 -163 -426 0
187 207 232 0
-131 322 368 0
20 320 322 0
-84 -176 -447 0
25 -218 348 0
158 193 237 0
22 103 -166 0
377 386 -395 0
-50 103 375 0
-115 346 416 0
-17 -124 -198 0
-75 97 407 0
26 -143 -362 0
45 -336 -398 0
-191 -239 -305 0
-74 195 318 0
-224 421 433 0
-188 201 308 0
180 -368 -434 0
148 329 385 0
112 381 -450 0
-37 -94 -155 0
-137 429 -448 0
-12 337 -353 0
-65 -249 -317 0
-229 251 -374 0
140 202 446 0
-173 274 -294 0
-218 -370 433 0
-93 -386 -421 0
-18 154 -240 0
93 -196 372 0
-56 412 444 0
-89 -213 -436 0
-98 -329 -402 0
-109 406 430 0
-202 337 -364 0
101 133 -139 0
-22 -58 -216 0
-56 281 -330 0
49 93 -431 0
-317 404 -417 0
-52 -58 -134 0
-134 -273 325 0
99 -290 317 0
-384 -415 -447 0
228 -269 287 0
217 361 412 0
143 228 -399 0
25 379 395 0
121 -237 -383 0
181 -262 -301 0
133 152 -333 0
-95 -276 -392 0
49 59 239 0
106 -211 -273 0
-7 157 232 0
-117 -349 -413 0
41 -172 -223 0
125 -271 394 0
187 313 343 0
-37 46 396 0
240 262 376 0
9 17 280 0
-120 286 316 0
33 44 212 0
53 94 -185 0
37 -296 336 0
-104 -261 271 0
259 -315 363 0
-166 380 428 0
-125 198 249 0
-150 184 327 0
94 -155 343 0
166 260 -388 0
-108 273 -425 0
-267 289 -360 0
2 167 -261 0
-135 -188 380 0
-92 281 -410 0
-56 251 -355 0
-33 -211 381 0
161 -180 307 0
174 -233 -408 0
-119 229 442 0
12 -115 425 0
-145 -307 -378 0
21 149 249 0
-201 226 -379 0
-9 -113 247 0
33 221 356 0
-18 81 -310 0
-129 167 209 0
-62 -213 -360 0
-201 391 -392 0
11 -21 -88 0
-207 -231 400 0
57 287 387 0
146 370 396 0
-61 -256 317 0
-34 370 391 0
68 -389 448 0
-2 95 123 0
14 -68 -224 0
-117 -149 -318 0
343 -351 -419 0
166 -249 -313 0
-96 -164 179 0
-47 117 297 0
31 -245 -302 0
11 -76 -240 0
77 -114 142 0
-195 -351 -448 0
-20 135 243 0
326 -403 -429 0
-26 -106 -409 0
-16 -60 -146 0
-19 -114 -246 0
-291 305 -419 0
88 294 383 0
-51 387 -395 0
-18 196 -343 0
26 -260 391 0
-32 284 286 0
34 293 307 0
-78 -179 321 0
-182 205 -238 0
107 276 433 0
124 -140 -183 0
-173 286 -412 0
-86 171 -314 0
91 -367 425 0
41 314 424 0
-7 221 320 0
-70 -275 -386 0
26 332 413 0
-72 -310 -412 0
-127 -190 334 0
-45 -269 -407 0
-62 276 370 0
304 -331 428 0
-44 378 -440 0
-216 -218 352 0
-72 140 -371 0
-170 -238 282 0
59 -181 417 0
1 -32 313 0
111 -207 290 0
36 -47 247 0
24 341 -361 0
27 -39 124 0
50 -205 -388 0
68 89 282 0
42 163 -431 0
28 -231 365 0
-230 318 331 0
-209 -230 278 0
-71 -196 327 0
233 -256 -389 0
-288 337 -434 0
162 -252 442 0
-58 -214 284 0
1 196 200 0
25 -109 336 0
26 -179 -447 0
15 106 201 0
-11 412 431 0
-7 116 -396 0
-227 -243 284 0
-16 -166 -354 0
-61 75 91 0
99 -115 313 0
168 175 301 0
-43 -115 -307 0
154 -200 -213 0
72 225 -437 0
19 227 -447 0
22 -143 410 0
-147 -158 418 0
325 445 448 0
-175 216 -320 0
85 178 241 0
-81 317 -422 0
-31 -84 214 0
-42 -161 -193 0
53 329 -402 0
93 -129 176 0
-98 137 183 0
151 -185 212 0
20 -99 341 0
79 -134 401 0
27 101 -331 0
217 -220 351 0
-8 -141 422 0
-272 332 449 0
164 -217 -286 0
110 326 415 0
134 234 249 0
-278 304 -445 0
-5 109 -287 0
50 178 -326 0
138 -222 -309 0
121 185 343 0
72 -84 181 0
145 -169 425 0
-114 -146 275 0
-39 50 180 0
23 203 380 0
-183 -369 424 0
-42 175 -432 0
21 -62 -222 0
11 -129 -263 0
-48 193 -269 0
-77 92 250 0
-420 -445 -450 0
51 275 -392 0
23 211 -291 0
-96 175 -389 0
318 326 386 0
-81 -289 392 0
-48 139 -363 0
12 -31 -449 0
-94 140 -225 0
91 183 -295 0
-181 207 -424 0
-202 -222 260 0
-254 -301 -342 0
-280 318 -343 0
-193 -397 -448 0
255 312 -425 0
-35 -208 -226 0
-17 -186 211 0
-42 -109 114 0
265 -341 -353 0
18 -118 -381 0
48 55 150 0
64 197 -236 0
-61 121 -231 0
23 36 128 0
35 -325 -367 0
56 -118 158 0
-53 319 448 0
-401 -410 -417 0
193 -394 -430 0
-155 249 -314 0
153 290 -326 0
-179 187 432 0
-105 -143 -173 0
23 80 414 0
41 103 -230 0
64 -111 355 0
-223 -288 376 0
-36 -45 239 0
252 295 -329 0
-248 -391 393 0
35 74 271 0
-41 267 -444 0
89 -288 350 0
-1 -357 379 0
25 184 215 0
41 -170 -397 0
188 288 -334 0
-174 -299 -432 0
39 -288 325 0
28 321 383 0
34 -132 212 0
104 178 262 0
-15 349 376 0
-326 -364 -394 0
-230 -293 425 0
-81 269 421 0
-104 -113 273 0
-54 128 -360 0
-18 230 -250 0
258 -319 -450 0
217 -302 -380 0
168 349 -383 0
62 -225 -291 0
-75 126 -315 0
240 245 266 0
97 117 152 0
-131 378 -427 0
202 236 410 0
142 -337 443 0
-212 -279 416 0
181 269 353 0
298 380 -421 0
-60 -275 -366 0
122 -158 358 0
-243 -303 -397 0
128 -216 -405 0
-244 -342 -373 0
29 172 -278 0
-40 166 306 0
-32 358 -413 0
-34 165 -413 0
-45 -348 -374 0
-65 257 -397 0
305 321 379 0
-43 -247 273 0
-143 232 450 0
-179 -256 348 0
7 75 -353 0
161 -184 307 0
315 380 -396 0
-105 312 362 0
-31 -174 337 0
201 -296 391 0
267 358 -369 0
-138 285 -331 0
-56 -261 297 0
-11 80 -159 0
39 141 255 0
221 -406 425 0
250 342 -421 0
-12 77 269 0
182 -263 441 0
-1 -147 -231 0
148 -247 414 0
147 339 438 0
79 431 -443 0
122 -178 -349 0
121 -141 373 0
-79 -246 257 0
48 231 304 0
40 -65 192 0
-50 -67 -244 0
307 -332 -360 0
-30 91 -389 0
75 -106 241 0
18 226 -296 0
-152 228 -252 0
-175 228 -363 0
135 -197 -235 0
72 -296 371 0
-48 -119 426 0
-181 -192 324 0
-14 -343 -352 0
29 -251 382 0
-17 45 51 0
-168 349 379 0
41 107 -123 0
-73 -390 -442 0
136 -213 -309 0
-125 -221 385 0
-41 111 -121 0
-30 271 -391 0
-3 142 148 0
104 266 -372 0
-11 -143 -373 0
-287 383 396 0
166 172 375 0
17 136 -408 0
54 -218 -279 0
165 304 393 0
-43 102 -366 0
-199 331 363 0
-52 -215 -287 0
40 269 -303 0
-198 272 -336 0
74 -215 316 0
213 312 -313 0
-41 -177 -445 0
-114 -209 339 0
101 -184 292 0
110 -130 -402 0
-49 160 -434 0
102 -123 -248 0
156 284 -439 0
-10 190 -232 0
-11 220 -410 0
-37 258 -441 0
-163 -191 -326 0
21 205 260 0
10 -64 143 0
151 -342 -416 0
-112 -282 288 0
180 273 -342 0
114 271 -273 0
-108 -241 347 0
61 -279 428 0
4 160 346 0
2 172 -247 0
-47 232 -330 0
-279 -285 377 0
298 382 418 0
-19 72 -360 0
61 95 365 0
-46 -196 246 0
199 202 -366 0
-163 347 -375 0
-225 -351 -380 0
-37 95 379 0
-147 -223 -431 0
31 317 -370 0
-56 106 183 0
-157 -408 431 0
-231 265 -400 0
45 72 376 0
77 -179 -386 0
143 -309 389 0
-144 -236 349 0
119 229 369 0
4 224 290 0
116 -210 450 0
4 166 -208 0
-83 282 392 0
395 419 444 0
18 -167 234 0
-30 -162 243 0
99 208 331 0
-68 289 353 0
43 -329 -427 0
9 -81 -298 0
310 323 -347 0
19 -185 191 0
-136 304 -420 0
44 48 -167 0
207 284 435 0
149 267 318 0
-96 -326 -363 0
160 -265 376 0
-72 -163 311 0
-21 373 382 0
140 -284 388 0
323 -350 355 0
-84 -99 420 0
-133 -187 -303 0
-77 111 -438 0
149 342 446 0
245 -426 -438 0
-33 37 308 0
44 -265 341 0
265 -307 438 0
169 188 -336 0
-161 181 -421 0
56 209 311 0
-269 277 -409 0
-29 -148 431 0
-30 -148 -349 0
106 -189 215 0
83 -305 436 0
12 -310 -338 0
-77 196 351 0
113 122 271 0
-95 147 263 0
-16 83 352 0
68 100 -319 0
107 265 -284 0
-40 -92 206 0
-83 118 441 0
-37 275 375 0
-99 167 231 0
-110 127 -193 0
34 -434 443 0
-79 -198 330 0
-20 -317 346 0
-84 -298 390 0
151 -248 339 0
79 -262 -420 0
239 -255 -272 0
54 -336 -445 0
69 -225 -362 0
84 134 357 0
-49 -144 -306 0
-2 -329 450 0
-118 -157 -363 0
151 208 -416 0
78 135 367 0
259 -267 -405 0
-47 -293 -402 0
-293 338 -419 0
307 388 -445 0
-72 -162 284 0
252 -286 -357 0
73 279 -395 0
169 297 -313 0
-322 346 -358 0
-144 181 194 0
-57 243 -378 0
136 139 -282 0
-58 177 216 0
181 -262 348 0
5 -146 -163 0
117 139 -165 0
-128 160 444 0
-207 -300 322 0
-191 -236 394 0
-200 263 -351 0
