p cnf 450 1917
-43 361 -438 0
-106 -418 441 0
-96 -174 265 0
-214 228 -423 0
-132 -377 -431 0
175 286 -368 0
173 -194 -198 0
-412 -447 449 0
56 -74 -166 0
69 -107 310 0
-215 -228 -314 0
-211 287 -358 0
-71 350 384 0
81 298 327 0
-190 357 -378 0
121 288 -389 0
111 222 -300 0
109 361 441 0
181 183 -245 0
129 -184 -346 0
174 295 -354 0
-188 -197 355 0
-85 164 409 0
-86 -184 268 0
-138 221 324 0
119 299 -317 0
21 34 -337 0
65 -287 362 0
-191 374 410 0
-101 105 398 0
123 284 348 0
334 -368 -431 0
1 -343 -376 0
-161 297 -392 0
141 -283 -435 0
-36 118 244 0
359 360 394 0
179 -189 -378 0
187 211 -351 0
5 25 270 0
11 -151 -313 0
-61 293 -306 0
59 -260 -323 0
-47 206 -440 0
-156 181 333 0
-50 335 -349 0
67 -91 253 0
41 -104 262 0
-273 -293 -419 0
-237 -255 -309 0
-327 421 -430 0
63 290 -358 0
-60 -213 -280 0
-144 -145 429 0
13 354 443 0
139 -272 385 0
6 36 382 0
139 233 256 0
-218 231 275 0
333 -397 -421 0
-11 66 -113 0
50 -431 -450 0
-169 271 299 0
-17 -246 300 0
-140 299 364 0
-83 151 354 0
223 246 -427 0
129 208 241 0
-25 90 -381 0
197 299 415 0
294 342 -349 0
111 143 -277 0
-90 -209 416 0
56 69 374 0
-108 200 -266 0
59 237 -338 0
-117 269 370 0
-3 242 -403 0
-148 211 -386 0
-120 -173 -430 0
130 -186 -230 0
-207 217 -415 0
-64 -172 430 0
-246 269 -389 0
127 -189 433 0
153 -368 395 0
-183 -268 412 0
-318 331 -447 0
50 -117 273 0
-41 -203 233 0
-328 -379 396 0
19 371 399 0
254 334 402 0
107 192 311 0
-1 -225 -227 0
51 -193 -351 0
140 290 -392 0
187 -215 221 0
73 298 322 0
11 51 154 0
-109 280 -305 0
18 324 406 0
-60 125 -196 0
53 -272 -325 0
-145 -305 336 0
-15 283 342 0
-3 336 -365 0
-254 281 -394 0
275 -423 -443 0
24 129 -134 0
-199 301 -402 0
110 240 319 0
11 318 -328 0
-128 -308 327 0
-183 -374 -385 0
26 51 191 0
-71 261 277 0
82 -246 -339 0
357 -369 -418 0
-72 -256 -331 0
164 186 263 0
-149 -286 334 0
72 -137 -311 0
293 339 -350 0
14 -130 177 0
-64 146 -393 0
157 271 -399 0
-147 300 318 0
-18 -140 254 0
-158 201 -348 0
-104 -135 213 0
-33 185 -334 0
238 363 441 0
-142 334 344 0
38 -107 -207 0
-81 159 354 0
161 165 166 0
-123 309 -409 0
127 238 276 0
119 241 -293 0
-138 -212 -427 0
-9 122 239 0
-152 -163 222 0
-11 134 281 0
-54 157 -234 0
-133 220 -374 0
22 -166 -281 0
-171 172 419 0
90 -91 134 0
-126 -208 -379 0
-10 -56 185 0
-79 214 -267 0
-42 -214 -372 0
-158 -286 -317 0
-258 -292 331 0
175 -214 399 0
-122 172 -402 0
162 202 285 0
82 -152 230 0
-31 92 399 0
-83 306 -358 0
-88 131 -271 0
-95 289 -429 0
294 344 365 0
189 230 -416 0
-108 -118 302 0
59 173 395 0
-175 260 -384 0
-129 -301 447 0
-134 171 190 0
121 312 -365 0
-84 388 -394 0
166 -345 -367 0
7 102 135 0
71 396 -443 0
175 -195 -251 0
111 -127 331 0
12 50 -206 0
117 151 -191 0
126 143 241 0
-249 389 450 0
-76 107 305 0
-29 -59 -217 0
-131 -217 -351 0
-156 336 -384 0
46 -343 -350 0
375 417 444 0
-306 334 -335 0
-151 167 -372 0
104 195 337 0
-107 215 -417 0
-72 -269 392 0
66 -339 -346 0
-187 -392 -430 0
12 -267 442 0
-8 -247 437 0
-55 269 -414 0
111 307 325 0
-66 -185 -239 0
7 -45 -228 0
179 280 283 0
-37 172 -397 0
-143 -221 -381 0
127 181 -213 0
124 -205 -436 0
25 322 -435 0
126 214 259 0
-113 -222 -301 0
-82 148 271 0
-61 -382 429 0
145 226 241 0
-116 -397 -432 0
-19 -104 -163 0
157 -219 252 0
-349 -409 -450 0
-64 133 262 0
-20 -173 -406 0
-145 422 447 0
372 -375 -443 0
61 352 447 0
-5 -61 294 0
-138 157 353 0
151 275 -421 0
128 -176 230 0
150 268 280 0
175 -203 234 0
276 319 -377 0
6 -53 -206 0
-90 304 379 0
16 66 240 0
-124 139 -402 0
-43 -67 254 0
-9 -53 100 0
-64 67 -384 0
-104 -244 -316 0
24 -220 448 0
29 88 -432 0
-29 356 -401 0
-207 -290 391 0
62 -339 -426 0
-104 317 428 0
-344 349 365 0
-8 12 -263 0
84 318 419 0
222 360 430 0
-36 266 -433 0
-129 174 190 0
-16 263 -362 0
-15 -25 -204 0
98 387 430 0
62 228 275 0
47 285 -341 0
85 -92 -415 0
-314 -343 434 0
222 -229 -401 0
-85 316 -344 0
-63 -158 -399 0
-159 208 267 0
-2 -113 201 0
185 -215 248 0
53 185 372 0
73 114 170 0
-149 428 -429 0
155 392 -405 0
-131 -318 437 0
-37 -68 -358 0
-20 -96 -136 0
143 173 -363 0
27 -54 107 0
-158 220 358 0
125 -397 -424 0
-2 95 -377 0
-247 357 -439 0
-31 -236 -359 0
-43 187 226 0
186 -263 416 0
-262 -351 -398 0
151 336 -383 0
-74 -172 404 0
105 -288 353 0
171 -302 435 0
-4 111 398 0
-3 146 -344 0
-86 311 315 0
108 -320 355 0
-84 -275 404 0
-17 -174 -285 0
52 339 -401 0
-114 351 371 0
147 -188 -384 0
184 299 -425 0
-49 252 -317 0
-218 304 -376 0
164 -377 -445 0
-109 -345 355 0
-177 334 -429 0
-120 151 304 0
-36 153 -376 0
-77 -273 321 0
-109 -148 -373 0
181 -372 -445 0
121 192 284 0
-129 214 376 0
-246 294 -312 0
-81 259 -407 0
116 173 207 0
-55 -185 -334 0
48 -200 -409 0
-81 -202 211 0
5 -98 -392 0
-15 -73 182 0
-120 339 -341 0
64 154 -298 0
-160 -197 363 0
-14 -326 -412 0
-294 370 -413 0
16 85 -401 0
266 427 -442 0
288 -361 409 0
18 202 387 0
-144 304 411 0
-123 -169 317 0
187 -359 408 0
-3 -225 241 0
291 303 428 0
193 249 -353 0
127 252 370 0
-37 50 164 0
17 248 322 0
-27 -136 -426 0
262 263 -319 0
-167 258 -391 0
-324 -351 354 0
11 316 -385 0
-332 336 -408 0
62 408 409 0
-49 93 -162 0
252 -351 -443 0
-140 334 -429 0
-80 140 449 0
-64 -100 310 0
56 -90 -298 0
171 317 443 0
20 98 -271 0
-204 270 -373 0
184 -412 -449 0
-120 -337 -344 0
38 44 -401 0
-210 -282 382 0
-71 82 277 0
-52 -230 300 0
-186 -409 423 0
94 -273 -382 0
5 -41 203 0
-65 74 -353 0
66 -143 320 0
3 199 -401 0
89 -93 -313 0
-184 284 -413 0
-105 144 414 0
-361 -416 424 0
108 234 -420 0
50 -316 -339 0
-164 -393 410 0
151 264 292 0
78 -249 -347 0
-53 -254 275 0
-23 201 408 0
-41 -100 -313 0
35 69 -144 0
155 -253 -440 0
-22 -57 -386 0
166 174 398 0
17 -168 359 0
37 245 275 0
-325 393 421 0
76 -265 419 0
111 -146 -429 0
-20 273 294 0
43 178 -202 0
-193 -413 -431 0
-81 232 -445 0
62 158 -174 0
340 417 -424 0
9 32 433 0
-85 261 -288 0
-57 195 303 0
-12 -138 -151 0
-8 -11 -393 0
-20 225 366 0
-27 58 -209 0
194 -387 434 0
100 120 316 0
2 151 -325 0
235 -236 371 0
-188 235 -298 0
-46 -52 400 0
174 -201 358 0
18 335 -374 0
-49 -120 197 0
117 -176 272 0
-86 134 -151 0
53 104 -227 0
-104 145 345 0
-48 231 268 0
-171 294 329 0
-266 383 -437 0
-64 -238 337 0
230 408 -449 0
13 186 -382 0
282 290 -348 0
-44 117 -143 0
248 -374 -449 0
-68 -95 -129 0
-53 -149 379 0
81 -177 -217 0
-215 346 -365 0
245 -366 -411 0
-177 337 -436 0
155 -282 398 0
-71 -140 169 0
-231 248 -328 0
-153 348 -378 0
-57 87 -226 0
165 -265 321 0
-74 -100 -160 0
111 -197 -279 0
-95 151 211 0
89 -186 198 0
44 244 422 0
-54 -302 -442 0
-125 -171 -295 0
-4 80 105 0
-22 -45 -239 0
32 84 -383 0
285 357 404 0
-344 -384 424 0
51 110 -368 0
-10 -270 -344 0
74 140 350 0
-174 -199 -310 0
261 -352 372 0
37 -41 -189 0
-60 -174 -197 0
-139 166 295 0
173 253 -443 0
135 -395 413 0
142 191 -404 0
11 178 286 0
4 -62 430 0
78 265 384 0
142 179 314 0
9 -163 246 0
-20 -172 400 0
44 -270 -359 0
-3 -117 -138 0
-199 306 416 0
-22 -225 -404 0
-54 202 -252 0
127 -291 -341 0
179 -207 -263 0
-82 -95 -230 0
232 425 438 0
10 31 -157 0
-7 -8 148 0
-288 327 440 0
119 -142 189 0
30 -32 -203 0
74 170 -216 0
-86 241 -308 0
-100 109 -423 0
12 -124 -133 0
-49 -126 -301 0
-19 45 175 0
58 316 -425 0
-348 -354 425 0
-284 -405 431 0
-235 -253 -396 0
-21 -193 -339 0
-18 32 321 0
-167 -206 284 0
-84 -211 409 0
-104 361 424 0
-214 337 439 0
-53 230 -412 0
-63 436 -446 0
-164 -226 -320 0
-175 222 -227 0
-230 -288 -404 0
333 -397 -408 0
52 70 -106 0
-148 337 372 0
-3 -342 -374 0
182 283 421 0
-86 97 163 0
-104 298 303 0
168 -221 331 0
209 286 436 0
-34 -348 401 0
64 -159 -335 0
-19 103 163 0
124 291 387 0
-20 -205 388 0
-201 -339 448 0
-31 -158 332 0
29 190 -219 0
-170 174 -277 0
53 216 -384 0
-172 -357 424 0
129 -194 -252 0
23 -33 383 0
-40 -159 279 0
-12 -386 420 0
-154 -385 426 0
174 228 378 0
69 126 -324 0
-138 -263 342 0
-34 254 370 0
299 390 -449 0
-30 266 337 0
-43 -238 446 0
-20 58 338 0
-128 177 234 0
-116 -159 358 0
280 -287 410 0
-81 -145 419 0
11 230 -248 0
-92 260 267 0
116 -145 -273 0
-62 -255 317 0
286 -291 445 0
-160 166 354 0
204 -207 442 0
-63 349 391 0
-69 -325 419 0
185 227 -278 0
227 399 415 0
-165 385 437 0
-28 122 -346 0
39 211 -284 0
-218 -225 395 0
-196 -392 -421 0
212 -293 -351 0
-137 191 192 0
69 174 244 0
199 -220 367 0
-65 -248 -376 0
52 341 -343 0
-44 -49 168 0
85 -108 -181 0
-196 -253 295 0
-66 -99 -201 0
92 322 -415 0
158 250 -395 0
-40 -163 -233 0
-70 101 -238 0
-12 169 -256 0
24 85 -169 0
25 117 331 0
22 -184 -227 0
168 179 368 0
186 209 -394 0
-121 246 -441 0
-228 -372 377 0
-118 126 -145 0
-184 281 336 0
-257 264 337 0
-29 -83 318 0
96 -164 -441 0
81 -298 -419 0
-159 -240 321 0
-16 80 -426 0
6 216 413 0
-254 255 372 0
49 -100 112 0
147 -188 389 0
-316 -356 -439 0
-26 218 401 0
73 -259 -389 0
-1 -78 -373 0
73 -216 347 0
162 -304 361 0
28 -169 -176 0
-19 270 -325 0
153 -244 322 0
-294 337 386 0
-40 196 310 0
-148 -296 332 0
-150 -154 -300 0
48 220 -309 0
216 275 329 0
42 -51 -329 0
133 -342 -381 0
128 200 -293 0
329 -419 -445 0
297 374 -421 0
-51 200 239 0
-24 136 -228 0
-165 214 -283 0
-163 440 -442 0
33 247 -358 0
-35 -179 443 0
-62 294 -424 0
64 -190 -289 0
-98 403 -419 0
75 -110 317 0
9 69 246 0
-96 168 210 0
93 366 367 0
-116 -163 -265 0
57 -93 -421 0
77 118 156 0
130 -160 -237 0
53 -289 -368 0
-204 -225 -306 0
-126 -161 -167 0
77 177 388 0
3 250 252 0
295 373 -378 0
-248 368 408 0
-240 347 371 0
-65 -325 360 0
-12 -228 426 0
-49 290 381 0
128 -133 226 0
76 -180 200 0
-100 360 361 0
-40 -182 -430 0
-154 311 347 0
60 -124 331 0
216 293 368 0
-48 243 359 0
-24 -389 -438 0
-131 364 422 0
-17 66 425 0
-135 147 -198 0
-63 237 286 0
50 -188 211 0
177 -221 -267 0
-204 -312 -381 0
146 184 -391 0
75 -119 307 0
-41 -55 -269 0
52 68 -437 0
-301 377 412 0
-80 124 -223 0
-154 -192 396 0
-60 -316 -394 0
44 -101 131 0
-63 -308 417 0
-144 219 -319 0
214 -287 -446 0
-202 209 -362 0
36 79 315 0
185 197 -333 0
-87 141 241 0
-116 357 -371 0
-52 98 411 0
-279 336 378 0
163 -194 314 0
-25 -90 -256 0
19 -322 -339 0
125 251 -296 0
-178 295 317 0
-98 -328 385 0
195 345 -354 0
189 291 443 0
-41 -161 301 0
238 -414 -433 0
291 -415 422 0
-2 -101 239 0
-34 -99 350 0
-123 239 -299 0
162 203 323 0
-72 363 -436 0
-4 -135 176 0
210 380 438 0
-4 -135 -304 0
33 390 403 0
-212 -214 420 0
-17 -87 -111 0
172 344 366 0
-179 -413 -430 0
273 -284 395 0
166 243 265 0
-143 -254 441 0
67 -132 330 0
-121 -274 -307 0
275 283 292 0
-202 -243 -356 0
128 -312 -323 0
-184 188 190 0
-59 70 112 0
-19 324 369 0
-255 -326 -449 0
140 312 -393 0
135 -175 -389 0
108 428 437 0
99 -249 363 0
134 186 -449 0
241 266 327 0
94 -141 263 0
62 -181 -219 0
17 -62 -261 0
65 -174 -333 0
-66 101 -337 0
-134 -193 -425 0
-46 99 -123 0
-121 161 333 0
-109 311 449 0
143 266 -412 0
53 -323 -394 0
190 223 390 0
-27 345 383 0
-36 169 -297 0
-168 -198 261 0
174 300 387 0
49 121 -265 0
-77 292 321 0
-123 -199 346 0
-3 145 216 0
-25 -374 382 0
-34 -190 -375 0
-60 -389 -431 0
-36 -56 -194 0
-7 88 434 0
29 -65 321 0
55 -240 447 0
-45 -157 -359 0
91 122 -237 0
29 -174 -247 0
-253 -302 410 0
262 338 -343 0
31 -235 -301 0
199 338 -356 0
-18 25 435 0
13 -144 149 0
-153 -260 -415 0
86 -189 -304 0
169 366 -387 0
78 182 -301 0
272 -297 427 0
191 -301 415 0
62 -233 275 0
-44 -117 -265 0
-79 -211 -238 0
-25 180 -336 0
-47 71 393 0
183 378 399 0
170 212 -330 0
-2 -58 265 0
90 237 -450 0
-19 -124 -279 0
-270 -321 360 0
53 -315 -326 0
23 -175 -340 0
178 201 -364 0
-75 169 356 0
21 -206 -342 0
-20 245 310 0
54 127 362 0
364 -369 409 0
257 282 -310 0
234 -266 -296 0
180 184 -336 0
11 148 -333 0
-94 384 -389 0
202 -278 421 0
142 163 -280 0
135 192 365 0
7 431 445 0
-87 226 428 0
261 372 408 0
158 -291 373 0
41 355 -437 0
212 281 -370 0
45 153 408 0
190 -243 -432 0
45 202 379 0
-73 215 -262 0
-229 -361 435 0
19 -27 -250 0
-247 249 -442 0
39 -283 -344 0
108 121 381 0
166 -179 -283 0
3 -287 -371 0
-222 -336 -417 0
47 143 192 0
-281 306 -401 0
171 -436 445 0
-85 372 438 0
3 -286 306 0
-74 185 370 0
-3 -209 382 0
-56 239 -367 0
-55 63 -148 0
33 -113 -299 0
47 145 147 0
62 -246 -374 0
20 -32 318 0
250 -322 450 0
-59 172 -226 0
-278 318 341 0
-129 136 -333 0
-193 -199 -350 0
177 -418 -433 0
-92 191 367 0
48 368 379 0
58 -98 139 0
118 145 -413 0
-144 158 390 0
125 196 -262 0
189 212 399 0
36 92 -403 0
-98 -195 -257 0
231 235 -429 0
28 69 243 0
51 -137 -179 0
-67 -239 252 0
240 314 352 0
221 321 -405 0
-52 -271 -421 0
129 -177 228 0
17 288 -372 0
116 238 -392 0
-14 70 449 0
-57 -310 406 0
86 -366 424 0
78 88 380 0
-3 -370 -409 0
228 256 440 0
412 434 -442 0
-83 -140 143 0
-95 122 -348 0
-70 -147 280 0
162 343 -373 0
62 289 -448 0
220 292 -400 0
139 355 -416 0
82 194 285 0
-113 176 264 0
-192 212 444 0
32 -56 -343 0
85 -222 268 0
-67 177 -273 0
65 -142 209 0
-1 210 -409 0
-20 -143 277 0
35 358 377 0
-165 254 -408 0
-168 314 -378 0
32 402 420 0
-12 90 -379 0
28 263 -321 0
-274 -314 389 0
-230 234 401 0
59 -348 -366 0
-35 -61 162 0
-157 -178 426 0
-81 148 -286 0
132 -173 259 0
62 152 -265 0
2 60 177 0
-85 123 391 0
191 245 -341 0
311 325 387 0
-101 140 424 0
-101 116 355 0
-204 259 -325 0
43 50 -313 0
1 18 407 0
-68 112 168 0
42 -234 420 0
-170 -207 425 0
-166 207 -438 0
151 196 243 0
20 22 182 0
-103 349 419 0
-18 -121 -380 0
156 203 -216 0
-74 -177 213 0
43 -147 -393 0
42 -169 250 0
-16 193 -346 0
-106 376 -445 0
-207 250 316 0
-303 -342 -424 0
79 167 234 0
175 -362 -442 0
39 -138 221 0
-207 258 -435 0
-65 -175 335 0
64 -258 294 0
-86 -94 -427 0
161 273 327 0
73 107 420 0
-35 -147 390 0
-74 -159 418 0
-127 129 446 0
-66 -131 -432 0
-75 228 -411 0
14 -72 -126 0
62 244 385 0
-130 179 -448 0
131 -347 360 0
-137 -257 -258 0
-197 -303 326 0
230 -287 441 0
232 -242 -379 0
-69 -333 -383 0
-269 -412 -445 0
-12 -146 -217 0
55 -85 357 0
-161 241 -427 0
-108 -176 -185 0
-322 -327 -414 0
-131 -182 219 0
-35 46 329 0
-61 -86 435 0
-43 52 -433 0
-183 278 396 0
95 -349 -440 0
57 83 416 0
66 192 -216 0
-174 -197 385 0
-34 134 -166 0
75 133 361 0
-99 -272 338 0
89 243 423 0
-18 173 -332 0
97 -253 435 0
-21 94 179 0
35 252 322 0
235 252 -423 0
-1 222 305 0
-203 -283 -438 0
-111 162 -315 0
-107 121 -198 0
-55 -111 353 0
22 49 147 0
-112 353 -426 0
-87 324 -439 0
237 266 -344 0
-88 246 -376 0
-81 -167 -300 0
-62 -195 239 0
47 -150 427 0
-139 -171 -302 0
26 -229 349 0
216 371 -415 0
52 108 -245 0
37 225 -396 0
-70 -371 420 0
-56 -164 370 0
41 -44 45 0
-171 254 -329 0
-237 316 -394 0
127 -176 319 0
-6 151 -209 0
-82 181 349 0
225 -235 397 0
54 151 183 0
242 302 -318 0
17 281 382 0
89 -156 328 0
98 209 401 0
-119 397 408 0
-83 277 -409 0
81 -94 -219 0
-1 72 437 0
193 -283 -404 0
43 -131 399 0
38 199 -315 0
50 344 -423 0
216 227 -259 0
255 274 -304 0
-77 -201 -348 0
116 193 -337 0
-14 277 -431 0
17 -123 249 0
-32 45 403 0
65 -413 414 0
-83 282 -374 0
6 78 270 0
137 -150 -164 0
-57 117 379 0
84 -146 319 0
-252 273 284 0
-45 -108 311 0
-42 -96 431 0
-119 -123 -326 0
-19 -418 -428 0
11 383 -424 0
-114 131 155 0
58 -83 105 0
-60 -288 -387 0
-31 113 -346 0
132 -166 -237 0
130 263 400 0
-175 -234 314 0
127 176 -270 0
100 -116 410 0
56 -221 -267 0
277 309 -374 0
225 -282 -406 0
-29 -152 263 0
15 -346 -438 0
53 55 89 0
-53 177 -224 0
-12 -106 -119 0
207 391 -408 0
-74 -282 -376 0
55 -401 -422 0
35 351 -371 0
-11 -138 -449 0
160 -258 302 0
28 -117 -413 0
-97 -124 -243 0
40 307 -432 0
284 -314 -446 0
12 168 220 0
185 230 241 0
107 -214 -437 0
-263 -323 -375 0
72 -197 -346 0
-71 105 303 0
60 -134 380 0
-180 -216 268 0
-3 67 -261 0
-125 -413 -427 0
-42 171 378 0
128 -139 186 0
-92 -287 369 0
-51 265 296 0
-26 34 429 0
245 246 340 0
-139 162 -290 0
-140 -244 -356 0
-141 -151 -243 0
213 -255 331 0
-114 261 -272 0
-113 -189 -319 0
-263 -268 312 0
22 306 -346 0
26 73 377 0
-103 -307 337 0
-63 -263 326 0
46 190 272 0
156 270 304 0
58 -85 -202 0
-159 -164 -214 0
75 330 -404 0
113 -151 -378 0
77 217 434 0
160 -167 384 0
-62 -211 283 0
28 62 -199 0
146 -360 -423 0
288 -404 436 0
-133 221 -240 0
374 387 -430 0
89 151 -258 0
-36 -134 -230 0
154 -276 384 0
-65 70 -194 0
110 -418 437 0
-29 33 290 0
-173 -302 369 0
-72 106 -405 0
31 136 165 0
79 93 -287 0
-308 320 -416 0
-264 270 334 0
44 -115 287 0
18 185 -293 0
157 -355 374 0
50 -216 -279 0
-196 -369 387 0
-111 138 156 0
-35 -352 442 0
-136 -322 -353 0
-81 246 404 0
-92 98 383 0
283 432 450 0
134 -214 -301 0
232 373 -424 0
-146 197 411 0
-10 -26 293 0
-80 82 251 0
-171 343 -422 0
-48 61 -282 0
16 89 -390 0
-72 203 385 0
-97 -140 439 0
20 36 157 0
173 -252 413 0
-50 -263 349 0
69 -314 340 0
-208 314 -331 0
73 209 381 0
49 -58 -353 0
158 -180 -433 0
37 66 190 0
133 -367 434 0
-11 -116 193 0
166 209 -412 0
33 -153 -264 0
59 149 353 0
-127 131 443 0
20 59 -217 0
70 294 321 0
-24 -276 -300 0
-50 203 -332 0
32 211 425 0
31 -37 -152 0
-3 43 440 0
139 208 -349 0
81 104 105 0
-142 395 -408 0
-15 143 378 0
44 -286 404 0
-14 -255 -324 0
-23 68 112 0
49 -399 -441 0
-126 -165 176 0
255 -412 422 0
-79 -186 281 0
-62 -177 -315 0
100 197 -399 0
-227 347 -354 0
-270 285 311 0
271 274 -279 0
-71 -249 -432 0
-78 103 -410 0
-182 -289 308 0
-22 -229 -346 0
67 -206 -377 0
-127 -189 -323 0
-193 -211 -221 0
125 -216 -386 0
-6 150 215 0
-132 165 -434 0
71 385 -414 0
-59 -441 -449 0
-10 189 -314 0
170 -307 370 0
91 -160 -303 0
-109 389 433 0
-38 366 385 0
133 310 -439 0
-45 346 -437 0
-156 -314 -375 0
-125 167 304 0
75 -242 -280 0
42 -395 -413 0
-38 -152 -215 0
-26 -256 -321 0
-21 393 432 0
202 -357 450 0
94 375 -398 0
-34 -171 266 0
228 327 -397 0
169 204 333 0
116 251 328 0
-34 -110 431 0
-62 -72 -169 0
-160 214 -435 0
174 -327 -412 0
145 207 428 0
8 82 -351 0
24 98 -194 0
43 -219 -322 0
-73 -127 -275 0
-73 -224 -308 0
-41 -64 -192 0
55 -367 420 0
151 351 417 0
-197 198 -429 0
-22 211 -446 0
123 -222 224 0
50 307 346 0
-160 312 -438 0
125 288 -333 0
-71 173 196 0
103 -141 150 0
-154 -239 -249 0
140 337 401 0
-109 200 336 0
294 -295 330 0
-370 376 -388 0
268 -300 -450 0
-266 -345 -385 0
-2 -49 -101 0
-248 399 -421 0
39 119 444 0
-125 -146 276 0
-6 123 148 0
-81 146 -252 0
34 55 -251 0
-81 -293 390 0
-119 133 -220 0
66 114 -316 0
53 83 375 0
31 -106 -348 0
74 -116 147 0
-105 122 327 0
-152 240 260 0
-102 -140 -223 0
-48 -71 -425 0
-21 94 434 0
114 362 407 0
-48 167 267 0
208 247 394 0
114 385 420 0
-154 -164 344 0
-243 296 -382 0
-31 -85 -217 0
-33 -116 145 0
-311 -359 -432 0
-3 -310 -370 0
29 -143 -215 0
-124 143 344 0
-46 323 -379 0
-283 390 446 0
130 -142 -198 0
82 388 421 0
-173 -319 -371 0
277 -288 398 0
-75 -88 278 0
122 -256 389 0
-158 201 287 0
-155 -343 -382 0
94 284 -293 0
158 -414 -440 0
28 -374 -435 0
-186 -282 440 0
24 -90 -111 0
8 76 139 0
-125 -178 -196 0
-31 164 308 0
-107 -133 -351 0
86 253 386 0
-44 -177 267 0
-199 211 -304 0
213 341 383 0
-97 -272 404 0
-84 254 361 0
-37 211 -256 0
63 79 102 0
-40 46 -143 0
-117 398 -411 0
-168 -185 -445 0
-300 306 -337 0
80 123 311 0
-239 -365 -373 0
75 78 -426 0
254 277 -350 0
22 110 -136 0
-16 -235 361 0
-53 105 -202 0
-158 290 297 0
-39 215 -394 0
-71 193 343 0
42 -43 197 0
-159 344 416 0
119 193 -373 0
-26 207 439 0
86 180 -251 0
171 230 278 0
178 -227 -296 0
205 308 -395 0
-14 61 148 0
-31 132 -149 0
160 282 -442 0
74 121 356 0
136 -249 275 0
269 -333 -377 0
-82 147 -148 0
234 -248 -305 0
-11 -51 307 0
-255 -279 -424 0
24 60 -294 0
196 288 383 0
20 39 281 0
92 115 338 0
59 -154 -277 0
-165 -173 -441 0
202 355 -391 0
97 -251 268 0
139 -158 -313 0
5 54 117 0
-1 336 448 0
41 122 -399 0
-61 -206 314 0
-43 -72 252 0
-245 288 -346 0
152 -360 -389 0
116 209 -389 0
-84 -317 365 0
123 146 371 0
316 323 324 0
245 270 -435 0
53 -85 215 0
-19 -137 149 0
-17 382 -447 0
26 44 46 0
-218 -292 405 0
185 283 450 0
-54 92 -196 0
-37 -272 397 0
-49 150 318 0
85 -216 427 0
15 169 279 0
-69 345 -399 0
-7 185 385 0
-47 164 -425 0
217 232 412 0
-87 178 406 0
-88 92 329 0
63 157 164 0
-302 334 -372 0
-155 -225 -253 0
-157 -167 -421 0
-92 106 253 0
144 -193 -311 0
17 -135 -407 0
-24 -195 381 0
-250 -253 -406 0
-47 -143 -204 0
95 135 -366 0
4 178 365 0
-24 95 169 0
65 108 281 0
-34 57 -231 0
98 365 -381 0
104 -149 -199 0
373 430 -437 0
-190 -237 -396 0
-233 270 289 0
142 -210 268 0
133 293 -350 0
44 167 360 0
-94 -252 -332 0
-1 -141 -176 0
-8 -77 209 0
60 -208 -278 0
266 -351 430 0
-26 -102 236 0
-104 -303 -397 0
-10 -175 367 0
-68 207 -288 0
-11 -65 -83 0
-168 -236 394 0
-9 -30 -153 0
57 219 -337 0
86 131 334 0
-135 -195 376 0
8 168 -187 0
38 -148 -448 0
246 283 368 0
240 264 429 0
29 94 -440 0
330 -358 361 0
-283 307 339 0
31 77 -223 0
105 276 348 0
-97 -365 -427 0
-189 251 -436 0
42 46 -212 0
-9 240 -297 0
42 146 -320 0
129 -337 -358 0
-171 386 -425 0
36 -286 382 0
149 164 -300 0
-34 108 -379 0
175 -218 -387 0
-76 157 -312 0
122 -309 433 0
-159 263 -380 0
64 -295 -310 0
3 136 -352 0
329 -372 -436 0
25 -386 410 0
-105 -215 328 0
74 143 372 0
50 -125 337 0
13 404 -432 0
-145 -412 442 0
48 77 -342 0
101 -238 -393 0
-145 -159 190 0
46 -70 304 0
311 427 -444 0
-304 -356 373 0
-1 -63 -100 0
217 -229 -236 0
14 168 -179 0
85 -291 307 0
127 342 408 0
118 176 374 0
175 -178 319 0
179 -238 247 0
-1 -186 -310 0
20 437 444 0
-8 -163 449 0
-47 -159 268 0
48 -300 383 0
122 297 -340 0
-25 49 234 0
106 -140 335 0
50 -128 353 0
-38 -130 280 0
53 97 -272 0
-161 166 -362 0
64 191 211 0
-92 158 -190 0
-188 -245 -327 0
21 -160 234 0
-215 363 428 0
224 -299 -388 0
3 147 -198 0
-15 -243 326 0
-32 -282 -324 0
294 -309 -443 0
-42 196 -434 0
-7 -330 435 0
169 -197 -382 0
-37 -40 -145 0
87 -94 223 0
140 -326 357 0
-35 328 -387 0
-41 -175 -216 0
386 440 443 0
183 297 370 0
-262 -275 361 0
-170 -207 311 0
-247 -347 365 0
-25 -203 326 0
226 -371 450 0
-216 -281 -364 0
-287 303 335 0
16 90 387 0
-157 -185 -290 0
-15 193 250 0
12 187 426 0
-42 137 -202 0
64 98 -278 0
42 -339 446 0
-44 61 125 0
203 -346 -366 0
41 -343 -368 0
-119 -266 -368 0
-137 -138 290 0
10 169 -237 0
100 -107 357 0
171 178 226 0
8 -118 133 0
69 361 -434 0
151 368 -425 0
-375 -414 -424 0
17 250 393 0
6 25 228 0
130 221 -450 0
75 290 -331 0
206 224 236 0
-35 114 -344 0
-194 308 -331 0
-124 154 420 0
172 206 -208 0
-92 -177 -196 0
-19 78 431 0
90 -176 -199 0
44 -288 -312 0
-156 -247 297 0
285 417 430 0
-370 423 429 0
-110 262 441 0
-151 -326 356 0
9 -301 309 0
47 236 -260 0
-26 -76 173 0
-57 350 406 0
123 157 192 0
122 -140 -312 0
-140 159 -389 0
-32 132 401 0
72 157 440 0
-251 268 370 0
162 232 -376 0
74 -280 311 0
-122 289 298 0
1 253 431 0
22 140 -450 0
83 166 265 0
-87 154 -187 0
16 -227 229 0
-136 -239 -431 0
229 -276 415 0
-313 -364 -445 0
117 -218 -446 0
146 -327 -331 0
-158 -180 434 0
-103 -127 347 0
-145 -373 382 0
182 207 307 0
-200 243 332 0
-204 -358 397 0
33 -398 -449 0
-134 342 -358 0
6 -160 234 0
177 276 -385 0
90 -331 -340 0
22 343 354 0
286 442 -449 0
3 14 263 0
-145 237 390 0
19 -74 -313 0
62 -85 -289 0
-112 170 -419 0
-130 176 -255 0
102 -378 -422 0
169 -338 -427 0
188 329 -374 0
149 -410 -433 0
-47 -54 224 0
207 369 372 0
192 -261 -441 0
159 -181 286 0
-49 126 -447 0
-156 221 -253 0
-45 -229 249 0
54 -250 342 0
145 -158 362 0
-55 -310 441 0
-57 -157 410 0
-150 354 358 0
-169 -302 -346 0
-94 -102 267 0
-115 238 -370 0
14 72 -263 0
196 368 -438 0
-53 -126 214 0
113 -116 380 0
55 -226 307 0
-73 -228 312 0
21 -432 442 0
-44 -155 282 0
228 320 -361 0
257 -315 -384 0
12 143 225 0
-57 -146 450 0
103 -220 252 0
-27 190 294 0
-133 -296 300 0
11 158 -278 0
-53 294 -400 0
115 -161 -177 0
157 -194 -205 0
-20 -83 -179 0
-286 394 419 0
-145 -272 360 0
37 -193 -377 0
112 -150 437 0
-24 -35 379 0
-170 -234 251 0
-152 -178 442 0
-52 82 -404 0
42 338 -358 0
-222 322 373 0
-14 127 318 0
106 121 321 0
-129 361 442 0
6 -144 -347 0
101 -244 363 0
43 -220 385 0
45 186 227 0
9 143 -211 0
-19 -84 357 0
118 143 347 0
142 -154 -253 0
-24 -29 136 0
-147 257 -448 0
-45 -104 432 0
13 358 432 0
-178 -184 -239 0
-133 329 -404 0
32 -74 200 0
131 -382 -405 0
-168 312 343 0
57 -104 -242 0
-290 334 395 0
5 52 243 0
-6 -346 -409 0
-84 -154 332 0
13 81 266 0
-185 197 448 0
-133 147 326 0
-83 -320 350 0
7 67 -265 0
-103 140 -444 0
23 55 -210 0
56 -88 391 0
-61 -181 -409 0
147 335 -417 0
-84 107 214 0
43 -299 356 0
-9 -215 -266 0
-178 224 -402 0
90 -102 413 0
-43 336 -343 0
3 39 289 0
-79 280 296 0
190 217 -403 0
-91 249 -308 0
335 -368 -376 0
187 -423 -438 0
152 250 -324 0
-143 167 -226 0
85 296 -307 0
-80 410 425 0
146 200 351 0
-2 -91 -141 0
5 -89 229 0
-58 -334 -367 0
-19 -181 -283 0
31 -250 324 0
-73 -263 291 0
108 -272 351 0
50 -291 408 0
-51 -76 227 0
150 436 441 0
-68 -72 -368 0
45 -73 410 0
-107 -325 424 0
109 132 352 0
-88 196 254 0
31 257 -359 0
25 75 91 0
-222 377 410 0
134 376 388 0
-141 -149 -431 0
75 130 376 0
161 279 -318 0
133 -289 406 0
90 -320 374 0
-83 -160 326 0
-1 -200 -228 0
204 -333 -379 0
-147 182 225 0
141 225 331 0
-207 210 363 0
112 248 -361 0
-39 76 -344 0
-8 136 141 0
46 71 -230 0
32 118 336 0
49 -187 345 0
52 -76 223 0
22 -128 -276 0
-118 166 -179 0
-91 116 -423 0
-25 -190 -192 0
31 34 -300 0
46 152 323 0
31 197 407 0
97 -193 204 0
-40 205 342 0
109 -214 -446 0
50 370 427 0
-122 183 -285 0
-49 179 -408 0
-143 148 -268 0
-26 -55 -402 0
59 183 377 0
-128 143 174 0
-250 -254 -414 0
41 82 -314 0
-162 345 449 0
-236 341 -359 0
92 -286 300 0
144 187 396 0
14 94 -212 0
-157 262 -263 0
113 -186 389 0
-13 -314 401 0
105 -280 403 0
-203 -323 332 0
-333 -359 -434 0
45 283 -371 0
-28 60 -289 0
-166 272 -377 0
67 125 -388 0
112 -168 353 0
-147 -408 419 0
344 372 -389 0
18 -228 -418 0
-188 300 -433 0
46 85 -224 0
-220 -226 442 0
-18 320 -403 0
17 270 412 0
274 425 -436 0
35 37 335 0
-249 -317 -362 0
219 -357 442 0
-52 -218 450 0
-108 -312 406 0
89 117 175 0
-11 377 -420 0
-61 -140 164 0
-11 97 -119 0
-144 -341 429 0
-78 232 365 0
93 -200 -280 0
176 298 -359 0
90 218 273 0
31 375 382 0
-147 -284 -387 0
213 -226 279 0
-368 414 450 0
13 38 -53 0
-247 -303 -331 0
346 -383 396 0
84 215 322 0
-105 -205 267 0
-35 189 291 0
-167 190 -217 0
-1 -236 -336 0
-4 249 356 0
-27 -72 316 0
-72 265 -402 0
-187 270 -294 0
87 -167 349 0
-58 -204 -278 0
2 9 -190 0
-108 221 -324 0
101 -228 425 0
122 187 441 0
69 -168 -194 0
76 147 212 0
-152 243 395 0
171 -220 -293 0
124 -132 -203 0
309 341 409 0
-147 223 450 0
-31 135 -232 0
178 344 426 0
-177 327 -380 0
78 201 280 0
-124 238 450 0
-91 -139 -418 0
66 147 251 0
92 399 -415 0
-88 -119 -172 0
-180 -342 375 0
205 -307 383 0
-11 -352 -435 0
-47 83 -378 0
117 201 -260 0
-123 -335 401 0
86 88 243 0
330 348 -358 0
-29 316 -350 0
3 -43 -310 0
-278 321 389 0
-223 235 -240 0
-46 -59 177 0
43 -64 191 0
-33 -71 -83 0
207 315 -395 0
224 -273 355 0
243 -283 -409 0
-109 -255 282 0
193 -328 417 0
14 86 145 0
30 70 -358 0
244 352 -437 0
-181 -308 364 0
88 174 422 0
206 -243 -252 0
-129 -176 -254 0
-276 -335 405 0
9 -136 -162 0
-214 403 -448 0
-156 358 425 0
223 -305 319 0
165 -168 -234 0
58 -118 -398 0
57 -129 288 0
-422 -443 -445 0
4 268 446 0
-69 -246 255 0
-134 154 375 0
-28 -152 -228 0
50 239 291 0
-146 -238 -309 0
-236 -291 327 0
273 364 -381 0
-138 -160 237 0
101 296 427 0
-119 199 214 0
38 -151 -358 0
-127 -236 -244 0
59 -295 -313 0
12 -38 -303 0
-313 -322 -394 0
394 -403 -405 0
25 -269 -338 0
-135 -191 -272 0
293 330 -446 0
111 -422 428 0
56 207 -317 0
-13 54 160 0
80 -332 390 0
40 -43 346 0
83 212 -367 0
-297 -350 437 0
-30 -101 172 0
-171 328 -329 0
213 220 -373 0
-106 121 -196 0
-123 -345 349 0
53 127 -338 0
132 197 -373 0
-53 73 -100 0
91 187 385 0
178 -343 -443 0
11 118 -343 0
-352 426 445 0
-221 -280 -301 0
-14 -67 -392 0
-172 198 -394 0
-2 -68 -70 0
-88 -249 407 0
-49 130 363 0
-64 232 248 0
62 251 287 0
126 181 -432 0
13 187 -349 0
104 109 -361 0
-66 -341 -359 0
-179 317 345 0
134 -259 -395 0
-58 -339 343 0
-22 217 275 0
-174 270 -372 0
27 156 -383 0
-153 300 -325 0
239 265 -401 0
133 -308 378 0
185 -305 -424 0
-34 -339 347 0
5 263 335 0
-162 -210 -389 0
87 132 375 0
-211 -254 -400 0
-25 -205 -357 0
-97 -106 -141 0
73 162 -206 0
-118 284 -361 0
-293 343 -450 0
212 -299 306 0
-64 165 -171 0
63 311 327 0
-29 215 -273 0
13 -196 -202 0
83 154 294 0
323 334 -337 0
-5 -363 372 0
-239 344 -424 0
-168 239 267 0
292 297 375 0
-24 386 -407 0
-53 -138 -298 0
-32 -91 -337 0
1 89 97 0
-110 -128 421 0
-117 -311 -400 0
109 264 -425 0
165 -297 -335 0
-31 -175 322 0
96 280 428 0
126 -248 379 0
51 -111 145 0
-292 -333 -352 0
185 200 266 0
-8 244 282 0
82 -266 442 0
-359 -370 -406 0
49 81 -127 0
-154 -210 -292 0
50 -161 -350 0
-76 -406 413 0
35 -296 -300 0
40 165 415 0
135 337 380 0
-34 85 -450 0
10 -201 -414 0
180 200 -411 0
228 263 439 0
81 328 -343 0
23 -207 255 0
302 307 -319 0
83 338 -366 0
-75 -188 -265 0
-141 225 437 0
-115 178 269 0
-20 274 288 0
-127 271 -401 0
-87 -171 -204 0
-42 86 -380 0
-158 -283 -373 0
-73 -205 356 0
-41 -49 -72 0
83 -214 299 0
