p cnf 450 1917
-353 410 -434 0
164 -192 431 0
-281 -334 -417 0
-60 -172 269 0
34 -277 375 0
194 244 362 0
135 -304 -305 0
-37 -139 202 0
-167 -223 367 0
-87 185 -245 0
227 391 -426 0
-111 206 -254 0
44 116 -322 0
-20 -191 264 0
102 -207 236 0
-137 293 -384 0
13 17 355 0
36 -298 -317 0
-138 -182 407 0
121 -243 244 0
-85 163 385 0
-71 225 -378 0
-147 -352 407 0
126 -161 -222 0
36 139 189 0
-77 -243 -274 0
-180 215 -351 0
-137 246 -384 0
-48 232 251 0
6 7 -271 0
199 292 -297 0
-71 251 440 0
49 126 248 0
-6 -124 201 0
92 -255 375 0
31 96 -282 0
-48 -103 434 0
-62 97 337 0
-82 274 -324 0
100 -223 -256 0
-98 152 -311 0
291 304 -332 0
114 306 -426 0
11 -270 -421 0
-206 227 396 0
-188 -209 443 0
-31 -123 338 0
59 175 279 0
-171 -190 215 0
-111 -200 -380 0
237 281 -365 0
-187 286 337 0
24 75 -163 0
-50 -85 -201 0
24 33 207 0
-7 -124 157 0
57 -104 245 0
-153 167 276 0
18 89 -93 0
-101 298 434 0
75 88 -145 0
-7 308 372 0
4 106 382 0
41 295 -448 0
213 -220 -273 0
14 -163 426 0
-104 111 -187 0
1 -40 203 0
-115 313 -363 0
11 -20 262 0
-119 -194 -403 0
2 -199 -327 0
-231 -274 -385 0
64 325 419 0
-117 -179 230 0
-244 -342 -450 0
-24 112 172 0
-96 -285 443 0
49 436 449 0
65 -181 285 0
102 115 179 0
127 -249 438 0
114 -123 332 0
253 333 409 0
63 -251 -266 0
-161 -226 430 0
19 -67 395 0
-19 322 -418 0
61 -134 224 0
147 155 -211 0
64 147 -329 0
81 212 -432 0
199 227 -294 0
-46 -266 362 0
-57 151 -297 0
-71 173 -257 0
11 241 -345 0
-160 219 -317 0
109 223 -264 0
-163 -259 -429 0
54 161 247 0
-88 347 396 0
-208 -249 279 0
-31 -115 -248 0
56 -163 272 0
53 -149 240 0
82 -308 401 0
77 -274 290 0
-7 -417 -423 0
-6 -244 410 0
18 -282 -438 0
50 -219 -359 0
-146 221 -428 0
38 83 248 0
36 430 445 0
-236 -259 -349 0
62 208 -402 0
-228 -266 -379 0
56 137 441 0
161 212 -398 0
112 -207 -316 0
-50 -253 -274 0
-48 100 102 0
23 -195 363 0
268 -276 -445 0
-29 -219 325 0
77 81 413 0
143 -184 287 0
80 203 -375 0
-347 -358 441 0
-176 353 -431 0
214 -237 297 0
-36 -136 409 0
-39 155 262 0
-5 153 284 0
113 -120 399 0
204 216 378 0
90 -131 -203 0
112 -207 -331 0
-261 321 382 0
61 149 372 0
155 267 -355 0
5 114 257 0
143 169 -197 0
-80 392 442 0
-295 305 -336 0
24 -259 420 0
-147 382 450 0
97 -159 -221 0
-23 346 -444 0
47 250 282 0
44 -59 90 0
136 -161 -262 0
114 -382 -402 0
107 268 371 0
-29 181 302 0
103 -120 266 0
-60 -105 264 0
-73 -404 418 0
-81 -132 -139 0
168 -170 -243 0
-71 139 -235 0
95 122 -340 0
-6 -254 307 0
-10 -103 -339 0
131 136 397 0
-56 -97 103 0
38 -155 448 0
-21 -146 -323 0
-179 -181 342 0
-97 -325 -437 0
-156 -258 -294 0
129 -243 434 0
-135 398 -403 0
-19 85 -303 0
3 149 288 0
70 -332 361 0
18 -26 -216 0
-78 342 -374 0
-113 209 417 0
-308 374 445 0
-76 170 284 0
-50 180 -217 0
-76 257 -444 0
29 -53 437 0
16 -131 414 0
-29 246 -249 0
108 296 -449 0
191 338 343 0
8 -47 107 0
44 272 394 0
99 124 -436 0
-115 157 304 0
182 -327 -399 0
30 172 -192 0
-195 -235 274 0
199 208 449 0
-210 283 386 0
-231 284 -328 0
-142 202 -359 0
-345 373 387 0
-21 80 214 0
173 -174 -399 0
-247 -265 -335 0
77 148 405 0
-93 368 390 0
-188 -331 445 0
174 245 -345 0
-204 245 -433 0
-89 -161 417 0
26 -299 300 0
-270 -372 -438 0
194 217 266 0
190 227 -364 0
-91 216 232 0
335 -409 436 0
-150 -216 224 0
-75 -181 253 0
96 355 -365 0
316 328 404 0
29 67 216 0
6 102 -285 0
80 151 450 0
7 -382 -433 0
-9 -12 245 0
-186 -188 258 0
91 -275 332 0
92 -167 -188 0
-57 143 -421 0
281 -293 -335 0
138 143 321 0
8 -342 391 0
-4 -302 -411 0
-132 229 -264 0
95 -132 229 0
37 128 -320 0
181 -346 377 0
-148 183 287 0
-103 -270 -428 0
-20 -165 398 0
-30 175 361 0
13 -310 -374 0
150 198 -333 0
112 168 351 0
57 236 -275 0
-104 -238 249 0
72 -281 -373 0
-256 311 438 0
-52 165 208 0
35 -76 78 0
-96 -136 344 0
111 237 323 0
-123 375 401 0
-28 175 198 0
119 -151 -315 0
-80 -240 352 0
-172 204 -278 0
-10 80 -120 0
5 -75 -101 0
-180 314 -441 0
158 -311 -427 0
-105 210 -389 0
-29 104 126 0
-7 99 259 0
-8 39 227 0
-106 263 -353 0
52 243 -251 0
85 188 246 0
-109 -333 385 0
-326 368 -381 0
-147 310 -410 0
-60 282 -426 0
74 -202 276 0
-139 368 437 0
-90 402 -429 0
-284 304 340 0
227 -303 -384 0
-51 -240 246 0
-176 351 -395 0
-125 199 306 0
126 290 336 0
101 -128 -395 0
-306 -388 445 0
-117 -298 325 0
172 -199 332 0
152 -186 -279 0
-9 -72 243 0
-44 -180 -305 0
175 -262 417 0
-259 352 442 0
-27 293 346 0
113 -397 413 0
132 293 -341 0
208 -217 -446 0
-2 -137 -385 0
133 -360 396 0
90 102 -135 0
289 374 -448 0
-293 333 349 0
-37 44 -110 0
-269 330 -345 0
-32 -265 433 0
11 -272 -422 0
-50 -316 398 0
178 217 -356 0
-135 -351 430 0
-181 295 -420 0
-47 -356 -414 0
288 341 347 0
-37 203 -226 0
-206 243 -349 0
72 97 266 0
-93 362 -380 0
44 -213 409 0
-93 -134 347 0
195 -199 -226 0
-275 344 437 0
-35 157 403 0
339 415 -423 0
-7 71 -345 0
-76 -243 -379 0
220 -342 402 0
62 -184 205 0
-67 -160 281 0
3 127 415 0
65 -108 -329 0
34 -145 408 0
-17 -162 -167 0
-98 -262 380 0
-199 -248 255 0
48 273 -391 0
-96 -258 342 0
-107 -276 -394 0
270 -285 -374 0
-105 211 -414 0
-42 -253 267 0
159 -350 406 0
22 314 -414 0
71 95 -104 0
107 295 -352 0
-223 -345 -396 0
-66 -107 213 0
-228 -303 402 0
13 62 130 0
102 -112 125 0
-203 245 296 0
-68 -72 -413 0
-70 209 -251 0
221 222 -375 0
-29 157 322 0
7 -20 -317 0
-13 -203 416 0
230 236 434 0
-3 116 -253 0
34 144 -222 0
299 340 400 0
162 -252 -432 0
273 422 -434 0
192 -255 263 0
-88 161 255 0
252 296 314 0
-130 -154 271 0
119 -121 -433 0
-145 -197 -204 0
104 379 428 0
-146 -340 -386 0
-17 358 386 0
-81 320 -443 0
-57 -231 -310 0
13 312 -348 0
216 232 318 0
228 353 383 0
35 -146 233 0
-35 179 249 0
164 -250 -401 0
140 -156 288 0
150 249 -322 0
87 143 320 0
-298 -309 355 0
-71 135 332 0
-193 293 -350 0
-211 339 417 0
-102 -145 378 0
-85 299 -344 0
-361 -415 432 0
209 342 432 0
175 276 315 0
-215 273 354 0
244 320 418 0
100 168 446 0
50 -258 -356 0
55 150 -352 0
-168 299 316 0
-72 194 -232 0
-99 -140 271 0
-8 -57 338 0
105 -160 322 0
-296 -325 391 0
-395 396 -429 0
-80 -208 -450 0
150 351 -404 0
-132 218 300 0
274 -419 -437 0
262 332 -360 0
-176 236 309 0
122 -252 -417 0
258 357 -432 0
4 22 399 0
118 -271 279 0
-197 -237 -346 0
166 169 -198 0
-112 -130 -255 0
-62 236 249 0
317 356 -375 0
151 -232 343 0
15 -65 279 0
-25 -312 -389 0
69 -164 -392 0
-101 -237 -302 0
10 50 438 0
13 -137 -303 0
-32 -163 265 0
57 166 -174 0
-59 353 -443 0
-116 -256 366 0
102 -300 437 0
-103 -172 382 0
16 -25 -350 0
-22 -172 301 0
199 -293 405 0
-1 250 -290 0
184 194 340 0
-15 -19 372 0
20 -78 96 0
202 208 226 0
-139 -356 377 0
-6 132 -390 0
-352 -359 367 0
-55 -434 450 0
128 346 383 0
86 127 287 0
-106 -137 221 0
138 210 216 0
-40 -58 102 0
-235 307 447 0
-237 320 339 0
115 236 247 0
70 363 392 0
-287 295 337 0
-69 -198 391 0
-139 -180 -411 0
174 -266 -278 0
-100 -319 430 0
51 149 -165 0
26 -103 228 0
179 206 391 0
16 -354 398 0
-170 179 -263 0
45 272 328 0
-270 380 428 0
-206 -311 -437 0
-112 -123 276 0
-27 80 -200 0
-37 -207 280 0
81 -193 -300 0
160 193 -418 0
101 148 -207 0
-62 -225 338 0
-37 -157 370 0
77 303 -362 0
-164 340 382 0
-26 108 252 0
-98 -315 -392 0
122 401 424 0
-196 197 398 0
-120 390 -437 0
-268 -313 446 0
64 147 -215 0
190 198 -231 0
280 356 -378 0
103 -279 401 0
-64 -263 -379 0
123 135 -430 0
210 -252 -325 0
283 -390 -444 0
-64 233 -425 0
-68 314 441 0
-19 -109 390 0
-16 -222 -352 0
60 -123 200 0
-141 208 -359 0
-19 -160 -385 0
-74 -299 -383 0
28 256 -424 0
-108 118 -412 0
245 -310 -315 0
18 -77 -145 0
-70 130 262 0
-99 165 -264 0
312 355 -371 0
-29 219 -412 0
-46 423 -442 0
251 309 436 0
24 352 -395 0
143 238 360 0
-274 323 435 0
-222 247 423 0
76 -196 229 0
101 290 -440 0
50 -111 420 0
25 -108 358 0
86 -306 -350 0
56 303 320 0
-26 -112 369 0
20 156 372 0
230 237 -431 0
-89 -316 -446 0
66 -100 222 0
80 -352 -391 0
-48 -254 -335 0
-48 -260 284 0
-161 205 -415 0
-60 -114 -253 0
-9 133 -217 0
-393 -398 -429 0
13 170 219 0
-266 284 430 0
-31 -234 -308 0
-167 405 434 0
-222 -382 398 0
-170 187 -386 0
223 -300 -420 0
111 -116 343 0
105 -277 422 0
117 -171 247 0
-143 226 322 0
135 -266 359 0
189 -218 276 0
287 -322 -394 0
235 -307 360 0
-84 -238 443 0
-163 -230 411 0
189 -254 -292 0
20 -23 37 0
241 306 -327 0
128 192 -303 0
201 298 372 0
-92 -360 -390 0
-68 -202 -436 0
-22 -127 -390 0
-58 -214 -303 0
-22 77 -122 0
-47 342 -344 0
313 -337 -446 0
250 375 -402 0
-109 134 310 0
-89 -179 -357 0
-126 -184 448 0
25 251 -306 0
115 128 -358 0
72 -135 -175 0
103 172 -343 0
189 -260 275 0
82 -300 425 0
9 29 -333 0
162 384 -440 0
-91 -212 450 0
282 -328 344 0
95 134 -219 0
131 -303 -400 0
317 -320 -369 0
267 302 422 0
-36 -371 -407 0
-13 -332 -440 0
65 -278 402 0
-29 252 297 0
262 356 364 0
41 -134 424 0
73 -321 437 0
103 -245 446 0
87 -120 -281 0
65 195 283 0
-32 -130 -203 0
316 -339 353 0
201 -313 407 0
-75 -98 199 0
-104 350 401 0
106 -283 309 0
-98 180 -202 0
379 -399 -424 0
71 217 273 0
296 330 -352 0
183 -217 -234 0
-1 91 -390 0
-50 229 236 0
50 184 -214 0
10 42 -348 0
-62 -429 -440 0
24 258 -263 0
-267 -331 -403 0
-136 243 314 0
-57 -152 244 0
-176 -309 -380 0
-135 239 337 0
-244 -316 362 0
58 344 390 0
15 -124 221 0
-142 184 405 0
-240 253 -400 0
248 -255 430 0
74 266 -402 0
-42 -278 -375 0
95 128 155 0
171 187 -244 0
92 241 310 0
-25 187 -266 0
-45 131 -355 0
88 -145 -388 0
66 -183 318 0
42 -137 153 0
-92 208 -242 0
-133 -205 393 0
-111 -381 424 0
191 322 427 0
-257 261 -266 0
113 -263 -312 0
120 -194 -369 0
-66 244 444 0
-197 399 -440 0
100 199 -388 0
4 -268 270 0
170 268 438 0
41 -139 240 0
32 -402 -415 0
75 185 438 0
-85 226 259 0
-157 -237 403 0
-80 214 -303 0
-27 244 -287 0
143 -159 -175 0
-27 -178 -356 0
59 -265 391 0
45 67 -287 0
184 212 340 0
276 -332 -439 0
-156 267 420 0
-88 -106 177 0
-215 -291 411 0
257 -290 -364 0
394 424 -445 0
106 209 -321 0
-10 32 363 0
193 -319 409 0
-72 -89 106 0
71 -107 362 0
207 240 449 0
23 -257 332 0
38 -135 -233 0
107 -109 -228 0
6 -180 313 0
87 -146 -208 0
189 -199 -437 0
231 429 439 0
31 -311 -327 0
-221 402 -433 0
330 -374 -429 0
13 353 -359 0
115 382 386 0
61 -66 441 0
46 105 -297 0
-228 362 418 0
-132 -265 -299 0
134 150 449 0
-245 -251 -271 0
24 207 -279 0
224 363 -401 0
100 -315 -399 0
-205 350 380 0
-351 -405 435 0
-144 -223 415 0
-75 -234 -397 0
3 -14 -39 0
324 -387 417 0
187 -328 425 0
46 192 295 0
155 -275 400 0
32 146 -321 0
161 285 409 0
203 -329 -393 0
10 25 206 0
66 -345 368 0
-15 20 353 0
-26 323 -338 0
-296 -377 -390 0
-85 210 245 0
197 -314 437 0
-80 -176 338 0
70 -352 -430 0
-15 -120 352 0
186 312 339 0
69 -210 -255 0
30 320 322 0
39 357 -383 0
-249 321 430 0
155 179 -405 0
19 -37 -76 0
-16 -128 358 0
-214 -293 294 0
-26 -174 366 0
-76 277 286 0
129 -134 393 0
15 262 -278 0
78 -92 -423 0
-62 -115 131 0
152 -377 -425 0
46 143 -184 0
-172 196 233 0
148 351 355 0
86 -116 384 0
-246 -296 -345 0
-48 53 92 0
-64 -322 -341 0
56 -243 408 0
-232 -309 420 0
-278 -285 -310 0
-58 -121 213 0
156 316 -340 0
84 -98 383 0
101 -162 206 0
177 -365 -374 0
48 324 -446 0
14 161 -401 0
63 145 -378 0
48 -206 406 0
77 -239 -424 0
-178 197 -363 0
-36 -76 307 0
30 80 -295 0
238 301 -442 0
257 343 352 0
-88 -321 -348 0
61 170 -194 0
58 -322 -368 0
-123 167 -435 0
-156 167 370 0
-35 45 -317 0
-17 -21 -236 0
212 227 -402 0
10 73 281 0
-79 117 -301 0
325 -330 -409 0
-134 -157 -240 0
-5 -7 -367 0
198 -305 406 0
-4 -279 318 0
154 -360 391 0
-9 -306 -427 0
39 -102 -402 0
34 -250 263 0
-153 -303 -418 0
-47 -380 -439 0
-33 -253 423 0
-194 -256 297 0
-62 370 381 0
-335 -354 -412 0
78 -231 -237 0
183 -309 373 0
18 287 -332 0
-39 167 -184 0
50 173 -415 0
-70 -110 -354 0
-66 -275 368 0
-86 -223 374 0
79 336 407 0
-175 -334 430 0
-106 -177 325 0
116 200 423 0
-69 -215 -323 0
71 89 -140 0
252 280 369 0
197 -240 264 0
-130 181 219 0
-102 391 -437 0
-115 -124 276 0
54 188 -205 0
-174 -292 376 0
-7 -37 42 0
-167 -249 315 0
96 267 372 0
-84 -114 425 0
-210 -383 404 0
-90 -306 316 0
152 -303 325 0
-27 -311 -355 0
-184 305 419 0
-15 32 -230 0
-115 -227 -413 0
-32 186 -188 0
-6 -56 -285 0
43 77 102 0
-89 -387 -404 0
-63 140 -395 0
33 339 -404 0
128 -192 401 0
-85 -213 402 0
22 136 310 0
-105 109 439 0
-21 -103 -302 0
27 198 -436 0
95 -195 233 0
215 417 -421 0
11 102 181 0
-133 194 387 0
-46 -103 -112 0
-9 -89 -322 0
-68 113 408 0
5 -62 -407 0
145 -288 303 0
263 374 376 0
85 121 326 0
63 93 427 0
-90 91 -220 0
-113 344 -428 0
-157 -309 330 0
-3 65 128 0
172 266 -320 0
-60 209 334 0
-68 -120 343 0
-19 85 -372 0
-5 -175 -442 0
-126 168 -363 0
-93 -183 -184 0
-129 -242 446 0
-158 272 443 0
-63 -179 -302 0
-208 220 246 0
-1 75 108 0
2 97 -353 0
134 -161 412 0
73 383 422 0
-21 304 -354 0
300 -304 422 0
-63 -247 319 0
-65 365 427 0
256 -326 -361 0
116 -344 -445 0
23 79 82 0
3 52 263 0
186 -193 -203 0
32 -82 -445 0
346 383 -389 0
7 65 -199 0
-1 196 -239 0
-87 -103 279 0
-206 237 399 0
-158 169 -264 0
-311 -343 -357 0
-340 347 394 0
97 -200 248 0
-148 282 -360 0
-17 66 -88 0
-102 127 325 0
-308 -351 421 0
199 -233 422 0
39 -345 -406 0
-12 -112 277 0
67 -110 -351 0
-145 -402 448 0
10 -89 -442 0
-146 166 224 0
-46 -117 219 0
-44 -397 413 0
119 224 420 0
-161 -407 -438 0
157 -171 414 0
-216 233 -263 0
-147 -167 275 0
-177 303 -305 0
-8 -146 -318 0
-2 -383 450 0
-192 226 350 0
-128 -183 444 0
43 -46 165 0
307 315 -353 0
117 -143 -222 0
48 -327 411 0
-78 147 392 0
203 316 355 0
-179 396 -417 0
6 -110 -330 0
-67 184 -209 0
-129 169 171 0
-24 287 -347 0
-11 152 397 0
-255 262 389 0
308 359 396 0
49 -150 240 0
-208 250 359 0
37 -65 -67 0
-3 237 -310 0
-48 -239 432 0
-141 -301 436 0
-137 -283 -369 0
157 225 -237 0
-266 -342 -361 0
-244 -355 -359 0
153 204 -316 0
50 -331 370 0
-28 -128 133 0
-12 46 -329 0
-38 -322 355 0
-135 -209 224 0
-35 -289 -377 0
-82 -341 -374 0
140 -354 -368 0
147 -183 380 0
-79 -119 261 0
170 -406 427 0
176 -221 -350 0
-16 -81 149 0
62 -280 419 0
-25 70 -230 0
238 376 396 0
19 -153 317 0
-9 317 -439 0
101 259 -434 0
-226 -318 321 0
88 -175 306 0
58 -174 359 0
-17 161 449 0
96 -145 -391 0
-64 86 391 0
-67 146 -216 0
-219 242 336 0
7 -129 366 0
-72 285 -301 0
127 158 -284 0
-381 417 -436 0
-151 201 -290 0
-1 176 446 0
223 295 398 0
-162 235 270 0
79 302 -416 0
124 -259 395 0
-34 221 -230 0
-29 86 -299 0
-36 -212 -312 0
245 283 -404 0
21 245 -351 0
-20 -205 -401 0
148 -322 -420 0
-240 -398 428 0
-159 324 416 0
30 55 243 0
181 -309 345 0
355 375 -406 0
37 434 438 0
-39 -73 -200 0
136 292 390 0
15 101 358 0
127 317 332 0
251 279 285 0
370 389 -392 0
-245 375 400 0
-151 -178 236 0
-148 -365 -412 0
65 360 -450 0
-188 -215 -391 0
192 227 399 0
63 206 -346 0
-2 -250 295 0
-302 320 -327 0
61 -144 328 0
-217 -291 -436 0
49 133 -378 0
41 -207 -420 0
-71 -320 445 0
26 -100 158 0
-158 -180 370 0
54 -90 -379 0
22 111 205 0
28 129 212 0
-68 80 -237 0
166 363 -450 0
286 -290 324 0
-164 -297 301 0
53 70 -387 0
223 -226 -297 0
-305 333 -394 0
236 290 408 0
79 -103 215 0
-41 84 -191 0
-30 -32 287 0
-124 -262 339 0
64 158 -438 0
40 58 286 0
-42 -91 -388 0
238 243 378 0
-179 -319 372 0
17 -33 -145 0
-65 -356 -413 0
5 172 -441 0
-251 360 385 0
-12 239 -410 0
182 199 -343 0
-275 -344 -425 0
32 -277 432 0
61 305 326 0
265 408 -447 0
147 -176 403 0
41 189 -365 0
-193 -326 -363 0
-141 261 -389 0
30 288 353 0
-47 212 392 0
-84 -101 -185 0
308 404 -433 0
136 -325 445 0
53 -248 -286 0
-63 -87 -314 0
181 188 -223 0
34 327 -433 0
53 -147 292 0
168 328 352 0
-43 -96 -118 0
-64 -253 406 0
118 -126 135 0
-153 -311 448 0
184 231 439 0
-205 388 -438 0
153 -191 430 0
-44 -227 -284 0
-98 102 236 0
-64 262 -315 0
-315 -370 -390 0
151 330 -382 0
-153 -395 431 0
-161 -222 312 0
-95 157 389 0
-34 109 -133 0
-51 -61 300 0
-302 381 404 0
-43 -184 313 0
39 132 308 0
3 87 407 0
-314 370 430 0
-96 164 -297 0
238 375 -392 0
231 -250 289 0
-245 306 317 0
-219 279 388 0
295 -304 -369 0
2 -6 -423 0
43 -151 192 0
-107 -247 -430 0
179 324 411 0
278 -328 -383 0
176 341 -403 0
-173 279 328 0
-46 -176 -229 0
-164 177 354 0
-118 -230 -415 0
83 -90 135 0
57 61 83 0
-185 405 446 0
85 -155 308 0
-244 -346 356 0
156 -369 391 0
33 -278 -294 0
-157 162 -375 0
65 -217 407 0
178 -379 -388 0
-108 346 -407 0
237 276 -398 0
4 -243 255 0
-106 -318 -345 0
-23 260 272 0
-224 -238 -309 0
-1 105 -249 0
-264 322 393 0
-41 -371 -400 0
150 299 -381 0
59 -307 -409 0
-130 -153 -227 0
-217 -273 305 0
-56 -348 441 0
143 173 -435 0
-92 -184 240 0
176 -207 247 0
91 306 -415 0
101 232 375 0
-203 -261 -367 0
109 425 443 0
-211 224 -243 0
-305 335 -445 0
3 211 435 0
236 -311 -423 0
-29 -40 -434 0
-105 -270 -407 0
33 -100 354 0
-76 -156 410 0
87 -167 -327 0
-104 278 -376 0
5 -102 -304 0
101 -170 -268 0
-138 -143 375 0
143 158 -415 0
-282 376 -419 0
-113 -372 415 0
13 209 -284 0
-139 -346 418 0
-104 -384 -437 0
237 -247 -265 0
-122 -131 289 0
-115 -219 253 0
-144 253 -396 0
72 -249 -268 0
-222 -312 428 0
112 183 -387 0
61 -348 -426 0
50 -126 -444 0
-51 167 354 0
-14 -440 -446 0
49 -72 -180 0
-22 -136 348 0
-35 188 191 0
-177 333 -447 0
126 144 251 0
95 -323 -390 0
-69 -206 297 0
156 -202 -347 0
-237 -240 448 0
36 -243 333 0
163 180 234 0
-87 -147 300 0
44 -239 261 0
-331 -342 360 0
97 -212 269 0
-235 285 -401 0
322 346 -369 0
-73 222 -263 0
136 -216 399 0
-33 72 143 0
308 413 431 0
-228 -303 344 0
-195 -221 -309 0
-41 -140 -427 0
-215 298 326 0
-61 290 293 0
92 -108 168 0
-38 -67 131 0
202 -222 246 0
-57 232 -257 0
262 283 -344 0
-113 199 -213 0
-118 -360 -438 0
-333 335 419 0
-298 306 -437 0
93 263 -437 0
162 328 423 0
-31 48 -265 0
-20 111 -388 0
2 171 -434 0
-50 57 278 0
-260 -295 -302 0
9 126 272 0
-209 390 436 0
-31 51 314 0
-24 188 -390 0
-22 -93 -184 0
178 258 365 0
-81 -206 -295 0
165 428 -431 0
265 -337 352 0
170 398 -401 0
-7 43 334 0
-3 -342 -443 0
176 -221 334 0
-2 -232 367 0
-60 -175 -427 0
-1 -265 314 0
-188 240 445 0
10 373 419 0
-117 -320 -415 0
-140 179 -335 0
169 -189 389 0
1 164 324 0
-48 61 169 0
8 -299 419 0
189 -229 -403 0
52 -165 -301 0
-56 277 -326 0
-36 39 -218 0
65 194 -337 0
258 -320 -444 0
74 279 440 0
236 -265 -314 0
21 88 -101 0
-114 232 401 0
139 -222 450 0
-110 129 -136 0
107 -299 -319 0
10 -44 -312 0
-133 -323 -423 0
-148 -313 -327 0
17 -44 -308 0
34 77 -277 0
-4 -52 -348 0
-14 154 -299 0
118 139 -211 0
-122 160 -177 0
-219 -228 -434 0
-53 246 -333 0
46 -286 328 0
74 148 412 0
19 425 -426 0
190 204 364 0
17 84 197 0
135 -209 -321 0
-88 -318 437 0
60 -92 308 0
16 -227 -383 0
126 210 234 0
57 -59 190 0
-15 227 363 0
-110 -317 367 0
-145 279 405 0
-211 -355 -411 0
16 -155 343 0
-132 197 396 0
-152 -362 -389 0
24 174 -321 0
137 -150 390 0
240 294 432 0
85 128 -247 0
108 -287 381 0
-104 -243 -259 0
42 -93 128 0
-8 -9 -82 0
-98 201 348 0
-19 -255 347 0
136 211 428 0
194 284 342 0
54 -98 -320 0
21 -45 -303 0
17 -161 267 0
11 -38 -157 0
-223 325 429 0
11 -87 386 0
28 152 263 0
20 137 445 0
-105 133 149 0
29 145 -315 0
249 -275 -421 0
-116 -292 405 0
111 180 -305 0
9 -128 -232 0
103 -411 -416 0
166 -248 -291 0
13 -48 120 0
147 -168 -367 0
146 -165 -387 0
-38 60 -358 0
-56 -87 350 0
-60 62 -168 0
163 -253 314 0
-61 400 435 0
40 128 290 0
152 200 398 0
88 224 430 0
-88 148 436 0
26 -65 -314 0
43 193 354 0
18 -315 356 0
-280 -297 315 0
-30 -146 -308 0
-70 -101 186 0
-262 -333 415 0
-116 274 444 0
-50 287 -289 0
-65 170 -341 0
-73 -154 442 0
-24 -264 -283 0
72 259 -322 0
-90 190 319 0
-97 100 -165 0
306 331 441 0
-31 313 -334 0
62 84 -188 0
-101 170 192 0
-73 286 -326 0
-88 378 -441 0
43 53 285 0
-290 297 331 0
13 399 449 0
2 60 238 0
172 -247 -259 0
180 228 -381 0
-20 22 265 0
-32 83 206 0
-5 64 313 0
42 179 -282 0
110 146 -207 0
287 -353 401 0
33 -62 439 0
172 -223 -295 0
303 311 324 0
-200 203 319 0
-47 -320 442 0
-49 -279 -428 0
-66 -172 288 0
-9 -175 346 0
174 -262 -341 0
130 -295 -324 0
78 90 -426 0
-379 431 437 0
87 124 231 0
347 -385 433 0
-62 -87 -354 0
251 -326 -439 0
-67 -82 -224 0
38 -147 -433 0
78 -197 214 0
237 330 391 0
81 203 422 0
-161 -295 302 0
-59 -166 -213 0
-59 -139 -187 0
81 212 292 0
-68 -85 -106 0
-157 279 -428 0
103 134 193 0
235 257 -356 0
-80 -233 336 0
-37 55 -331 0
364 400 435 0
-53 153 -301 0
-7 -169 353 0
143 -287 -348 0
36 247 310 0
-277 -368 -381 0
-167 187 -206 0
-41 197 275 0
-13 -281 -387 0
-131 242 301 0
-54 -158 -410 0
-10 13 -90 0
213 -304 332 0
-26 120 -256 0
-32 -47 -103 0
-12 325 390 0
-77 241 363 0
-21 -196 443 0
131 170 299 0
296 -332 367 0
43 -63 -97 0
82 -134 -166 0
122 -229 355 0
71 182 285 0
123 -164 -253 0
-91 -124 -348 0
129 -281 -342 0
94 -150 -232 0
-123 -188 199 0
-74 -159 -240 0
155 -403 -423 0
-9 364 372 0
199 357 -398 0
106 -223 326 0
-288 -322 400 0
221 -240 -388 0
32 -56 -176 0
-212 382 398 0
-143 -357 401 0
167 -339 426 0
53 137 194 0
-97 114 -161 0
13 68 404 0
-320 418 -420 0
-130 -166 173 0
-59 -73 280 0
218 -281 -335 0
-101 -231 -293 0
-140 -408 -432 0
-49 -130 -435 0
23 -26 -285 0
139 -204 313 0
141 287 -414 0
14 -302 -444 0
-9 241 367 0
-71 -112 -204 0
56 -118 215 0
-148 -262 -335 0
72 130 -332 0
-82 102 -155 0
-38 -66 289 0
163 -248 -439 0
75 -379 -401 0
-6 89 -221 0
97 229 -317 0
62 243 246 0
-7 45 -147 0
-23 131 393 0
-12 -172 -232 0
-34 -70 338 0
-180 286 395 0
187 316 405 0
-20 178 -266 0
-177 -257 293 0
-44 214 220 0
264 291 -330 0
-158 -212 239 0
177 393 -446 0
11 13 -150 0
-13 199 -214 0
2 64 351 0
189 241 -382 0
-42 -189 329 0
328 340 367 0
1 -121 -195 0
-159 169 172 0
-154 421 -450 0
-105 -174 -414 0
19 -376 415 0
14 -49 104 0
173 -192 -301 0
152 -297 -358 0
-95 103 -307 0
-107 -175 -421 0
95 122 -205 0
-75 -310 -409 0
-103 253 409 0
15 197 -428 0
-140 389 449 0
-152 -245 317 0
-138 -384 411 0
-51 -181 -251 0
-50 237 -372 0
-159 225 -298 0
73 -178 291 0
-134 -370 -428 0
77 95 -121 0
184 198 259 0
-52 -142 251 0
-23 -321 358 0
31 43 236 0
51 85 -147 0
97 -103 149 0
-232 273 -442 0
160 330 -443 0
150 -289 349 0
-11 -320 440 0
147 -156 221 0
-77 258 355 0
279 -287 -333 0
-35 -69 -414 0
-224 351 378 0
226 293 -389 0
-119 182 368 0
61 -77 162 0
114 -192 -423 0
-12 -15 -58 0
-137 212 402 0
84 -196 -266 0
-7 115 -424 0
-2 -258 -307 0
22 157 175 0
214 231 443 0
324 332 -435 0
52 -58 200 0
-363 -381 449 0
-69 -296 -308 0
-79 131 376 0
-172 225 -342 0
-36 133 -436 0
90 -154 -432 0
-103 110 -377 0
-51 -192 -298 0
-233 349 -443 0
252 -286 333 0
26 117 -429 0
5 -164 211 0
-98 132 302 0
174 -181 373 0
154 168 -344 0
-313 314 -420 0
-217 -313 -408 0
-87 90 -210 0
-97 321 -422 0
-54 195 -413 0
26 69 -247 0
-107 231 316 0
-78 -106 -305 0
65 -159 -311 0
-359 -395 -444 0
-46 -88 134 0
16 130 438 0
129 322 370 0
-10 -302 390 0
1 230 367 0
-22 -229 -236 0
-164 -190 264 0
97 402 -439 0
-49 -403 443 0
33 -95 -288 0
-111 119 -365 0
239 -260 -407 0
-56 355 -363 0
-9 267 -392 0
-344 -387 -433 0
-7 306 -368 0
234 -257 -327 0
-141 -277 -354 0
-64 -211 412 0
52 -254 315 0
-33 -278 312 0
22 -250 391 0
259 -326 -367 0
-7 12 -232 0
-131 144 -372 0
63 88 360 0
137 -237 -250 0
-34 65 -297 0
-222 346 446 0
135 -222 -284 0
-189 329 392 0
62 -368 435 0
-96 209 -320 0
232 436 439 0
219 307 -405 0
4 -79 -87 0
84 165 289 0
-252 -372 409 0
182 -356 422 0
66 -124 -142 0
-55 -288 -306 0
149 213 -432 0
-228 336 -415 0
143 240 -415 0
46 99 -310 0
81 173 193 0
215 -357 427 0
-124 -145 218 0
82 107 273 0
11 -68 -204 0
-14 113 -308 0
25 -351 -447 0
180 -319 332 0
-37 52 287 0
226 393 430 0
-155 239 420 0
-4 105 -305 0
-211 -219 292 0
-81 -123 -138 0
-14 -33 63 0
292 -324 420 0
147 253 -301 0
-38 -402 -436 0
31 163 -358 0
11 -202 446 0
36 303 369 0
4 108 -375 0
108 -314 323 0
132 -299 -408 0
121 -375 376 0
72 306 436 0
45 147 -288 0
-14 -135 -290 0
214 249 -373 0
-177 -360 415 0
-50 118 297 0
-26 -52 -109 0
-240 386 392 0
-164 223 249 0
189 -229 346 0
172 223 431 0
100 -115 446 0
77 307 -395 0
8 74 405 0
84 164 254 0
-104 -398 -420 0
6 -152 251 0
-36 53 119 0
-124 -431 434 0
-6 -203 -421 0
-137 181 -310 0
-142 -206 277 0
154 -279 394 0
24 -279 302 0
31 293 -398 0
-153 -163 408 0
-81 -152 450 0
197 -240 -344 0
-94 231 398 0
17 65 -374 0
82 -134 -358 0
-226 233 -426 0
217 -228 252 0
6 157 -285 0
26 163 -207 0
194 253 -330 0
102 285 -350 0
16 -272 -342 0
10 -31 63 0
-40 -113 -178 0
103 243 -353 0
-16 -57 61 0
108 214 397 0
12 20 176 0
-19 167 391 0
10 -103 191 0
-79 -204 367 0
25 -205 391 0
-30 -350 394 0
94 199 231 0
159 -263 288 0
-17 323 367 0
135 257 -290 0
-94 -160 319 0
-83 -89 133 0
71 138 -340 0
32 -103 191 0
-17 -182 -183 0
-179 -329 -357 0
-181 -343 -450 0
-87 -105 -371 0
137 -163 -165 0
-40 48 -360 0
-31 -194 229 0
11 271 311 0
-28 46 90 0
5 -201 435 0
12 36 426 0
-247 314 376 0
233 249 407 0
-23 -99 386 0
15 -82 355 0
43 -113 210 0
90 285 444 0
88 154 -201 0
140 -212 421 0
-46 -122 308 0
-71 -75 419 0
156 -285 374 0
236 -349 415 0
40 -55 144 0
-7 -283 -402 0
165 274 292 0
-140 -340 394 0
-10 -56 245 0
125 142 164 0
-159 -184 -351 0
-98 -270 -309 0
42 -116 -432 0
30 185 340 0
190 389 -411 0
-38 -127 225 0
-4 253 -398 0
196 -273 365 0
-36 88 350 0
130 250 -325 0
-36 -126 175 0
42 207 271 0
2 -182 -215 0
112 -179 441 0
75 -103 -159 0
-326 340 -406 0
-17 154 -248 0
-104 -231 -316 0
-249 -392 -421 0
-104 205 262 0
-17 -43 340 0
22 332 -378 0
-95 -106 369 0
22 -224 349 0
-107 -139 189 0
59 386 388 0
32 237 298 0
-70 -102 397 0
-118 -196 -224 0
234 257 410 0
-201 264 -369 0
-38 -63 329 0
163 -194 438 0
-132 -153 -343 0
-55 -83 -145 0
-355 385 -429 0
88 93 -102 0
33 58 368 0
-174 -205 -298 0
-47 279 345 0
81 167 402 0
38 -111 224 0
-18 219 -335 0
-53 96 232 0
-57 213 -448 0
-39 415 444 0
-24 -80 208 0
163 -293 396 0
134 -145 -409 0
-169 -225 305 0
183 -379 426 0
-151 -178 -339 0
188 259 -414 0
-134 137 171 0
-30 109 -188 0
163 240 435 0
19 -53 -164 0
-177 248 -406 0
-153 -206 445 0
-211 271 -442 0
14 158 425 0
-253 -300 -379 0
112 -169 -434 0
17 -125 -422 0
4 15 85 0
18 -149 -442 0
86 88 317 0
91 -157 -240 0
-8 -284 -307 0
26 351 -396 0
-82 144 -254 0
-160 183 -322 0
13 168 414 0
-310 355 367 0
250 299 -409 0
219 240 -400 0
-104 -433 441 0
-100 -243 306 0
-74 -356 410 0
119 199 -238 0
-142 198 -394 0
-47 -56 -319 0
130 280 -344 0
18 147 226 0
-139 152 -281 0
84 -107 272 0
61 -99 -425 0
61 -229 -313 0
58 135 163 0
187 198 -206 0
248 313 -335 0
-335 -360 399 0
-160 268 393 0
-36 -318 353 0
184 218 -289 0
-235 -249 -302 0
174 363 431 0
-67 -105 -406 0
7 -108 406 0
-110 228 -438 0
72 -166 298 0
142 210 219 0
71 101 151 0
-311 -314 -388 0
47 -263 -299 0
-56 -65 -394 0
34 -72 -410 0
95 292 318 0
205 213 -406 0
117 -159 -352 0
124 223 407 0
119 323 334 0
143 -178 -287 0
93 153 158 0
48 250 -379 0
-34 282 -355 0
95 292 430 0
17 -62 168 0
-292 305 -442 0
218 -280 407 0
-24 329 409 0
-89 -310 434 0
-77 91 -443 0
-229 -242 -412 0
44 -250 391 0
-182 383 -403 0
-129 -167 -207 0
-222 -265 417 0
71 -123 -439 0
-18 -139 391 0
148 159 187 0
126 -148 -379 0
59 -285 435 0
-85 361 -372 0
94 -122 -301 0
198 283 373 0
148 430 -432 0
131 200 -299 0
6 -187 227 0
-56 -105 -277 0
14 -86 333 0
-126 -361 387 0
99 -390 407 0
167 -384 -426 0
178 341 -398 0
-94 145 413 0
66 -146 -172 0
-125 343 -349 0
288 -305 -379 0
-7 151 152 0
-182 392 439 0
184 237 423 0
-63 120 193 0
44 -79 130 0
-58 -59 -106 0
-176 -204 415 0
2 445 448 0
170 174 373 0
126 -291 -299 0
-61 131 254 0
66 -132 -227 0
-58 -125 -201 0
74 156 217 0
-118 -223 428 0
243 333 404 0
-255 378 -411 0
-12 -187 -430 0
-140 -341 369 0
231 343 -417 0
-25 45 261 0
-168 373 -402 0
9 327 404 0
28 206 -321 0
-83 -269 -420 0
-72 -113 407 0
-28 114 -309 0
160 -217 -446 0
-14 -76 110 0
-101 -122 -432 0
3 8 15 0
-55 264 446 0
135 211 248 0
-151 -170 -281 0
190 -347 423 0
87 203 -222 0
81 -247 -274 0
-226 -312 323 0
154 -248 -308 0
-96 334 425 0
-77 -416 434 0
253 309 323 0
118 -345 -382 0
-28 45 -244 0
163 -204 -229 0
-85 -100 -229 0
172 -239 -377 0
-338 -359 -369 0
135 272 290 0
45 -122 -449 0
-156 -222 -241 0
6 293 350 0
-195 -229 -269 0
-214 -413 444 0
21 206 359 0
255 269 -285 0
-14 -93 361 0
-69 282 307 0
-39 -149 -331 0
90 -277 416 0
-61 189 429 0
126 -256 365 0
-9 34 -80 0
138 145 -352 0
-96 99 449 0
-14 -275 414 0
-89 292 -427 0
-41 -57 -387 0
-144 -284 307 0
287 296 -396 0
-248 -324 381 0
-1 -165 -205 0
-111 -277 -309 0
135 181 369 0
9 148 -234 0
97 -123 297 0
-178 208 407 0
309 -350 382 0
-114 349 -412 0
-160 302 -441 0
51 202 252 0
101 328 -383 0
-9 173 225 0
111 141 -448 0
-154 304 433 0
221 387 412 0
-85 111 115 0
-252 -427 -428 0
243 332 -386 0
-140 292 419 0
82 121 -157 0
-147 -330 365 0
44 -87 -119 0
-65 -180 -404 0
-7 54 -135 0
219 -234 256 0
119 222 273 0
-146 -279 -344 0
100 -371 388 0
63 77 78 0
66 -300 -344 0
104 187 201 0
-109 -279 381 0
30 439 441 0
190 243 254 0
-12 301 325 0
-19 109 -335 0
173 200 -407 0
-135 151 -268 0
4 193 277 0
-29 -213 -450 0
-159 -312 -377 0
72 -211 308 0
-53 104 -322 0
-116 163 413 0
9 -189 -191 0
-185 -308 448 0
