p cnf 450 1917
24 -304 -323 0
96 173 -338 0
125 446 449 0
-280 -296 -299 0
-141 279 -297 0
46 -275 347 0
-159 -242 260 0
28 -368 441 0
285 313 -376 0
-22 -274 302 0
43 -205 -291 0
117 411 -416 0
71 262 287 0
23 -33 243 0
197 -219 395 0
-216 363 401 0
-36 -159 -174 0
75 -189 194 0
8 43 335 0
-30 -147 -428 0
253 -315 442 0
-81 134 241 0
-72 187 360 0
329 -366 404 0
-104 -165 289 0
-67 -111 400 0
-68 -181 287 0
60 -207 -218 0
-31 -49 -97 0
-426 445 448 0
-247 282 407 0
-178 277 -332 0
-88 378 -385 0
175 -311 -367 0
90 -372 429 0
-54 -307 367 0
116 274 395 0
189 -274 -301 0
36 -37 270 0
-5 271 -354 0
171 -346 -401 0
49 -197 -442 0
-150 335 375 0
-29 -192 -335 0
-157 323 393 0
280 -332 -420 0
-159 -282 -364 0
265 294 -376 0
65 -434 445 0
265 -334 -404 0
304 305 -383 0
272 274 -429 0
-68 268 432 0
-2 94 -167 0
366 -399 -433 0
-38 186 335 0
-97 314 351 0
35 -207 -345 0
362 415 -416 0
22 256 360 0
232 -316 -355 0
-170 186 322 0
-98 -162 -198 0
-24 221 -257 0
174 -337 -432 0
135 154 269 0
155 -323 390 0
75 109 -235 0
208 413 422 0
166 338 406 0
-121 -182 306 0
-81 -318 361 0
52 -274 -357 0
-118 -126 -254 0
-42 111 -128 0
31 -117 -190 0
101 -153 329 0
235 297 384 0
120 -152 -397 0
-75 108 128 0
-5 189 295 0
-31 -65 220 0
-186 356 -419 0
-65 -174 232 0
149 -249 -255 0
229 -413 430 0
-87 316 372 0
-79 153 -195 0
-160 304 -449 0
-158 171 292 0
79 -120 352 0
86 427 -435 0
128 139 -351 0
273 420 429 0
-25 -59 -360 0
-49 -226 440 0
41 -115 -239 0
-255 430 441 0
159 284 399 0
68 166 -375 0
33 -246 -348 0
-33 285 -398 0
-239 -272 -445 0
-56 -229 -374 0
-156 -231 318 0
-3 48 -396 0
-94 -293 314 0
86 -91 121 0
279 337 -434 0
-117 133 280 0
99 162 319 0
-68 422 -438 0
-118 297 350 0
325 -359 422 0
203 -332 450 0
-19 -172 -328 0
113 124 146 0
-148 -154 246 0
-190 328 392 0
-184 394 -445 0
-411 -424 -446 0
-153 -254 -384 0
-19 -132 -255 0
-17 -264 405 0
29 94 -374 0
-21 130 221 0
138 -171 -201 0
116 205 373 0
-32 -108 275 0
5 125 -277 0
-320 337 -394 0
72 200 -339 0
51 270 338 0
41 257 344 0
19 51 -437 0
46 101 -410 0
-87 -353 398 0
-46 -272 -282 0
-83 140 -162 0
228 -232 -345 0
-173 206 -221 0
-26 115 341 0
9 196 299 0
-33 -58 71 0
-250 328 385 0
-3 291 -373 0
106 158 163 0
9 -102 375 0
58 -117 -139 0
231 274 366 0
171 -362 424 0
328 -337 382 0
-25 87 -105 0
13 159 383 0
74 -274 433 0
120 -190 -221 0
56 205 -214 0
-187 -273 -403 0
11 324 374 0
13 328 -336 0
102 -179 -407 0
-284 -287 385 0
234 318 432 0
-153 163 295 0
-5 17 -229 0
-107 -144 -329 0
-1 -75 342 0
-20 347 387 0
-36 -326 -427 0
-82 -108 -126 0
-116 142 267 0
-74 -323 404 0
326 375 -446 0
61 218 -405 0
-64 363 -395 0
-261 -298 -449 0
208 -219 -271 0
193 -299 389 0
41 104 186 0
5 -98 -364 0
128 -305 359 0
-132 -196 293 0
24 -322 -431 0
-35 45 -58 0
-76 -234 -394 0
362 363 -441 0
-115 267 -372 0
173 312 366 0
-9 -124 168 0
36 -42 -116 0
-35 183 -392 0
-46 228 -352 0
-10 330 -377 0
-181 429 447 0
44 84 138 0
-138 282 434 0
-129 -137 223 0
41 -145 -416 0
206 -360 384 0
-40 86 -116 0
264 -296 334 0
231 -354 393 0
-87 -402 -439 0
115 -225 294 0
53 157 -278 0
65 -125 357 0
58 124 -158 0
179 -255 429 0
-241 304 -446 0
207 -217 398 0
158 234 -397 0
-34 -166 -245 0
-86 134 -371 0
209 384 429 0
-52 -154 231 0
-407 420 450 0
334 403 417 0
-33 251 370 0
13 -42 306 0
-82 -156 -230 0
-98 214 261 0
-79 -224 -400 0
25 167 -193 0
122 -289 -442 0
-60 -138 -277 0
-93 326 -392 0
91 360 372 0
-145 200 225 0
108 256 269 0
156 374 -399 0
-279 344 447 0
175 315 -360 0
142 -403 -434 0
96 -404 -448 0
135 194 -446 0
-65 -148 -191 0
47 343 -375 0
-90 142 -166 0
89 -174 -178 0
-245 334 438 0
-10 69 257 0
166 -263 -266 0
185 199 -413 0
22 200 411 0
-116 -149 -248 0
-115 -403 426 0
91 -168 -310 0
58 232 338 0
224 -230 -270 0
-103 -143 244 0
-101 -206 -272 0
-172 228 370 0
156 197 260 0
131 -198 219 0
49 -81 -195 0
-313 -394 395 0
41 -275 -288 0
-346 395 -428 0
44 236 309 0
20 -134 -277 0
-23 108 365 0
-103 -221 438 0
95 233 -417 0
300 -344 353 0
42 80 356 0
315 399 416 0
-80 -92 218 0
-7 161 -181 0
171 -234 -305 0
106 310 329 0
34 381 -423 0
-156 193 234 0
81 -129 134 0
-173 -287 -390 0
162 -384 -400 0
-219 -429 446 0
5 73 -282 0
-8 91 353 0
-69 -107 -398 0
-35 -306 441 0
-22 -290 -299 0
-251 424 -445 0
-33 287 374 0
79 215 -371 0
-192 -335 388 0
6 -101 -162 0
-115 147 392 0
-98 135 -335 0
36 408 439 0
84 115 447 0
-266 305 -377 0
18 -369 423 0
88 -288 -421 0
-157 -339 353 0
28 -223 -376 0
-31 110 -407 0
194 320 408 0
83 -286 -403 0
12 -14 114 0
101 119 137 0
-72 191 -243 0
180 222 -357 0
-68 -131 -162 0
-129 -266 432 0
-89 -115 380 0
31 -156 -312 0
167 -272 308 0
27 213 398 0
42 -187 348 0
-189 -355 422 0
17 74 -401 0
-66 141 244 0
104 244 -375 0
-3 -320 374 0
-95 151 -430 0
-141 372 -426 0
-42 400 -436 0
205 401 -439 0
-104 113 -395 0
-142 -284 -302 0
74 -195 -322 0
67 379 -397 0
-56 -90 147 0
146 224 -285 0
-207 218 -425 0
218 423 -441 0
216 345 361 0
79 123 -348 0
-60 -422 444 0
-16 263 -280 0
-48 225 -334 0
49 307 327 0
-218 -289 -401 0
-174 269 -327 0
6 10 -404 0
-150 -340 369 0
-61 -71 320 0
166 -201 -428 0
-48 -65 237 0
28 74 289 0
-41 82 390 0
217 -268 379 0
-217 382 390 0
57 303 416 0
68 135 -381 0
-113 -156 443 0
-73 104 -270 0
186 -201 340 0
430 -439 447 0
-104 -366 443 0
-37 -100 -344 0
279 -356 -410 0
85 -99 355 0
-240 263 -318 0
251 -265 -356 0
-90 -119 -195 0
233 425 -439 0
-16 -247 -272 0
-107 -208 267 0
6 213 -366 0
279 -345 -360 0
-196 239 270 0
-67 80 -128 0
103 -248 427 0
83 211 307 0
-43 -146 -153 0
-157 220 -276 0
-130 -233 395 0
207 -372 392 0
-42 -257 -303 0
-202 -293 -369 0
-33 -185 -439 0
84 349 441 0
228 312 440 0
-89 296 448 0
144 148 159 0
298 -375 428 0
19 -90 -446 0
12 -125 -224 0
-34 -169 300 0
135 -199 -402 0
47 -90 -164 0
-25 -159 -352 0
194 -268 417 0
75 -175 309 0
-157 -199 -432 0
48 336 -432 0
310 -326 -425 0
-64 -285 449 0
-9 310 -407 0
-127 -320 -346 0
78 98 -317 0
-48 -381 397 0
267 366 395 0
146 -252 401 0
313 331 381 0
30 -61 -258 0
35 53 -304 0
-216 323 -356 0
238 395 -444 0
177 311 -318 0
255 -322 -329 0
-38 -193 -395 0
-66 -109 -291 0
-17 -183 -245 0
-60 221 -254 0
63 285 -445 0
88 -112 124 0
128 146 272 0
-45 190 -346 0
-99 -226 -397 0
-100 204 -407 0
-3 -312 -397 0
-22 -105 -285 0
-236 -390 394 0
141 -296 -430 0
138 -319 371 0
138 -220 418 0
-229 -292 -346 0
59 84 -115 0
-16 -78 346 0
33 -95 -248 0
-78 339 340 0
-23 -102 -199 0
81 -161 -201 0
221 312 328 0
-105 314 -413 0
-131 -229 -373 0
-112 -360 -361 0
-68 -186 299 0
-37 318 -347 0
6 -123 -372 0
158 -161 -169 0
-21 37 146 0
5 -285 397 0
-89 -91 -374 0
-75 123 -337 0
-6 -304 -379 0
-206 315 -444 0
294 375 -434 0
172 -218 -382 0
242 -324 -388 0
-68 -231 266 0
-140 -233 273 0
-5 -42 427 0
172 -230 -321 0
293 -312 329 0
37 -158 -346 0
86 303 395 0
-84 204 306 0
-186 285 -433 0
-55 222 -430 0
4 -33 93 0
254 347 364 0
-119 -284 -343 0
246 289 -291 0
-118 264 -389 0
36 -126 149 0
135 236 398 0
-166 256 374 0
120 141 -240 0
-69 156 399 0
-11 214 271 0
-290 308 408 0
345 357 416 0
-32 -315 442 0
62 87 184 0
-56 58 -237 0
187 249 337 0
-66 -246 286 0
169 -319 358 0
100 -145 381 0
-86 245 298 0
155 204 -446 0
94 -298 -420 0
-40 225 247 0
-280 -292 -411 0
-68 143 -306 0
28 -100 338 0
193 297 428 0
-139 330 362 0
-49 138 205 0
258 -280 -349 0
-53 74 -309 0
69 -296 -391 0
234 267 -426 0
58 227 -252 0
137 221 419 0
-146 326 -357 0
-182 205 -317 0
383 391 -397 0
-210 -304 358 0
264 362 400 0
301 314 368 0
-134 -328 -346 0
-184 -322 408 0
-147 -153 158 0
-255 339 342 0
412 -428 -443 0
-215 -297 -433 0
118 139 -303 0
125 246 -362 0
-207 368 -429 0
-145 -274 334 0
-14 -76 275 0
103 -104 385 0
252 368 -374 0
223 -375 -439 0
115 168 242 0
-2 -267 291 0
27 -51 423 0
-92 -324 -395 0
-216 219 381 0
-45 244 341 0
-55 404 433 0
41 -119 240 0
-23 -243 273 0
-281 -414 434 0
-116 -206 369 0
203 -263 -319 0
265 303 337 0
296 -412 -422 0
-27 -300 -375 0
180 292 322 0
4 -157 281 0
91 -178 439 0
-60 -178 -389 0
-120 167 -173 0
-230 270 -353 0
-14 45 365 0
43 -57 -191 0
-205 210 344 0
-286 -346 439 0
51 -119 -203 0
186 -247 -366 0
61 -422 439 0
80 116 206 0
49 -60 233 0
-175 220 -391 0
-73 -91 262 0
38 -283 -312 0
-26 169 -439 0
-129 232 -297 0
99 202 438 0
183 -192 -436 0
-157 230 -264 0
-98 -282 -414 0
91 -242 245 0
127 358 -444 0
-33 -183 -213 0
37 -157 -292 0
112 -142 186 0
141 -249 272 0
-111 -128 427 0
3 -10 -15 0
111 -155 -262 0
-39 319 -432 0
34 123 -128 0
147 -241 298 0
314 410 413 0
-103 -381 392 0
-29 329 404 0
-22 168 203 0
-264 -265 -302 0
-37 -40 253 0
145 179 420 0
8 -214 -347 0
81 -156 -344 0
-272 -375 403 0
101 -113 -185 0
6 -123 -376 0
-118 329 441 0
-245 325 413 0
-222 381 437 0
-327 -328 -413 0
41 -185 -419 0
274 361 445 0
233 297 410 0
194 -281 375 0
-96 -129 -381 0
132 -197 379 0
-94 188 421 0
130 -138 -437 0
-167 315 -396 0
166 -255 407 0
-182 -234 282 0
342 422 426 0
131 -173 448 0
69 -73 99 0
-39 -163 375 0
46 -90 -148 0
-199 -397 450 0
-52 -159 -415 0
-194 211 237 0
-92 139 262 0
75 -236 266 0
112 -131 -283 0
-317 320 -364 0
-115 -233 -290 0
203 -351 -411 0
-67 96 161 0
173 355 444 0
-307 338 358 0
17 202 350 0
17 -89 234 0
-171 -179 -213 0
-9 -116 449 0
164 -169 312 0
123 -198 -410 0
139 315 -429 0
-72 96 -193 0
140 -180 -447 0
99 -181 -216 0
49 91 -129 0
274 284 293 0
61 67 -245 0
75 -294 351 0
35 358 -419 0
-150 170 399 0
62 -196 -419 0
156 204 -230 0
-213 -237 371 0
257 265 -343 0
151 -204 369 0
256 -299 -379 0
219 -431 -449 0
21 189 -272 0
50 -196 322 0
114 331 -372 0
194 -314 -327 0
336 369 -426 0
-119 -242 -246 0
-155 224 408 0
36 -332 438 0
-197 318 378 0
-210 -370 -388 0
74 143 -244 0
-248 -263 -381 0
15 -308 316 0
205 267 -313 0
-10 228 250 0
139 160 318 0
26 -207 400 0
-91 -226 -444 0
-74 267 416 0
20 32 -154 0
-160 168 253 0
-102 215 265 0
-154 286 335 0
-175 -207 324 0
-269 376 -447 0
31 113 217 0
78 -131 202 0
171 -351 398 0
-18 -63 -375 0
14 34 136 0
-65 162 -438 0
-227 245 402 0
-182 291 304 0
-129 131 360 0
35 -104 215 0
-72 350 -410 0
117 -265 -307 0
265 416 -418 0
71 91 -355 0
109 292 359 0
-83 -210 426 0
227 259 282 0
-206 262 -310 0
-34 207 286 0
-2 -188 394 0
-30 73 354 0
-146 189 395 0
-98 314 315 0
217 338 368 0
33 240 -258 0
167 -322 429 0
16 -44 -329 0
-181 -292 -327 0
176 209 273 0
14 -25 -58 0
56 125 -280 0
-94 136 311 0
-161 -214 288 0
52 -269 419 0
-256 351 -446 0
-15 -276 -374 0
-77 -89 -412 0
-163 248 -320 0
-23 268 -403 0
255 -378 -408 0
-200 -327 426 0
-4 -79 -357 0
238 -408 -441 0
-130 149 -442 0
63 405 -425 0
-93 344 -413 0
99 176 -310 0
-201 -292 294 0
33 339 -381 0
84 -203 -363 0
-176 -312 -353 0
67 -86 248 0
-57 167 281 0
-63 -348 403 0
-264 318 -409 0
-15 -70 431 0
-91 369 -392 0
3 -321 -397 0
59 -157 315 0
-138 317 -363 0
136 -248 388 0
39 -123 166 0
32 190 205 0
-304 325 -357 0
-33 194 272 0
-176 315 -369 0
10 -49 -216 0
-71 -439 -446 0
19 -86 275 0
-251 272 289 0
-142 -351 390 0
-5 236 -238 0
-16 61 -417 0
-3 -371 387 0
-109 172 414 0
41 -258 -296 0
250 -275 -318 0
-36 169 430 0
30 -41 79 0
-115 -201 -414 0
-8 402 415 0
123 -315 320 0
153 291 -355 0
-271 289 -329 0
292 -328 -398 0
-256 -299 442 0
11 -317 -353 0
122 -321 -332 0
106 217 389 0
127 -204 -371 0
-28 34 -212 0
227 -251 -317 0
-321 324 -344 0
49 199 -333 0
44 -142 -355 0
-153 -171 -172 0
79 187 -351 0
216 241 -370 0
1 140 196 0
19 209 -361 0
120 -274 421 0
-26 -256 258 0
107 229 388 0
-63 226 377 0
77 225 -374 0
163 197 379 0
96 -109 386 0
14 189 266 0
110 -225 -440 0
208 225 347 0
25 -262 -397 0
184 -321 394 0
283 404 427 0
-213 255 -381 0
2 -230 -376 0
23 -185 -235 0
-99 325 -356 0
-79 -139 204 0
122 -254 -403 0
-101 146 405 0
-291 -349 418 0
-367 -420 -437 0
356 -421 447 0
-234 -269 -283 0
-106 154 -216 0
91 294 -295 0
176 331 -338 0
40 -79 167 0
-72 168 187 0
103 -225 338 0
126 161 429 0
114 244 251 0
-254 269 347 0
171 222 -370 0
-100 -342 -377 0
-169 241 -248 0
11 202 -287 0
160 333 -346 0
305 321 410 0
212 -217 -267 0
92 151 400 0
-259 409 413 0
115 -119 -142 0
-127 -264 438 0
-10 300 403 0
-361 -377 -394 0
-158 -208 -288 0
156 236 -238 0
276 374 -408 0
-93 352 361 0
38 299 -420 0
58 -347 384 0
114 171 277 0
-200 217 330 0
-32 116 444 0
100 -125 -227 0
91 223 -418 0
-56 -92 -171 0
-80 -97 -289 0
71 84 -350 0
4 -184 -378 0
-230 -251 -302 0
-60 167 -243 0
109 -292 305 0
-44 -69 -390 0
174 -374 428 0
-112 -238 -432 0
289 333 391 0
47 334 -341 0
-175 -211 419 0
25 -162 -193 0
-41 -333 -343 0
21 130 -181 0
58 -106 -332 0
-22 281 440 0
-191 -272 347 0
6 207 319 0
209 -243 -290 0
-121 -308 409 0
-201 202 -384 0
-24 385 424 0
-31 -165 -326 0
320 -335 374 0
20 -273 -360 0
-60 200 423 0
37 -155 -385 0
-12 173 -235 0
72 388 -394 0
58 59 265 0
238 -280 404 0
-78 -231 -349 0
181 -221 397 0
-51 111 345 0
-41 59 298 0
-246 -318 -394 0
-59 -156 262 0
309 -350 -419 0
-14 -94 154 0
77 -321 -325 0
27 223 -229 0
237 362 -431 0
35 304 -359 0
-12 79 370 0
-39 -328 -357 0
-37 -113 -167 0
-79 273 -310 0
-47 -53 -333 0
-54 -269 -411 0
140 289 448 0
-82 -272 389 0
18 136 166 0
129 411 -448 0
-78 -248 447 0
-39 -218 -423 0
-83 196 -275 0
-33 -75 119 0
111 139 -373 0
250 -390 404 0
-193 340 403 0
-62 -263 -334 0
140 147 319 0
67 -306 307 0
-168 -201 -348 0
-104 140 -171 0
-96 -285 -314 0
20 271 428 0
164 274 421 0
-25 157 364 0
-71 -256 444 0
256 353 -388 0
-229 388 -414 0
-13 125 204 0
-13 -178 263 0
-149 -172 -335 0
67 -140 407 0
14 309 -322 0
-47 -93 -282 0
39 83 -300 0
-60 -380 -448 0
283 347 -432 0
151 307 -388 0
135 -437 -447 0
126 -148 -424 0
-88 -251 -421 0
-52 253 -439 0
-186 387 -399 0
313 353 -431 0
74 91 -432 0
108 -153 423 0
54 -415 -430 0
139 198 292 0
-46 -125 399 0
-8 55 394 0
97 -168 330 0
-84 114 117 0
-132 159 348 0
94 210 317 0
151 181 418 0
-289 375 -409 0
309 -387 -427 0
145 -246 -311 0
86 -100 -409 0
-286 -306 420 0
-116 -274 365 0
-45 -363 428 0
44 -219 -425 0
-246 306 -349 0
-57 -299 440 0
32 38 285 0
105 -122 -229 0
155 288 408 0
58 98 327 0
-7 109 298 0
-26 -106 -195 0
73 -74 -86 0
-145 173 -434 0
54 63 422 0
-14 118 -417 0
268 -345 -388 0
-121 168 215 0
165 -229 -315 0
-194 -242 -379 0
-294 412 -443 0
-313 436 439 0
104 -129 -441 0
-72 135 -222 0
-185 347 -441 0
60 92 306 0
17 -322 325 0
38 -224 387 0
266 301 422 0
-3 -197 198 0
146 -213 358 0
228 276 277 0
-45 -81 305 0
147 179 197 0
310 432 -446 0
209 351 414 0
-95 -185 -221 0
106 266 432 0
26 125 -264 0
-3 438 445 0
41 255 -256 0
-258 -402 413 0
54 80 -361 0
-9 282 400 0
104 328 375 0
30 39 -440 0
-18 -229 -378 0
288 405 -414 0
44 97 169 0
298 321 -363 0
-134 229 -258 0
-229 -277 352 0
-196 212 -300 0
29 228 -292 0
166 -224 -429 0
-58 -236 -385 0
12 240 -399 0
63 -395 416 0
57 148 -296 0
93 -202 354 0
-60 202 -314 0
-8 85 -317 0
-21 -149 -304 0
162 -252 336 0
91 274 402 0
-73 87 -366 0
-124 133 302 0
97 250 -329 0
37 149 442 0
49 -85 -106 0
66 -352 -450 0
-188 305 -352 0
-298 386 -391 0
-37 101 178 0
43 257 296 0
58 201 219 0
27 -342 -348 0
-59 136 -269 0
103 376 423 0
-70 159 377 0
110 206 -320 0
-30 213 -343 0
-211 -243 -359 0
-60 165 364 0
-31 -48 419 0
184 230 312 0
12 -77 103 0
-216 325 -386 0
75 -77 400 0
129 -135 397 0
-20 -186 354 0
10 376 -410 0
73 -85 -389 0
79 106 -383 0
-248 269 442 0
-65 278 -444 0
133 331 420 0
-7 279 329 0
-311 371 439 0
8 -35 127 0
-160 -208 -327 0
13 42 432 0
-149 -190 450 0
87 -162 -319 0
-182 283 -302 0
-85 -243 405 0
212 -345 -349 0
-93 -180 -265 0
-256 284 429 0
-215 -321 -386 0
-94 -355 -395 0
192 246 -252 0
-212 -318 -392 0
-280 326 357 0
199 313 -341 0
50 -419 437 0
-214 -262 327 0
-141 257 -383 0
-242 370 387 0
38 56 415 0
149 -439 -443 0
-44 -126 255 0
-78 291 373 0
124 171 368 0
188 321 -444 0
-29 221 222 0
-258 -434 -436 0
40 -124 -443 0
238 390 418 0
-86 231 341 0
-83 369 395 0
-97 -117 -242 0
192 242 -431 0
-243 260 -284 0
212 -345 386 0
-116 -183 414 0
-305 399 -421 0
-3 -141 -196 0
74 -148 152 0
-97 -102 172 0
-55 -255 -392 0
110 166 328 0
-86 180 -345 0
224 298 320 0
24 354 388 0
204 -289 325 0
14 217 375 0
157 251 -315 0
-29 398 -423 0
113 317 -383 0
4 170 400 0
301 325 -338 0
-134 135 169 0
-92 -285 331 0
65 301 -345 0
5 221 -325 0
-246 -355 360 0
-107 -152 -440 0
121 254 -358 0
-125 131 -431 0
-67 154 272 0
-66 141 209 0
-40 218 -231 0
61 196 405 0
-241 -398 444 0
244 -314 341 0
49 115 336 0
45 91 97 0
333 -364 -414 0
46 220 -376 0
-18 297 379 0
-38 198 -420 0
-301 -311 349 0
27 -224 -308 0
-17 -28 215 0
-115 -277 -338 0
31 -188 394 0
-91 111 -391 0
90 -221 342 0
-106 -339 -448 0
135 152 -184 0
-20 204 325 0
200 -243 291 0
-77 115 380 0
-310 -357 372 0
-8 159 378 0
-72 -222 -274 0
44 -160 -212 0
18 200 403 0
-212 258 323 0
-75 -173 -398 0
183 219 305 0
110 -285 -298 0
-24 -97 -414 0
34 -270 274 0
4 -24 -345 0
49 -128 189 0
-148 -180 203 0
35 -294 -341 0
122 216 -385 0
45 339 -434 0
-32 38 -224 0
112 179 187 0
-163 -219 -295 0
146 -223 -293 0
38 121 -134 0
-308 -353 -399 0
-81 -86 -399 0
-92 -304 338 0
25 186 -213 0
102 -182 -398 0
59 -325 381 0
1 -204 -378 0
-67 115 -118 0
117 -156 185 0
14 57 -136 0
119 172 -331 0
-103 -313 394 0
-180 203 264 0
-160 391 -440 0
54 -104 314 0
187 -285 300 0
40 57 -217 0
-144 -257 336 0
-129 -315 -356 0
195 225 252 0
362 -387 -442 0
-141 -232 318 0
70 104 159 0
186 286 343 0
30 271 -290 0
104 -136 154 0
13 -47 -76 0
-25 181 282 0
-8 -115 -301 0
203 402 404 0
71 -272 373 0
-60 -196 -384 0
-16 78 -351 0
22 242 -441 0
98 -259 266 0
211 334 355 0
-143 -203 -259 0
-79 108 -307 0
-158 189 -324 0
-27 106 272 0
-328 373 382 0
227 322 413 0
153 175 -441 0
332 356 447 0
-182 347 -414 0
104 -117 -422 0
-171 198 235 0
51 -118 -138 0
-86 381 409 0
2 -139 -377 0
-166 -191 -395 0
-16 263 -292 0
62 -82 -378 0
57 -393 449 0
-346 404 447 0
-52 222 -346 0
-66 -118 384 0
-27 101 357 0
-64 359 385 0
94 160 -333 0
204 -411 -435 0
70 220 308 0
200 222 386 0
-2 -24 410 0
-252 -284 407 0
273 286 -341 0
-335 357 -379 0
-13 -89 -269 0
-74 243 315 0
34 81 -412 0
-57 142 287 0
80 -419 -442 0
58 -96 304 0
263 -356 -417 0
249 266 280 0
58 -201 410 0
-125 223 -389 0
50 317 -383 0
-53 -246 -379 0
-26 -70 193 0
133 213 -248 0
-14 280 -346 0
254 -322 391 0
10 -103 -230 0
-243 -303 -348 0
193 209 -441 0
116 363 428 0
66 323 -411 0
80 122 368 0
-128 212 -387 0
-21 253 365 0
5 236 -400 0
-116 213 369 0
-122 296 -447 0
-94 -208 -298 0
-237 -327 413 0
-37 83 -331 0
-259 -286 340 0
190 -213 249 0
-74 -114 147 0
87 204 -285 0
-116 -391 443 0
101 200 -339 0
-138 -152 402 0
-85 190 429 0
11 220 286 0
-186 309 366 0
114 221 363 0
127 -211 -386 0
80 -91 -187 0
-86 201 -438 0
-22 -37 291 0
-129 217 385 0
39 -77 323 0
174 228 -309 0
-116 -162 339 0
97 -245 -373 0
-72 -263 425 0
121 -291 391 0
196 -275 301 0
-55 101 177 0
142 -184 402 0
-39 176 190 0
-64 -208 -232 0
93 197 -336 0
168 171 299 0
183 -201 -292 0
-1 346 -351 0
223 -242 -295 0
-26 222 288 0
-318 388 -436 0
336 396 -442 0
-3 105 -203 0
1 -304 -419 0
18 305 410 0
-141 -151 351 0
-135 -214 -442 0
308 -330 361 0
-163 -187 -236 0
219 -340 373 0
64 271 407 0
-155 -253 405 0
240 319 -420 0
65 190 422 0
76 -295 -379 0
-100 -150 367 0
301 336 -394 0
-177 281 -445 0
230 329 -331 0
-290 -299 -337 0
-48 80 254 0
-106 131 262 0
-315 -319 440 0
35 95 -252 0
123 -202 232 0
282 -294 389 0
-10 -15 -81 0
-8 22 122 0
185 290 -358 0
-95 -254 268 0
96 -181 186 0
-23 -171 442 0
170 328 -396 0
-60 126 412 0
-82 -117 399 0
131 -202 253 0
19 -73 -428 0
-230 -374 441 0
75 -173 -278 0
152 267 -317 0
-97 447 -450 0
113 -307 -340 0
-181 -206 -409 0
-128 -236 -354 0
-139 -210 -361 0
115 -143 310 0
-146 274 394 0
77 392 448 0
-114 -197 266 0
1 214 -382 0
-45 236 -392 0
65 329 443 0
2 -226 -334 0
86 -259 -426 0
45 -209 373 0
57 230 -348 0
-18 -140 -193 0
234 -317 -319 0
130 235 -423 0
74 331 -389 0
-213 -232 -366 0
-78 -205 -394 0
-96 235 450 0
-12 -213 271 0
156 254 385 0
90 174 425 0
-127 179 -288 0
51 -142 -170 0
-132 -336 -350 0
-30 -46 292 0
72 137 161 0
177 212 225 0
-87 130 154 0
235 254 445 0
20 -306 369 0
218 279 -324 0
-157 -337 397 0
-75 -105 -258 0
31 -182 266 0
-194 233 -350 0
126 256 299 0
-191 258 383 0
-170 -212 -426 0
144 225 386 0
189 279 -358 0
-69 254 -448 0
-204 351 -420 0
111 199 -314 0
-165 200 295 0
-43 -98 -306 0
292 435 446 0
32 186 -319 0
109 313 416 0
17 -320 -373 0
-221 -282 440 0
-6 -238 -439 0
-2 19 60 0
74 165 -276 0
-2 -143 303 0
113 -283 -330 0
-166 180 -198 0
-147 194 336 0
190 -242 -389 0
-206 266 -281 0
-136 -236 -335 0
-187 -218 -405 0
-231 296 -438 0
112 125 -326 0
-132 277 342 0
185 -187 427 0
53 -334 343 0
-38 170 367 0
32 115 266 0
-4 136 -432 0
-67 123 330 0
48 -180 -250 0
-103 -212 -265 0
-176 266 409 0
138 -285 -382 0
33 114 -251 0
5 305 -342 0
31 -151 -358 0
83 -206 -357 0
-223 -236 279 0
-22 86 197 0
-111 212 -245 0
85 101 -440 0
-5 -177 -376 0
246 -254 334 0
-98 213 -410 0
49 -367 -414 0
113 -175 375 0
246 311 -374 0
117 -277 400 0
130 335 416 0
142 282 444 0
125 -209 330 0
-31 69 -295 0
-171 237 432 0
120 182 -217 0
263 290 -365 0
-74 192 -217 0
-196 -299 -377 0
149 327 363 0
32 46 310 0
51 -114 172 0
40 302 436 0
-13 -70 -367 0
-12 255 -283 0
245 394 395 0
-41 -356 -377 0
52 -146 -307 0
48 -149 -398 0
13 93 -100 0
-72 -276 -351 0
189 192 342 0
-56 97 -207 0
-22 228 -287 0
-41 145 321 0
-126 -194 -342 0
91 -158 438 0
15 70 -318 0
67 197 -429 0
-31 155 -328 0
76 -303 402 0
-256 -310 -418 0
180 234 -414 0
80 335 339 0
-30 169 415 0
-181 203 207 0
133 -182 -188 0
-137 161 -373 0
-90 -172 291 0
-198 219 437 0
55 59 -413 0
-249 302 419 0
-64 129 -249 0
164 211 -328 0
-195 -244 404 0
-250 -412 426 0
-4 -32 -286 0
63 146 -360 0
48 132 243 0
85 100 103 0
-120 -325 384 0
-48 359 399 0
-116 -183 253 0
30 256 383 0
-27 -209 330 0
16 111 249 0
-16 290 -361 0
-90 143 -258 0
18 -218 313 0
-181 -225 -355 0
216 239 -287 0
-11 -135 153 0
-86 -122 -402 0
28 -232 441 0
225 -391 -450 0
37 -177 202 0
-113 -161 165 0
-79 -80 197 0
-210 277 -426 0
-175 -226 -319 0
-111 315 378 0
38 -333 -418 0
-132 -262 310 0
167 -184 335 0
-268 -273 -393 0
-104 -141 -430 0
-1 -240 375 0
-56 -305 417 0
138 205 386 0
192 265 411 0
102 126 -212 0
-99 298 365 0
102 172 -349 0
-148 339 -347 0
113 180 404 0
87 -172 -350 0
41 229 -349 0
-69 -228 400 0
-175 -320 -416 0
33 -50 -157 0
4 197 -282 0
22 -362 406 0
44 -84 -151 0
-55 61 264 0
313 384 396 0
-280 291 -306 0
65 260 384 0
112 345 -347 0
26 250 -356 0
238 -376 386 0
-6 -209 -266 0
234 -326 -344 0
-199 -311 -397 0
-1 -157 285 0
-168 -172 -175 0
-42 315 337 0
159 -266 -327 0
26 -160 177 0
31 158 -392 0
-171 -224 305 0
314 352 -449 0
164 168 -365 0
110 -123 428 0
59 65 78 0
-258 284 -411 0
-164 -293 -400 0
-124 -328 -426 0
43 269 -337 0
-32 -154 -440 0
-178 -327 -344 0
-42 91 -147 0
33 -53 -118 0
51 -268 -448 0
37 -214 353 0
-140 262 -311 0
-94 -389 422 0
90 -123 383 0
63 280 448 0
-103 125 -336 0
42 218 -443 0
-22 134 155 0
-70 200 -441 0
108 218 343 0
-120 -127 320 0
3 -68 423 0
-359 -360 447 0
31 39 -227 0
109 398 -449 0
-122 -127 -234 0
269 398 -447 0
-19 -200 -281 0
184 -265 -395 0
-60 -74 114 0
-198 321 406 0
230 370 390 0
108 -236 365 0
-46 324 403 0
-192 -395 397 0
144 158 -216 0
-191 199 -253 0
144 157 -423 0
98 -267 -313 0
-270 -327 -411 0
-186 265 -419 0
65 66 174 0
48 -114 -349 0
17 328 -351 0
-22 -162 -398 0
-12 156 -374 0
-10 168 234 0
-26 -145 -413 0
-159 299 -306 0
-70 -97 117 0
13 -90 -202 0
-4 121 426 0
-13 -32 -274 0
248 322 403 0
296 -322 428 0
96 -124 -321 0
123 229 399 0
-85 -181 -410 0
179 199 361 0
-144 246 353 0
199 285 -360 0
-46 277 -333 0
235 -249 253 0
277 -297 439 0
239 243 244 0
37 -128 -366 0
-1 -238 -322 0
-29 286 -400 0
269 -295 413 0
97 121 -447 0
-150 195 340 0
214 -229 449 0
-123 -211 -228 0
15 16 -29 0
356 388 426 0
-20 -282 319 0
-69 -263 309 0
-40 -423 444 0
-179 -371 -449 0
-6 -31 276 0
-271 342 379 0
-6 -160 269 0
1 -215 -380 0
339 -426 -430 0
-236 -297 416 0
-13 399 432 0
-216 -350 416 0
59 -96 -261 0
231 -321 -388 0
-180 -224 -338 0
-14 194 -229 0
-108 147 315 0
142 339 388 0
37 -187 -311 0
-62 199 -437 0
41 152 251 0
-171 347 -366 0
72 -111 371 0
-85 -257 404 0
51 80 -226 0
-19 110 -372 0
48 -109 238 0
176 -195 213 0
42 101 -450 0
-101 -184 -283 0
-260 264 439 0
277 -308 -389 0
240 360 448 0
-10 258 389 0
-51 -435 447 0
-19 -148 177 0
-124 -158 -392 0
-2 -353 -376 0
186 -280 -368 0
-43 -293 333 0
14 20 -338 0
-36 108 392 0
196 -322 439 0
-133 -149 447 0
34 -335 364 0
-175 250 258 0
261 353 -392 0
192 -230 365 0
309 -415 429 0
169 -273 302 0
120 -197 -295 0
-20 142 424 0
-11 175 -187 0
119 -161 -353 0
33 106 241 0
223 284 372 0
-67 416 -440 0
181 -189 -222 0
3 208 373 0
-32 97 -397 0
-62 289 -426 0
70 312 -378 0
31 -301 -360 0
61 92 -192 0
139 -394 416 0
-75 273 436 0
81 -141 -175 0
55 213 -300 0
-19 -356 419 0
-14 114 198 0
-60 -262 277 0
-62 301 346 0
-38 -127 326 0
-90 -123 448 0
-245 251 315 0
-56 -106 360 0
-3 233 450 0
-100 224 225 0
29 -158 -265 0
149 191 265 0
-53 83 -284 0
22 -350 401 0
-14 -164 -304 0
-40 248 -409 0
-120 -396 -400 0
-90 166 181 0
94 113 241 0
114 267 -367 0
182 -228 307 0
67 112 417 0
-33 -321 -348 0
-50 74 177 0
175 -326 -448 0
211 -312 -405 0
215 -286 -289 0
179 334 443 0
-9 -49 -168 0
-41 170 -207 0
68 289 431 0
98 187 435 0
150 -287 -291 0
352 -366 -403 0
38 388 -450 0
113 -205 -433 0
-110 -341 -423 0
-39 -127 293 0
-21 68 348 0
-118 -355 416 0
-186 400 432 0
389 403 -447 0
256 274 296 0
172 -218 335 0
42 -177 359 0
93 -235 449 0
-95 -126 -322 0
59 -203 440 0
-34 144 -325 0
-47 -258 279 0
13 238 -324 0
-155 -158 433 0
-90 154 -164 0
22 337 -376 0
30 -285 -448 0
-44 -89 373 0
-24 211 311 0
21 74 -409 0
-110 170 -367 0
94 256 448 0
39 96 -373 0
-343 -347 409 0
-134 174 262 0
-108 -330 350 0
-74 196 432 0
184 254 390 0
14 286 312 0
-6 -110 -412 0
-36 177 -402 0
-14 -389 -400 0
-81 110 248 0
-11 15 -422 0
11 143 -364 0
-46 -198 381 0
-34 -132 -146 0
55 -218 -339 0
-221 232 392 0
-270 -312 -353 0
90 -404 -415 0
-174 239 -426 0
-51 -136 -373 0
-40 209 421 0
-260 -330 -414 0
151 239 -291 0
-117 178 320 0
178 311 403 0
110 248 -339 0
208 251 -334 0
-101 -162 290 0
-157 -314 331 0
-47 128 -162 0
-61 153 -250 0
-184 -192 382 0
-347 354 370 0
1 71 -438 0
252 -398 402 0
-225 -335 -392 0
-186 219 227 0
50 -170 -332 0
-228 -409 435 0
45 -315 -440 0
15 -153 328 0
48 -64 -148 0
159 253 258 0
-193 229 -254 0
182 351 385 0
-282 346 406 0
105 -157 -395 0
-118 288 -401 0
88 -256 411 0
-153 -186 342 0
-303 -312 -379 0
280 -440 -449 0
-123 -399 432 0
156 171 416 0
88 204 -207 0
180 287 380 0
-110 115 -126 0
-63 90 -399 0
43 162 -298 0
86 232 -357 0
-16 -234 -284 0
197 215 -273 0
18 -424 448 0
158 -234 -449 0
180 310 -336 0
-70 -264 -355 0
159 -241 -376 0
-72 -80 302 0
73 151 -322 0
-206 -278 329 0
-321 322 -422 0
-78 102 123 0
-106 -162 -219 0
17 341 -363 0
89 146 -226 0
-244 -307 -381 0
-118 -298 391 0
6 -133 -345 0
26 -38 120 0
-8 32 254 0
-58 -232 382 0
-8 132 -304 0
-9 169 272 0
-7 248 298 0
111 113 283 0
-11 -43 -197 0
74 -158 -337 0
-115 -126 -222 0
1 -62 -103 0
124 201 276 0
18 -196 -421 0
-256 283 332 0
117 -230 419 0
-67 80 307 0
-57 -357 -420 0
6 297 -382 0
17 110 -412 0
17 -100 153 0
-143 164 310 0
16 -126 -131 0
-115 134 -324 0
109 -214 300 0
-170 -231 -347 0
-267 291 -328 0
-269 385 434 0
107 -341 444 0
-112 -241 -285 0
159 -168 -410 0
-100 232 334 0
90 -369 404 0
-16 45 -350 0
-223 -365 -431 0
-340 383 433 0
-150 169 352 0
67 351 -386 0
-16 43 191 0
89 164 -307 0
335 -372 -404 0
-140 200 -361 0
20 -159 174 0
27 286 392 0
-42 266 -442 0
-100 -259 -269 0
74 192 277 0
-33 -200 373 0
187 -340 -443 0
-97 275 350 0
167 307 402 0
358 393 396 0
-160 219 369 0
236 254 -422 0
-3 105 286 0
-236 -271 432 0
-61 101 218 0
44 115 433 0
-269 -366 430 0
-60 -119 -279 0
86 198 324 0
-180 359 -418 0
-252 -430 -443 0
169 -195 223 0
-200 -208 -440 0
57 -97 -444 0
20 121 -372 0
-153 -253 -286 0
19 357 447 0
-117 276 337 0
-247 -368 443 0
207 422 -427 0
-100 258 -288 0
-261 376 406 0
120 -166 -298 0
-158 -357 433 0
-25 -127 -402 0
-173 -353 410 0
114 229 -261 0
78 -409 420 0
-64 -208 286 0
-167 277 391 0
137 275 302 0
-127 -167 212 0
140 148 -208 0
165 -320 -325 0
-13 41 -221 0
123 -253 -289 0
-161 227 420 0
284 -315 335 0
-56 317 437 0
-69 -119 301 0
-5 -62 -263 0
-73 -84 -394 0
-104 265 305 0
-219 385 418 0
-83 236 -359 0
-116 258 -361 0
-140 -421 -442 0
99 214 -220 0
33 -195 310 0
-50 344 367 0
-229 -294 -444 0
-29 -189 -444 0
101 -177 -341 0
-82 -233 289 0
18 211 433 0
-402 -413 -423 0
67 178 427 0
-11 -107 313 0
-138 -180 368 0
181 -192 370 0
19 86 189 0
-356 393 -434 0
-68 80 -266 0
-39 -330 -364 0
-267 -319 -420 0
35 -43 -349 0
27 -182 307 0
110 -204 323 0
-46 -236 257 0
336 391 401 0
-27 101 156 0
131 278 -369 0
-41 -301 -395 0
-135 -269 348 0
-3 -70 -428 0
-245 261 -400 0
145 213 301 0
263 -357 395 0
-16 113 -383 0
186 315 391 0
-47 -103 328 0
246 -249 -355 0
138 -253 -287 0
251 -361 448 0
387 409 432 0
110 239 335 0
33 -119 394 0
-198 273 405 0
