p cnf 450 1917
110 -334 -379 0
-105 -180 -255 0
218 298 334 0
253 284 445 0
106 160 -288 0
36 215 -415 0
-2 58 354 0
122 -332 -428 0
22 242 -442 0
-40 -119 391 0
-209 244 -357 0
-72 -178 373 0
-196 272 -340 0
209 230 415 0
275 -295 389 0
230 296 -432 0
-93 220 392 0
3 -25 -146 0
-115 -298 365 0
-120 -194 442 0
-25 311 343 0
-259 -414 431 0
-26 44 302 0
29 246 248 0
-60 -132 308 0
-12 176 -346 0
-152 193 -422 0
350 -376 -401 0
42 50 92 0
-44 -298 403 0
-40 -377 428 0
-47 285 -326 0
264 279 -394 0
-4 -116 -212 0
239 307 319 0
-123 315 442 0
-81 -159 -303 0
126 -290 441 0
-64 145 -291 0
-107 339 -410 0
160 358 370 0
331 -376 431 0
112 -285 289 0
-256 -358 -400 0
-129 419 432 0
-34 162 -404 0
86 166 -257 0
-2 -22 -136 0
-6 -197 -368 0
76 -149 -399 0
-81 -233 -249 0
-14 111 -191 0
-96 139 -323 0
145 199 374 0
-48 -77 159 0
-35 230 -425 0
252 -307 391 0
-84 257 -443 0
-58 323 -428 0
33 -237 -413 0
67 -413 422 0
53 -97 408 0
314 -337 356 0
1 -267 -321 0
17 -279 -367 0
-57 -111 -442 0
261 368 387 0
257 -290 -384 0
18 150 179 0
49 80 209 0
-177 -375 405 0
81 122 -235 0
41 195 433 0
-15 -122 -300 0
113 115 355 0
63 218 -433 0
-237 357 421 0
274 279 381 0
121 137 338 0
-241 -423 437 0
-145 -205 415 0
-160 -179 437 0
-84 293 -438 0
-23 160 286 0
94 -377 411 0
-156 390 429 0
-23 -335 -441 0
31 -290 -406 0
125 -171 -449 0
-180 -330 -363 0
89 118 372 0
54 -121 -259 0
31 -60 241 0
30 -269 420 0
60 223 425 0
-57 -122 142 0
102 -324 421 0
175 350 369 0
-11 -201 293 0
-115 319 380 0
-13 118 233 0
180 294 -404 0
158 193 -216 0
-32 -297 332 0
-151 232 318 0
62 195 234 0
4 31 -117 0
-127 -149 -277 0
223 249 431 0
-61 107 -312 0
-63 106 194 0
127 304 345 0
-37 -79 180 0
-46 -104 -288 0
8 -171 368 0
73 159 -448 0
-112 154 425 0
-147 250 442 0
-97 180 213 0
-48 71 446 0
279 -314 -378 0
-12 236 -404 0
-54 -399 -435 0
145 -328 360 0
-48 178 387 0
-127 -292 -386 0
-87 -238 -378 0
233 235 -314 0
-45 63 343 0
-172 -313 419 0
31 197 -360 0
-36 126 -216 0
14 112 243 0
112 -196 -262 0
281 327 408 0
-68 -172 421 0
128 219 255 0
224 -303 -366 0
-55 347 -352 0
-190 344 -402 0
199 -235 -371 0
18 -78 -103 0
-98 234 -414 0
27 -67 227 0
-103 -162 191 0
23 -89 172 0
112 -114 -272 0
-3 238 -274 0
118 120 -218 0
-12 395 403 0
-54 -238 -393 0
-189 331 384 0
-119 126 -353 0
128 -380 404 0
-49 137 329 0
-1 105 -210 0
301 -396 441 0
-26 118 198 0
35 310 382 0
49 -211 -385 0
232 -257 386 0
1 -365 391 0
156 251 -259 0
-148 183 -429 0
-41 320 -393 0
-161 263 372 0
258 400 411 0
116 -133 -382 0
256 -408 448 0
-106 129 -237 0
94 -99 274 0
105 -109 -272 0
25 104 193 0
-42 -245 304 0
342 365 369 0
103 278 387 0
-10 -73 -307 0
200 283 348 0
-21 38 142 0
93 -357 392 0
-32 73 -392 0
144 241 -314 0
34 -359 439 0
-86 -329 -415 0
41 -403 443 0
204 228 357 0
48 131 269 0
-153 229 435 0
-1 -37 -422 0
-189 -351 355 0
12 378 393 0
-30 233 -283 0
-50 -116 -152 0
-70 -151 -198 0
-31 -387 398 0
36 -57 105 0
-51 139 314 0
147 -377 447 0
88 -232 -246 0
103 113 -252 0
106 -108 400 0
197 -230 -266 0
-171 250 288 0
-236 252 268 0
-61 -62 381 0
-2 259 -267 0
-49 129 285 0
-130 -342 -443 0
-1 339 383 0
117 -426 -443 0
-82 276 -304 0
10 303 424 0
212 -339 426 0
383 398 -426 0
-277 -281 -325 0
-38 -69 89 0
-51 -100 -161 0
-1 72 146 0
77 -437 -446 0
49 76 179 0
-77 -209 -427 0
-43 122 356 0
111 299 -337 0
72 -174 450 0
162 205 -343 0
5 -168 341 0
-26 324 -344 0
93 210 318 0
93 183 386 0
176 239 -359 0
-408 -423 446 0
-202 -354 -418 0
127 291 327 0
173 400 433 0
-134 -159 -165 0
-4 64 193 0
219 -242 415 0
88 141 -340 0
54 -143 148 0
75 242 283 0
-103 118 422 0
-7 78 391 0
223 254 -287 0
388 -389 -427 0
-288 -314 345 0
-58 302 -369 0
272 361 -380 0
203 320 365 0
140 -382 442 0
-162 -178 -422 0
-166 310 -420 0
213 284 -448 0
172 -246 -393 0
-173 248 368 0
74 171 236 0
-225 314 361 0
310 346 383 0
-99 -274 -316 0
83 294 420 0
25 62 -438 0
72 -142 318 0
-21 232 -301 0
-215 368 -403 0
56 339 446 0
47 -68 317 0
-200 201 241 0
-27 -129 -214 0
-164 242 -382 0
101 -145 -318 0
-10 13 -201 0
-219 -269 285 0
-185 406 -431 0
221 -363 -424 0
-343 422 440 0
-17 156 -400 0
-284 375 403 0
204 -333 358 0
36 239 288 0
-11 -379 426 0
-32 286 -361 0
76 133 -246 0
33 -103 -228 0
44 -101 198 0
-91 -220 355 0
256 297 337 0
-208 353 -382 0
95 -311 314 0
-128 221 -435 0
-364 370 -375 0
-316 320 -381 0
-340 395 428 0
219 -249 -416 0
134 -322 -352 0
-146 -188 267 0
-101 182 -315 0
-45 306 -394 0
-52 -118 360 0
58 71 -85 0
-213 257 323 0
72 216 -413 0
-126 177 268 0
-224 329 346 0
220 355 410 0
-268 290 310 0
-154 -193 -233 0
-136 156 -262 0
-257 391 423 0
193 -214 -427 0
262 380 -387 0
41 -61 190 0
29 159 207 0
34 -294 -334 0
-59 -222 247 0
-171 344 443 0
-283 -429 434 0
133 249 -349 0
10 -179 273 0
-93 328 -350 0
75 141 300 0
157 332 419 0
-203 -281 441 0
-194 305 351 0
108 279 426 0
-42 -225 -331 0
56 296 436 0
-27 59 -425 0
56 -276 427 0
-185 212 297 0
293 307 314 0
-101 193 -258 0
53 -133 -278 0
-46 245 375 0
-141 -235 -263 0
208 227 387 0
196 -316 333 0
30 167 265 0
70 362 -377 0
-152 338 -357 0
23 31 383 0
319 390 448 0
73 -242 311 0
-78 -245 252 0
-64 -253 431 0
-21 -167 -309 0
-25 39 -68 0
25 -299 354 0
-102 -285 329 0
162 -307 -423 0
-20 205 407 0
206 423 436 0
-395 397 -445 0
3 -59 -443 0
109 -136 -170 0
322 354 -397 0
107 -121 -269 0
-342 389 409 0
110 -112 -113 0
-64 -177 400 0
13 319 449 0
-90 215 -333 0
143 159 -205 0
-12 -58 442 0
76 -163 -328 0
25 -233 430 0
7 -89 -379 0
-9 137 162 0
-301 416 -433 0
-25 -80 -307 0
25 192 -345 0
-15 -288 436 0
47 -379 -440 0
-178 233 -379 0
79 -153 412 0
-248 302 342 0
11 26 156 0
-276 -288 443 0
-66 -256 321 0
166 -249 254 0
44 148 335 0
268 271 -307 0
-226 -364 380 0
-60 -117 -325 0
39 169 -293 0
-66 -168 270 0
52 -371 388 0
-55 -122 -303 0
110 217 423 0
-219 -255 -338 0
269 -327 344 0
214 -239 294 0
-33 -327 -390 0
-166 -336 374 0
-212 304 -319 0
123 -298 337 0
104 -132 418 0
163 -185 -328 0
70 81 -188 0
66 152 -187 0
-272 353 383 0
-256 269 -353 0
-29 134 229 0
-207 -249 392 0
-44 -404 -427 0
72 -334 -350 0
55 272 -333 0
-17 -76 385 0
-238 -245 -305 0
-54 -165 -244 0
55 266 -364 0
-168 269 -358 0
252 -288 -304 0
-77 -110 -168 0
-223 -347 -397 0
-141 -267 -335 0
-7 220 438 0
-44 165 412 0
-21 -316 411 0
92 -205 211 0
33 73 367 0
20 372 -379 0
45 319 -385 0
-251 387 444 0
20 -154 -287 0
38 -313 -362 0
237 254 -377 0
129 185 367 0
-76 -242 391 0
60 -144 355 0
-107 144 351 0
75 150 199 0
-242 -293 315 0
-100 275 -349 0
-132 140 -162 0
-45 -408 -415 0
-14 243 376 0
83 86 117 0
-195 202 341 0
-179 314 360 0
-20 227 345 0
249 263 360 0
-324 416 442 0
178 -375 -379 0
-75 372 382 0
74 95 -296 0
8 357 -415 0
-121 163 -301 0
52 -201 -237 0
12 -61 -287 0
-97 170 241 0
-19 184 309 0
-176 -184 376 0
145 -189 267 0
17 106 416 0
78 -222 343 0
54 142 234 0
365 370 -380 0
137 335 449 0
123 275 -386 0
-115 -124 -248 0
-150 -182 189 0
131 -251 369 0
-63 73 172 0
26 -178 -202 0
-123 321 373 0
-237 -380 421 0
365 -413 416 0
-9 202 -432 0
-53 293 304 0
-277 359 -376 0
67 -83 260 0
98 204 -313 0
66 319 -348 0
-181 -359 -442 0
7 -66 -413 0
20 -247 -378 0
60 249 393 0
267 -370 379 0
-171 -363 -417 0
-9 -120 226 0
72 -211 321 0
-58 214 253 0
-50 -51 -222 0
61 252 259 0
-217 318 -396 0
-44 -229 397 0
72 -91 276 0
198 274 -346 0
-130 -176 -260 0
-238 -334 418 0
-49 -92 243 0
204 -233 305 0
64 -211 266 0
-27 -210 374 0
13 -156 341 0
-123 -148 177 0
-31 73 212 0
100 428 439 0
106 121 169 0
-117 -323 -402 0
115 -181 -359 0
155 -365 443 0
156 199 358 0
42 -215 -410 0
97 191 291 0
62 -137 209 0
-115 320 336 0
-225 422 448 0
157 -237 391 0
-29 -348 427 0
354 -376 -439 0
-102 -163 -340 0
-58 164 -300 0
288 -381 -408 0
-66 -273 -406 0
9 -260 441 0
-92 -255 362 0
-143 -211 -332 0
-54 -89 184 0
-278 -360 -366 0
-25 -137 364 0
-209 216 -348 0
-70 255 -434 0
35 -193 243 0
-190 302 326 0
314 355 -379 0
376 -436 -442 0
-92 126 -161 0
-137 -277 -385 0
331 337 -422 0
-36 124 420 0
-193 -342 -425 0
72 -384 449 0
199 -212 -250 0
173 191 -289 0
-184 186 252 0
-15 329 -364 0
192 322 -403 0
-195 -363 410 0
180 -374 -393 0
-184 208 -409 0
-190 -225 -357 0
206 -345 383 0
28 121 -166 0
116 328 -369 0
274 389 419 0
-16 -151 -224 0
-74 119 155 0
-137 147 -177 0
55 252 -288 0
-34 -324 -438 0
-69 171 202 0
-239 252 263 0
-17 -80 280 0
283 -285 323 0
46 -224 -303 0
102 375 -385 0
-407 426 445 0
11 -231 329 0
-229 364 422 0
-20 -341 414 0
100 429 434 0
91 -126 234 0
245 -288 373 0
-300 333 -396 0
72 174 231 0
369 -440 450 0
341 346 -372 0
84 -164 -395 0
75 106 174 0
-49 104 272 0
-5 -249 -287 0
159 -190 232 0
56 -73 -390 0
-59 -90 -384 0
48 -299 -300 0
-79 147 354 0
-140 -311 -334 0
66 -76 382 0
178 -280 -450 0
149 -200 371 0
171 283 446 0
358 374 435 0
-68 -92 -220 0
62 -398 -432 0
-45 97 206 0
-146 229 -288 0
175 -252 359 0
-116 -347 -449 0
-42 -251 320 0
-112 -227 308 0
184 -377 -389 0
46 112 -422 0
-307 395 418 0
3 -31 -321 0
-27 208 283 0
-286 305 -359 0
260 338 395 0
285 -288 -382 0
56 -173 -286 0
13 432 -447 0
-79 -126 -192 0
-304 -327 -414 0
-21 78 192 0
-184 284 442 0
87 335 -356 0
229 360 -403 0
-87 257 427 0
114 -321 -340 0
-31 -69 180 0
-15 48 -120 0
225 355 446 0
44 -313 324 0
-86 105 -325 0
82 -164 -400 0
-310 359 416 0
39 -114 -244 0
-199 219 343 0
-127 -173 267 0
287 -343 394 0
-72 -74 226 0
120 -436 -445 0
86 248 -403 0
248 282 -369 0
-242 -302 368 0
57 -249 -390 0
-12 -146 440 0
101 350 414 0
244 299 -314 0
27 70 180 0
-157 -244 336 0
-1 -245 418 0
-296 362 -373 0
13 20 360 0
214 -227 355 0
53 245 -423 0
223 -402 423 0
-282 -317 -388 0
38 53 220 0
-61 323 352 0
-121 -254 -430 0
-47 -72 201 0
-97 -136 -385 0
206 233 -435 0
-152 -347 -431 0
-21 308 -316 0
191 248 -323 0
71 181 -303 0
124 237 416 0
22 47 -112 0
251 -334 -392 0
27 33 440 0
-30 -56 228 0
75 -220 296 0
295 310 -450 0
-47 344 425 0
-139 -172 336 0
-39 239 -373 0
264 -318 -411 0
108 -304 422 0
-186 210 411 0
81 110 -353 0
-33 -35 405 0
88 178 -364 0
155 -262 418 0
-148 -163 -379 0
-49 130 242 0
100 -342 -411 0
1 -164 -215 0
-66 279 -289 0
-100 109 -185 0
-199 225 -343 0
3 -124 -427 0
125 -199 -414 0
-54 -218 279 0
-123 124 420 0
103 -329 -387 0
225 -230 -444 0
-60 -317 -363 0
104 -163 288 0
16 237 377 0
279 371 383 0
29 173 286 0
7 179 -190 0
47 297 -307 0
-43 -346 -389 0
-214 316 445 0
14 -46 183 0
-29 -340 -400 0
30 161 -272 0
-31 304 401 0
-61 358 428 0
-284 371 416 0
185 -258 384 0
357 -403 439 0
-20 223 225 0
26 356 -394 0
106 -204 -273 0
47 319 353 0
50 80 -303 0
265 314 332 0
107 -268 -339 0
-276 -376 -442 0
-186 206 410 0
-187 304 -393 0
-167 -322 424 0
-19 402 -433 0
44 177 325 0
115 167 225 0
132 -142 -426 0
-111 334 383 0
266 -291 402 0
117 -404 -447 0
20 82 148 0
-174 -252 418 0
175 -369 -433 0
-23 380 386 0
131 -161 -389 0
25 323 341 0
11 -354 -445 0
45 -226 397 0
312 -313 345 0
174 331 -390 0
-159 182 -406 0
51 -269 -283 0
-351 356 -440 0
-327 -387 -420 0
78 -220 -322 0
-289 373 -396 0
-34 -316 -346 0
-90 200 -307 0
192 210 237 0
25 100 225 0
147 184 234 0
-122 204 429 0
166 -263 -345 0
-86 252 -413 0
-9 83 372 0
-139 -172 448 0
12 -144 240 0
-113 117 127 0
-157 186 -391 0
64 151 -375 0
-7 -43 -120 0
-121 238 -433 0
-131 -136 -437 0
-59 122 -400 0
-398 -401 -436 0
260 -308 324 0
-75 -191 -275 0
212 281 364 0
57 -246 372 0
222 241 -256 0
-111 -265 -293 0
286 305 -420 0
-148 177 -263 0
-341 -345 364 0
381 -383 -425 0
26 -279 346 0
-143 267 -322 0
-107 233 254 0
-175 264 -304 0
-119 314 -408 0
304 319 389 0
-64 -77 -416 0
22 43 -89 0
70 -71 137 0
172 -368 -442 0
213 -228 246 0
182 206 -214 0
166 -307 413 0
159 -163 -390 0
5 51 104 0
-55 101 -356 0
-330 -344 351 0
-90 131 -143 0
-146 -156 -436 0
-83 -157 261 0
-83 -141 -258 0
67 -97 190 0
-115 341 -440 0
35 -129 423 0
121 189 -209 0
-5 -145 250 0
155 324 -335 0
299 -431 -441 0
-93 254 391 0
257 416 419 0
-80 88 126 0
-63 78 -427 0
-29 208 -412 0
56 393 423 0
224 -259 280 0
-266 -275 292 0
-34 -212 -263 0
69 -143 445 0
6 85 -259 0
24 293 374 0
179 374 415 0
65 -244 -416 0
159 317 423 0
162 166 -226 0
59 -104 -367 0
-23 78 -214 0
209 314 -377 0
24 229 384 0
-71 -291 -430 0
53 79 100 0
10 -76 -249 0
-246 382 417 0
124 -315 -328 0
-244 347 418 0
-177 -345 400 0
-57 -390 446 0
65 -276 -278 0
287 316 433 0
155 225 391 0
-186 210 317 0
-179 223 -276 0
402 405 413 0
144 -373 -433 0
-74 140 358 0
8 -315 -389 0
-28 284 397 0
149 -198 -375 0
-325 365 -383 0
269 -397 -415 0
-306 -313 -444 0
-26 -196 316 0
82 165 286 0
61 269 287 0
94 184 -218 0
-267 336 392 0
-102 324 -393 0
207 282 369 0
-95 103 132 0
-27 -186 278 0
-188 -244 323 0
-2 -166 385 0
-59 203 -380 0
31 -253 -347 0
-110 205 -287 0
98 209 399 0
-7 36 -102 0
206 -389 405 0
38 59 281 0
240 -378 445 0
-39 -186 403 0
-142 -206 -430 0
-47 -54 192 0
-65 -102 -209 0
-250 -277 -414 0
88 145 426 0
233 248 302 0
-127 221 253 0
355 390 400 0
92 -141 -271 0
-88 264 302 0
178 -253 -268 0
162 -265 -272 0
-184 -193 235 0
95 -168 246 0
-169 442 450 0
-44 308 446 0
-99 107 -258 0
21 157 -227 0
-12 -67 -351 0
215 -226 -379 0
-41 -83 324 0
198 -219 -278 0
115 -407 -440 0
-15 200 -411 0
-160 218 237 0
74 106 -124 0
-219 295 -303 0
-149 170 -328 0
-175 319 -339 0
-65 238 -240 0
135 -311 -406 0
184 267 -368 0
-156 -198 355 0
286 404 -434 0
36 38 -206 0
217 280 -438 0
265 -274 -302 0
-151 202 -203 0
48 128 242 0
-113 117 -192 0
-19 -118 319 0
-225 227 -247 0
-290 -390 408 0
-235 252 -365 0
68 416 -425 0
52 197 395 0
291 -306 415 0
-47 148 399 0
53 132 -382 0
9 38 156 0
-93 -168 -236 0
236 414 -423 0
255 306 -340 0
-251 356 425 0
45 -59 -333 0
51 -175 433 0
62 -102 211 0
112 114 361 0
-66 158 -290 0
-200 391 -442 0
1 -310 444 0
180 374 -446 0
198 -375 390 0
68 101 301 0
203 -234 -335 0
-28 -241 -283 0
-150 225 335 0
23 359 384 0
56 -79 -207 0
-10 -186 407 0
23 -278 424 0
137 -141 162 0
88 175 213 0
-85 -99 -439 0
-51 69 -394 0
-15 59 -234 0
-34 -73 333 0
-304 381 -407 0
127 183 209 0
9 255 444 0
281 -313 -415 0
-220 -372 411 0
-236 -294 -379 0
119 -201 -240 0
24 58 107 0
-37 53 300 0
-20 -208 270 0
174 -264 -303 0
-50 -159 446 0
52 -138 -417 0
61 211 228 0
-24 -249 277 0
-82 -88 127 0
-115 -169 -195 0
103 -166 -190 0
-259 -275 388 0
59 -277 399 0
309 -396 416 0
-333 -369 404 0
192 282 395 0
41 -190 247 0
-14 63 -437 0
-164 -223 244 0
16 91 -288 0
-13 193 422 0
-71 238 283 0
-36 -367 446 0
-199 323 -373 0
153 155 -352 0
168 -386 -410 0
35 177 429 0
26 358 -382 0
-22 -228 237 0
-43 136 -367 0
112 -222 245 0
84 -297 -380 0
-60 225 -286 0
-7 287 -403 0
-2 -270 407 0
204 -235 325 0
135 -171 307 0
164 -264 345 0
-136 -223 -364 0
218 405 420 0
20 44 343 0
-17 346 348 0
-61 -345 -392 0
-104 -134 182 0
-63 147 -320 0
-65 -115 194 0
-153 277 435 0
188 -259 417 0
-120 162 -360 0
28 370 396 0
-190 255 -340 0
-71 -144 368 0
-198 -411 443 0
30 -108 -416 0
100 178 -443 0
220 -227 -271 0
149 -157 433 0
137 196 423 0
-142 -256 -435 0
-3 309 -368 0
138 320 -377 0
239 358 442 0
49 -240 298 0
-21 96 188 0
-28 84 -204 0
-71 144 -145 0
-6 -120 -265 0
49 -127 -204 0
3 -32 -390 0
-6 -224 -237 0
98 -201 -443 0
-152 251 380 0
154 234 -355 0
-242 -287 -301 0
46 -217 -413 0
-80 -279 355 0
117 186 297 0
-12 -40 66 0
-262 -395 431 0
-60 285 -395 0
-101 134 -397 0
-280 -334 -442 0
-179 185 241 0
-162 -186 294 0
-182 279 341 0
-74 362 365 0
-47 -390 -391 0
-174 -311 435 0
47 -270 -393 0
-21 -184 -306 0
110 -141 -418 0
-119 -171 341 0
-39 -59 -265 0
12 149 -248 0
170 -343 -393 0
-33 -120 402 0
250 -253 283 0
354 402 436 0
-198 -242 248 0
20 -117 -360 0
38 183 -261 0
-27 -210 271 0
-87 -245 -321 0
-184 189 371 0
247 -315 -415 0
130 -303 324 0
-114 -249 -251 0
-29 -78 227 0
-103 -174 265 0
-111 -346 377 0
-31 -240 367 0
-3 -143 -232 0
-39 -316 331 0
-47 59 -376 0
-31 -188 -199 0
-59 78 -209 0
112 143 157 0
97 -194 -318 0
-72 -189 243 0
51 -122 420 0
85 -224 360 0
134 346 353 0
142 221 281 0
88 149 -360 0
19 116 427 0
264 -278 -401 0
-12 -134 227 0
163 -274 -325 0
234 -316 -425 0
163 -172 -175 0
-3 280 309 0
54 97 -418 0
-105 -267 324 0
123 -351 -352 0
203 290 308 0
54 -98 223 0
-14 -65 232 0
126 267 323 0
75 -127 -317 0
-13 225 -438 0
77 226 -402 0
-108 344 375 0
-151 219 -433 0
-155 -285 327 0
-67 -111 179 0
-62 364 -434 0
-240 353 396 0
-128 160 355 0
294 -330 -386 0
134 -150 293 0
86 -182 -281 0
-43 188 -406 0
2 -156 283 0
34 116 303 0
-3 -217 396 0
-45 166 244 0
290 379 -430 0
-372 -409 -412 0
283 341 -370 0
168 -433 449 0
124 227 -444 0
-76 -121 -409 0
6 -19 414 0
-46 -103 319 0
-100 201 -448 0
-4 -118 254 0
65 278 -412 0
126 -150 294 0
-67 217 -298 0
-133 328 -420 0
-133 246 -308 0
-96 -175 -184 0
-37 -411 -441 0
170 186 356 0
127 148 218 0
100 -126 284 0
-271 -335 -352 0
90 155 -265 0
97 159 185 0
202 243 -361 0
156 -343 427 0
112 -185 397 0
86 155 375 0
17 -187 -286 0
-53 -357 399 0
-14 196 235 0
-155 222 328 0
-46 367 438 0
80 -144 227 0
178 -359 -370 0
-104 -185 -366 0
186 -334 -426 0
-15 -310 383 0
-125 -175 205 0
-272 -283 -370 0
-22 -206 359 0
31 302 -444 0
391 392 406 0
5 -214 427 0
-93 -241 -386 0
19 176 -230 0
-6 54 66 0
-88 371 380 0
-124 -263 316 0
-238 338 432 0
-117 326 -398 0
29 -338 -396 0
-22 190 -386 0
-177 -233 286 0
14 154 436 0
100 144 -289 0
92 -234 -271 0
211 256 -416 0
-9 53 -169 0
-101 304 -323 0
206 300 360 0
49 249 -281 0
-73 -163 -381 0
-168 346 395 0
191 253 -449 0
-12 -243 389 0
-190 -374 398 0
-30 -119 -298 0
90 112 311 0
67 -131 -224 0
-18 276 394 0
-233 -294 424 0
46 -99 418 0
-151 179 -266 0
-65 198 -209 0
50 217 -435 0
-207 305 320 0
-46 92 -371 0
-73 -172 348 0
-147 366 -390 0
43 60 -107 0
90 -271 428 0
-81 -219 -349 0
-78 95 -388 0
46 185 200 0
-330 391 -400 0
-162 -194 -238 0
-309 328 -402 0
-105 374 449 0
89 325 450 0
89 -163 -422 0
44 104 422 0
-38 -108 -449 0
20 72 -317 0
-242 335 442 0
-290 351 -446 0
-256 370 371 0
-17 147 -190 0
-235 283 439 0
-244 -247 302 0
-264 -270 407 0
-54 261 271 0
-49 -89 239 0
-15 -23 392 0
-3 132 261 0
-310 313 -326 0
121 -176 313 0
164 -231 -299 0
-50 155 337 0
-104 268 419 0
-87 88 145 0
40 333 383 0
64 -101 344 0
-88 -158 -339 0
316 327 -433 0
72 404 429 0
145 366 387 0
128 -207 -377 0
-82 -137 -334 0
9 -63 -390 0
-61 -113 -289 0
-96 -227 264 0
159 -235 -373 0
-52 -187 397 0
161 220 288 0
369 430 448 0
-233 -283 351 0
-409 429 -449 0
-7 328 -330 0
203 380 400 0
50 -259 -332 0
-17 47 -379 0
293 -310 403 0
-28 -57 -224 0
-142 223 315 0
-62 -233 -313 0
-17 -323 -447 0
-21 -35 445 0
60 144 -215 0
102 155 361 0
267 363 411 0
125 -217 233 0
22 106 302 0
157 275 375 0
155 -359 -446 0
119 173 329 0
134 -154 204 0
84 344 -355 0
-69 -316 -405 0
4 -258 -449 0
45 -82 -332 0
187 -227 443 0
-83 -165 191 0
-97 -200 -278 0
98 -124 -287 0
-173 -256 -278 0
-198 365 371 0
-44 48 363 0
109 -179 -186 0
116 -301 -344 0
-8 -232 297 0
-358 -410 -413 0
143 304 -361 0
-199 -310 -313 0
199 -233 -394 0
-4 13 136 0
-149 -182 339 0
26 -82 -308 0
86 227 251 0
18 173 308 0
10 -134 188 0
85 -213 -390 0
-183 215 411 0
-34 -297 -308 0
-71 252 -420 0
-173 -434 444 0
-333 -339 430 0
-230 256 279 0
117 -261 -341 0
31 -334 -380 0
-101 -311 -401 0
-74 -136 -292 0
291 -309 419 0
71 -287 -330 0
-154 -240 -333 0
-72 209 432 0
-26 148 298 0
142 -216 346 0
107 -286 295 0
53 -66 189 0
78 -221 -405 0
14 203 -395 0
-175 -191 -425 0
-124 -235 338 0
259 -332 -371 0
36 -165 -412 0
288 -307 343 0
67 -151 -333 0
225 268 -432 0
52 -59 353 0
-18 29 -90 0
34 -58 344 0
33 -334 432 0
-275 375 417 0
-34 75 -437 0
-67 -188 398 0
324 405 431 0
-144 -166 170 0
106 130 -147 0
107 -311 -316 0
-49 -221 278 0
87 221 328 0
65 -170 271 0
-193 268 335 0
137 159 -188 0
-90 -333 -350 0
-88 123 -339 0
133 296 369 0
-89 97 -173 0
-49 113 -238 0
-165 223 353 0
-1 27 120 0
-55 -246 -274 0
24 265 287 0
-172 310 -433 0
36 -198 326 0
-51 108 319 0
-213 -221 -344 0
-5 -86 -193 0
-137 265 -297 0
127 196 -236 0
170 248 -362 0
155 -175 -397 0
275 350 385 0
-92 160 -407 0
-209 -216 389 0
188 -220 -226 0
151 313 -375 0
-80 196 222 0
208 349 -399 0
21 -349 390 0
-96 272 275 0
164 266 -425 0
-87 166 -249 0
44 -158 -360 0
175 -216 -279 0
73 -311 421 0
-56 259 385 0
106 -261 -428 0
-118 -138 340 0
-23 91 307 0
236 238 -300 0
-2 375 -376 0
133 -415 446 0
66 -272 313 0
144 242 -272 0
96 185 357 0
-165 -395 -411 0
-124 368 -394 0
17 286 -302 0
139 177 333 0
97 343 370 0
-257 -400 431 0
67 159 -388 0
134 167 260 0
93 -157 216 0
-121 -126 147 0
-98 -158 226 0
201 430 435 0
-88 -158 429 0
-156 -310 -450 0
102 166 410 0
137 -279 370 0
149 157 -369 0
-5 163 188 0
93 -141 -196 0
-24 123 -154 0
31 176 -230 0
8 -90 -361 0
-107 146 419 0
-170 266 -423 0
-24 25 -54 0
234 273 -434 0
66 161 -298 0
-69 -240 273 0
-73 186 315 0
-64 -180 276 0
121 165 -284 0
-240 268 -341 0
-5 -117 398 0
-29 -54 -356 0
-66 -80 94 0
91 -139 -223 0
197 -213 -368 0
82 -96 -203 0
-232 -272 -420 0
25 -190 -233 0
-50 -214 388 0
-346 390 -409 0
-18 103 177 0
-84 147 443 0
-201 393 -416 0
65 -210 353 0
1 111 -389 0
-15 -285 -298 0
50 -335 416 0
-254 -280 -374 0
147 322 -327 0
239 -287 -361 0
139 -215 -314 0
140 333 375 0
334 391 449 0
77 -257 -333 0
-18 65 -290 0
-25 95 -99 0
-249 277 321 0
-37 -72 -248 0
-215 -310 434 0
33 319 -372 0
51 -187 -237 0
31 -120 -130 0
-29 -204 -222 0
233 -326 -429 0
97 122 138 0
199 244 -419 0
23 -264 433 0
129 199 245 0
201 303 367 0
-33 263 396 0
49 329 -424 0
121 150 442 0
87 -134 -262 0
25 -35 -203 0
-21 -51 -415 0
72 -113 401 0
49 77 -88 0
-123 -393 421 0
-29 -217 247 0
-205 248 -335 0
-84 339 -358 0
-117 -197 377 0
-66 102 -218 0
-44 -353 435 0
-37 -186 -374 0
5 156 443 0
-237 259 328 0
101 -146 302 0
-77 -331 421 0
-158 181 301 0
-54 308 313 0
132 -364 -428 0
16 267 -274 0
-24 321 -374 0
-142 -159 -324 0
98 278 -354 0
-58 78 136 0
-93 -114 295 0
-250 356 -431 0
187 188 -334 0
29 127 244 0
-126 -187 -429 0
57 -370 -422 0
42 -113 -304 0
-146 193 434 0
23 192 -347 0
-97 240 301 0
-146 -261 378 0
-103 151 -315 0
-67 232 -378 0
-239 -279 -347 0
-3 -352 421 0
390 397 437 0
-92 -152 -153 0
-257 -308 368 0
-167 -403 -442 0
-287 -342 375 0
75 -262 -292 0
-67 -70 -337 0
-139 248 -330 0
-283 -312 -411 0
34 135 -254 0
-54 -383 -442 0
-68 207 -235 0
36 206 -390 0
247 -351 425 0
-42 -219 -298 0
-295 336 -420 0
82 -261 313 0
-54 -78 309 0
257 413 -448 0
108 206 445 0
-5 263 313 0
-19 39 156 0
-12 -299 410 0
-44 77 -407 0
-142 -156 -328 0
65 323 363 0
326 -389 -424 0
50 -82 -224 0
-36 -79 410 0
139 177 193 0
154 -194 330 0
59 -209 -405 0
-85 -356 357 0
159 -235 443 0
30 -83 89 0
144 -258 -444 0
78 88 -209 0
3 -47 -54 0
117 215 263 0
150 202 -279 0
-146 -224 -267 0
39 -100 158 0
207 248 313 0
-100 164 -335 0
65 -180 292 0
34 -266 -386 0
-126 -254 260 0
14 109 -235 0
17 -348 -423 0
-163 311 437 0
16 99 -189 0
-106 -152 321 0
76 91 -220 0
238 -347 -406 0
-38 -86 -422 0
-46 -148 274 0
304 308 384 0
-29 -300 331 0
-1 -87 129 0
168 183 235 0
249 -251 -424 0
79 402 -450 0
-201 288 -404 0
225 251 -352 0
-173 -177 -446 0
-20 130 -294 0
-372 389 -404 0
-199 250 -439 0
-47 109 178 0
-10 175 261 0
89 -149 316 0
97 -349 381 0
210 -368 413 0
-198 345 350 0
-56 -174 378 0
62 -227 302 0
-242 -297 362 0
37 308 351 0
-54 231 361 0
-159 300 322 0
179 -239 431 0
172 -289 -299 0
128 -161 415 0
-142 197 208 0
-103 218 -270 0
-70 -106 -402 0
-72 -74 -446 0
-55 -242 -350 0
-209 282 -421 0
-178 -185 -432 0
241 -351 -418 0
57 -138 200 0
-106 -126 220 0
-104 -278 357 0
-9 -230 430 0
82 147 -429 0
32 34 367 0
27 -338 345 0
242 342 381 0
-75 -333 -355 0
-302 -331 -372 0
95 156 309 0
236 -374 -405 0
-120 -224 -308 0
-343 354 407 0
92 153 -315 0
129 -276 -447 0
261 -303 362 0
-219 400 -447 0
-75 -331 347 0
99 366 434 0
38 232 296 0
-44 250 415 0
8 229 442 0
34 49 432 0
45 -143 -235 0
-5 31 394 0
-99 -159 -271 0
-145 -259 -420 0
204 240 -277 0
-274 -318 -378 0
-96 336 -362 0
-159 -248 -354 0
-20 244 318 0
-26 117 -297 0
70 135 -348 0
4 -77 447 0
74 90 -424 0
-261 272 -434 0
162 334 403 0
-7 -24 324 0
112 -180 325 0
132 283 432 0
118 131 177 0
-45 58 -308 0
-63 285 -339 0
211 247 313 0
112 -134 149 0
175 -342 379 0
-115 -155 -217 0
220 -274 -316 0
278 -422 -445 0
76 322 419 0
-15 -239 -274 0
-181 -293 -433 0
-143 -144 -206 0
-36 -96 -430 0
67 126 421 0
136 -211 306 0
168 334 436 0
83 -132 395 0
117 -127 252 0
210 243 361 0
-7 -252 445 0
229 -241 -379 0
-254 -295 334 0
58 -170 276 0
-80 243 -278 0
189 209 -236 0
-68 -133 -150 0
-116 -172 432 0
260 -364 406 0
-219 -281 429 0
-61 64 -173 0
-162 -232 -405 0
100 -306 -340 0
134 197 -225 0
-105 211 -384 0
-121 304 323 0
7 178 -368 0
39 249 -349 0
43 284 392 0
-1 -21 392 0
-327 -351 -433 0
10 -264 277 0
139 -178 -436 0
86 -122 189 0
70 -383 398 0
-116 -244 419 0
166 -296 368 0
10 -333 425 0
145 -338 -426 0
-42 -233 -403 0
152 159 -395 0
-81 237 294 0
-12 -20 403 0
78 224 303 0
-13 236 304 0
-185 389 -390 0
-166 -363 381 0
-209 -230 266 0
-25 60 254 0
-85 -154 -379 0
-102 -301 -359 0
-1 -248 -299 0
168 -308 -400 0
153 176 405 0
7 -69 -195 0
-55 -100 438 0
85 169 391 0
-81 -179 -326 0
-58 153 223 0
-177 -209 258 0
34 263 265 0
21 -131 240 0
-178 249 -284 0
213 -268 295 0
-90 -124 312 0
77 109 134 0
51 -91 -370 0
84 -290 336 0
-27 185 208 0
226 -264 389 0
120 165 291 0
-112 -196 221 0
-86 -129 -309 0
-143 274 371 0
-382 386 388 0
185 -254 -332 0
125 237 -280 0
-315 -319 -422 0
-62 242 300 0
198 238 310 0
27 -39 300 0
203 427 438 0
47 -242 395 0
-107 -221 347 0
140 -165 -236 0
51 -186 -438 0
28 -180 215 0
141 -218 383 0
-137 -180 356 0
21 -167 -266 0
41 143 263 0
29 -150 -170 0
-312 337 -412 0
-64 -296 -359 0
88 -188 415 0
-211 330 406 0
-189 -291 386 0
-42 182 318 0
109 212 334 0
252 353 -410 0
34 -140 -165 0
-25 324 400 0
-37 -204 -320 0
183 -288 301 0
-43 87 -399 0
-60 229 -346 0
-79 -231 244 0
204 -218 433 0
42 -132 238 0
135 -186 309 0
77 -113 258 0
-68 405 410 0
-123 159 -231 0
31 388 -446 0
-187 290 -352 0
-113 352 416 0
15 -304 400 0
291 324 -396 0
47 -55 88 0
-246 -277 400 0
-183 -374 400 0
123 -261 -380 0
72 235 440 0
-134 333 409 0
26 -384 403 0
-115 -255 401 0
-119 -280 -414 0
-72 -419 437 0
-248 290 -321 0
92 -108 263 0
299 316 427 0
-138 -316 412 0
28 145 -163 0
-299 399 418 0
105 -220 371 0
2 183 192 0
5 -268 -378 0
112 245 -272 0
-33 -106 401 0
-61 -258 374 0
-72 -161 442 0
157 -163 322 0
-36 66 -389 0
176 -297 327 0
232 -325 -384 0
5 242 426 0
-65 219 346 0
-29 -125 -141 0
-16 -105 -299 0
223 312 380 0
-104 -339 -350 0
-82 174 181 0
139 261 340 0
-250 -287 -417 0
188 225 317 0
103 -114 -254 0
-342 367 395 0
-236 288 -394 0
128 139 -438 0
10 135 -171 0
-104 348 432 0
72 -128 365 0
-10 198 -208 0
-207 -317 -324 0
-92 -96 431 0
-84 197 385 0
159 -374 -436 0
-14 -241 393 0
90 -158 275 0
-67 -208 -258 0
-183 216 231 0
329 338 364 0
27 -65 -150 0
199 -231 -372 0
-29 83 221 0
23 64 -403 0
-203 270 -445 0
-165 -258 -440 0
-64 -352 414 0
89 -123 -141 0
42 -334 -418 0
174 323 337 0
105 124 -227 0
99 209 -314 0
16 -214 317 0
159 195 260 0
-12 -61 -144 0
65 -109 378 0
-5 -106 -313 0
87 -326 -405 0
-270 296 385 0
83 110 -287 0
189 -224 -288 0
380 -404 418 0
157 -209 440 0
-141 399 -438 0
149 -174 263 0
226 230 256 0
12 72 370 0
-95 -228 374 0
-240 -346 439 0
-45 -73 203 0
205 261 -423 0
45 -244 257 0
52 -156 224 0
-259 364 401 0
18 -21 -443 0
90 -278 -299 0
-122 145 -293 0
-33 84 -229 0
-98 246 272 0
-168 -211 329 0
93 382 -400 0
-129 -241 -440 0
341 -368 -383 0
-118 -154 426 0
85 -130 -180 0
96 217 419 0
-279 -400 -441 0
219 253 297 0
26 -364 381 0
-101 -418 444 0
21 288 -319 0
182 -334 384 0
-172 432 -435 0
-18 -76 367 0
-105 232 243 0
224 273 -284 0
-76 281 432 0
-52 -132 -148 0
57 85 -144 0
-16 -142 -251 0
-277 298 348 0
47 -193 -381 0
29 87 -187 0
29 272 -407 0
-4 124 435 0
-45 -233 284 0
137 294 -307 0
-30 296 306 0
76 188 433 0
-144 -303 384 0
123 -321 -323 0
-145 232 431 0
135 323 350 0
93 -275 -438 0
-87 122 149 0
-151 -272 -413 0
-73 -198 287 0
71 -104 175 0
3 -105 251 0
249 -321 338 0
137 211 -448 0
-26 -399 -420 0
4 -7 434 0
26 230 386 0
-87 -161 222 0
153 171 -308 0
11 -42 137 0
-88 -108 233 0
223 -412 435 0
-149 199 -356 0
-47 -323 -445 0
21 -25 -141 0
11 -50 75 0
35 274 402 0
88 259 328 0
118 271 443 0
171 222 -365 0
50 -138 299 0
-11 -166 -221 0
121 176 397 0
-85 219 -231 0
-155 293 -416 0
-7 -85 307 0
-63 127 -307 0
-130 180 -302 0
-205 307 406 0
51 260 323 0
205 -263 408 0
74 135 -191 0
-40 -191 205 0
227 330 -397 0
48 162 -308 0
-78 82 -298 0
236 328 -450 0
-328 -341 -410 0
93 390 -436 0
-55 192 325 0
-183 -237 -269 0
-238 379 -423 0
1 230 259 0
34 -357 445 0
194 307 -389 0
-381 -398 -437 0
21 92 159 0
21 188 -299 0
178 -255 413 0
-224 -316 385 0
-197 -215 377 0
-54 -123 -262 0
-11 -164 275 0
-276 308 442 0
49 -125 411 0
43 72 -196 0
31 -299 -431 0
-71 -100 -360 0
106 151 424 0
-194 241 -397 0
-227 286 296 0
-72 148 260 0
-10 -273 365 0
22 -182 319 0
-87 353 360 0
337 -353 -363 0
58 89 100 0
-3 -80 118 0
