p cnf 450 1917
207 259 -377 0
-15 -248 290 0
-288 -375 -376 0
208 250 -395 0
56 114 -300 0
10 277 383 0
115 350 -411 0
-148 -183 -298 0
-48 247 -396 0
251 -276 -414 0
33 133 187 0
-67 184 -299 0
-117 184 -256 0
-190 -197 217 0
43 -81 -262 0
-4 7 305 0
356 387 -400 0
-98 163 225 0
337 -353 -388 0
-196 -221 400 0
-5 -132 255 0
48 85 -185 0
-78 -270 433 0
-228 230 285 0
54 -62 209 0
-20 333 -413 0
63 281 403 0
-37 298 397 0
-148 285 330 0
-159 181 266 0
-21 229 365 0
-4 -96 -411 0
33 168 -229 0
-188 206 -409 0
-41 111 -236 0
275 288 -413 0
92 251 -275 0
-128 -300 411 0
319 -369 -372 0
-208 -347 -443 0
-157 -189 392 0
-158 -193 324 0
-125 217 -246 0
-225 -234 -372 0
-110 -195 420 0
-113 118 -345 0
130 -307 -335 0
-70 -175 -443 0
138 -177 310 0
-19 164 256 0
65 141 317 0
3 79 -204 0
51 107 152 0
-170 -219 378 0
372 424 441 0
33 37 -204 0
-49 -246 412 0
-16 -399 414 0
-132 134 -347 0
-51 70 -230 0
48 292 310 0
-221 239 -336 0
-150 235 370 0
302 -312 388 0
150 -181 279 0
30 -107 364 0
173 259 -413 0
211 244 286 0
-69 193 -440 0
-132 -208 -349 0
106 -115 243 0
-160 -276 -321 0
-34 73 -284 0
289 291 -406 0
-175 230 -361 0
116 -171 181 0
-116 -336 -342 0
102 -340 398 0
-136 -361 371 0
30 337 -342 0
19 -56 166 0
-257 280 372 0
-86 -99 -278 0
245 -313 -386 0
125 334 -381 0
227 -309 -447 0
40 -58 -386 0
-42 -410 -443 0
148 222 -315 0
229 -345 387 0
34 95 261 0
-152 -284 442 0
136 -170 -337 0
-100 -422 -445 0
-10 142 269 0
-20 184 446 0
-101 357 -409 0
-82 -156 367 0
9 238 -299 0
50 -83 394 0
-137 310 -320 0
48 -257 377 0
126 286 309 0
163 -294 325 0
74 -193 273 0
-6 152 -374 0
64 -355 -424 0
-122 185 -212 0
109 335 -337 0
96 -132 416 0
207 259 375 0
8 -316 -318 0
290 -381 -443 0
-214 -322 -383 0
99 142 324 0
148 206 385 0
70 -242 -429 0
-143 176 -236 0
26 193 217 0
-15 -33 -399 0
38 -144 -306 0
6 292 -325 0
-72 -116 321 0
-117 200 287 0
22 -113 -351 0
179 275 -285 0
-36 -38 -280 0
-28 79 327 0
-103 191 -293 0
103 244 -431 0
-28 325 -390 0
346 385 -399 0
18 -356 -363 0
-35 -185 288 0
-150 -187 -202 0
-176 -347 411 0
172 186 212 0
-248 -331 -402 0
34 211 -314 0
-213 245 287 0
-42 -201 -333 0
33 81 364 0
-20 157 -186 0
73 -128 152 0
-91 132 387 0
158 -218 -407 0
-127 -204 -311 0
39 -163 -301 0
-191 -256 -443 0
-341 344 409 0
-15 -215 298 0
-117 -131 412 0
27 -151 324 0
5 -341 385 0
117 217 365 0
-125 238 241 0
7 -16 350 0
103 151 -341 0
-200 -320 399 0
-94 -102 -373 0
25 -222 -280 0
267 287 408 0
-18 190 210 0
59 -73 185 0
-126 -264 -338 0
-23 187 -358 0
92 -290 439 0
24 36 359 0
28 246 -434 0
13 38 -270 0
35 -235 -248 0
-120 164 -217 0
160 247 -374 0
34 179 181 0
330 387 -396 0
17 254 448 0
-66 152 -198 0
28 -53 342 0
219 261 -449 0
52 -77 -409 0
-17 -41 -406 0
18 127 329 0
-72 116 -129 0
72 -297 343 0
-6 -378 -385 0
72 -158 -262 0
278 289 428 0
180 223 253 0
207 355 429 0
39 140 192 0
243 360 429 0
199 227 373 0
-354 -380 -396 0
-19 -88 217 0
51 287 312 0
-234 437 448 0
-218 -233 244 0
-182 335 387 0
92 -107 -289 0
-34 -200 -273 0
-45 -79 -94 0
149 188 -322 0
26 357 396 0
212 -299 -355 0
292 -333 -365 0
14 306 -449 0
266 -298 -378 0
-101 102 184 0
160 -361 -418 0
-127 -203 -395 0
-310 315 -333 0
47 57 -62 0
-10 145 153 0
-141 -218 -273 0
-107 -209 296 0
290 -308 440 0
-41 121 402 0
-239 -328 -431 0
22 29 -95 0
206 -238 -403 0
161 164 334 0
-261 287 -298 0
-111 297 398 0
-14 -66 -316 0
-52 83 -398 0
12 -25 -383 0
111 -253 363 0
95 231 358 0
-35 -54 279 0
-35 221 228 0
-131 -302 -357 0
120 -287 394 0
-180 -184 409 0
-67 328 -339 0
355 -390 -395 0
29 -35 414 0
-178 223 -417 0
-8 -72 232 0
-24 -254 -431 0
26 -34 215 0
26 -224 -364 0
63 -75 235 0
-144 -249 331 0
-190 318 -444 0
-11 -83 -296 0
39 94 -141 0
30 60 -102 0
70 -166 283 0
32 -200 -286 0
64 -162 408 0
27 184 336 0
-39 99 292 0
-6 31 -427 0
-8 -219 447 0
20 -145 -221 0
-28 83 280 0
91 -220 -379 0
125 -181 252 0
-188 189 312 0
93 -160 335 0
-53 214 -255 0
115 -203 -425 0
292 -295 352 0
-84 -204 -275 0
-46 -141 376 0
-87 -168 300 0
100 309 -414 0
-266 279 -388 0
-205 -234 -434 0
-34 53 -130 0
244 -300 -414 0
-211 -228 284 0
-73 -119 -329 0
191 -331 -426 0
70 -186 -238 0
-219 436 -449 0
159 -386 390 0
218 -228 355 0
53 124 -332 0
-166 -357 394 0
-365 -376 421 0
245 -385 410 0
234 -253 435 0
-145 -251 370 0
102 -122 -366 0
-116 188 340 0
-43 -187 445 0
-55 178 441 0
71 309 -318 0
28 96 372 0
251 -341 385 0
94 136 -413 0
113 -202 346 0
-103 258 342 0
-37 106 440 0
187 -264 441 0
-50 159 272 0
158 205 447 0
-25 -268 373 0
-198 335 416 0
-10 -36 -210 0
100 272 -444 0
166 -366 386 0
-188 256 270 0
-101 265 398 0
-244 277 -326 0
-26 207 -362 0
-24 -272 338 0
-89 -125 144 0
-304 -323 432 0
39 382 396 0
-24 50 -67 0
111 280 -361 0
-56 169 421 0
-112 -234 364 0
-314 -342 -428 0
-190 304 365 0
-45 408 423 0
-35 67 236 0
179 302 -431 0
97 196 258 0
42 -189 283 0
15 72 435 0
-43 -76 339 0
-98 -360 -398 0
230 -314 -436 0
-2 -20 -399 0
15 66 147 0
-259 -314 400 0
152 -208 342 0
53 -78 192 0
231 260 -350 0
108 210 -330 0
51 -207 357 0
-86 190 -197 0
63 334 -404 0
-53 -66 -440 0
76 -89 -93 0
113 -140 374 0
87 -143 -395 0
-237 317 346 0
-145 297 -355 0
159 224 -380 0
-135 -276 -374 0
-182 236 -384 0
-62 65 420 0
-120 -340 -355 0
242 -383 414 0
6 157 211 0
-8 -256 -440 0
-140 -166 244 0
-137 -310 383 0
52 267 355 0
-118 -120 248 0
197 -242 -378 0
-29 91 371 0
-105 310 -341 0
-83 144 368 0
-53 234 387 0
141 -187 250 0
189 208 295 0
-289 -322 -406 0
142 315 439 0
80 -165 -238 0
-308 388 -434 0
43 208 -409 0
280 419 -445 0
190 -278 370 0
-123 -205 262 0
-33 325 -441 0
177 -238 -425 0
139 212 347 0
4 154 373 0
-184 -425 -432 0
-138 304 -324 0
83 153 378 0
59 -228 -363 0
285 -355 408 0
53 -171 247 0
-231 -254 -266 0
23 -210 -371 0
-79 -233 396 0
36 354 -380 0
333 338 423 0
123 -152 -243 0
11 283 -323 0
-2 -374 415 0
24 117 229 0
71 -158 -366 0
7 -352 -436 0
-138 -184 -420 0
76 117 -430 0
-14 -48 -391 0
-197 -351 -412 0
235 -333 348 0
12 -51 -355 0
2 53 -421 0
-5 294 -430 0
115 -419 -424 0
-169 388 440 0
6 202 410 0
74 199 375 0
-210 -215 -365 0
-135 -238 442 0
-56 107 231 0
-68 -122 123 0
108 272 -334 0
-124 138 412 0
150 -275 295 0
-107 -220 -349 0
229 356 413 0
40 66 -345 0
52 -382 400 0
-19 -175 -276 0
-2 -144 -202 0
285 318 395 0
-423 -433 -447 0
-358 426 441 0
150 -158 259 0
12 -126 -290 0
-72 -259 407 0
-3 146 -357 0
-181 -261 282 0
114 288 -418 0
353 402 -408 0
-134 -324 355 0
57 -166 -213 0
-216 262 -277 0
-39 -256 437 0
-64 165 -376 0
45 176 397 0
17 -126 396 0
-16 -266 337 0
-29 -37 74 0
-4 393 -411 0
-124 310 344 0
12 -23 381 0
206 -244 -268 0
114 216 -448 0
-118 -220 -368 0
-85 298 446 0
12 252 253 0
18 -140 192 0
27 -114 391 0
-172 186 -352 0
-49 -95 -171 0
-108 167 -298 0
-66 203 336 0
258 -294 342 0
31 205 -228 0
-11 -23 -343 0
98 351 -386 0
93 -350 432 0
-231 311 409 0
178 -371 -406 0
63 130 -267 0
66 97 402 0
296 -370 386 0
52 290 -367 0
44 86 449 0
-24 -131 -391 0
51 -391 -403 0
-294 302 -357 0
58 211 351 0
103 -136 291 0
31 -164 -247 0
-66 191 380 0
228 377 388 0
106 405 415 0
-26 -50 -153 0
181 -229 -345 0
-233 274 408 0
-5 -14 296 0
-187 -286 -299 0
123 125 -304 0
103 -377 -403 0
48 -230 348 0
68 273 -440 0
77 82 -220 0
-52 70 328 0
87 -282 -325 0
-31 306 -322 0
89 165 -230 0
126 -212 383 0
-124 -236 -366 0
33 -53 169 0
51 53 149 0
194 -285 407 0
41 224 -282 0
-15 -181 -337 0
90 235 -400 0
-84 158 -412 0
-21 -23 -85 0
115 -324 -430 0
-156 -389 440 0
217 293 424 0
-196 214 -375 0
114 -193 -419 0
-132 399 -425 0
-189 -234 259 0
-9 92 -158 0
-211 -295 -333 0
50 102 -269 0
175 334 439 0
110 186 -335 0
-354 -366 436 0
150 -238 368 0
-52 188 -301 0
-82 -120 403 0
-171 267 -309 0
108 260 430 0
168 182 299 0
-70 97 249 0
-90 179 359 0
-107 -173 -245 0
-4 -277 -360 0
348 -378 450 0
-263 -403 424 0
-186 348 -376 0
26 -28 -419 0
76 85 -246 0
58 157 -246 0
9 -219 -220 0
-43 269 -314 0
26 -304 321 0
-156 250 402 0
200 245 314 0
173 225 -385 0
20 209 366 0
209 -279 446 0
-131 225 -331 0
-4 -127 185 0
-20 80 -433 0
-223 -289 422 0
-67 -80 -436 0
-131 -272 392 0
76 -185 -193 0
-165 -233 293 0
-69 -209 -214 0
-111 305 426 0
-32 -298 421 0
51 -275 295 0
256 -442 444 0
202 288 383 0
-148 -346 -382 0
-167 260 -367 0
11 168 -174 0
-265 -344 -372 0
100 136 -402 0
-234 -347 407 0
-180 -229 -407 0
62 -116 -230 0
-164 302 -367 0
-114 -172 352 0
106 369 371 0
-192 334 407 0
-89 -188 211 0
-15 -128 281 0
56 -303 341 0
30 205 -402 0
-172 285 382 0
-186 253 390 0
190 326 396 0
-215 -261 383 0
164 421 442 0
85 -285 441 0
-114 -379 399 0
-93 223 -421 0
33 79 324 0
-27 121 -141 0
-139 -150 -184 0
-159 340 341 0
-112 -176 180 0
-49 -115 -126 0
-132 -160 -446 0
-33 -197 323 0
34 43 191 0
-60 312 362 0
101 144 357 0
220 -232 321 0
138 -296 -317 0
-213 -318 388 0
212 383 408 0
307 -333 -355 0
-47 -69 -275 0
348 444 445 0
-93 -369 370 0
-77 -138 -403 0
132 165 -233 0
-273 -359 -386 0
198 284 -362 0
132 235 -316 0
-129 377 415 0
42 -43 -60 0
-112 -193 323 0
60 -90 -143 0
-106 -114 426 0
240 -343 -366 0
52 -137 214 0
239 -340 -376 0
107 -296 -308 0
-46 180 418 0
5 -167 -366 0
-70 -115 -182 0
45 -210 -266 0
-52 85 -286 0
-221 281 -429 0
12 86 -202 0
-133 245 -446 0
-281 -300 338 0
-30 -118 -199 0
3 268 444 0
-59 -249 267 0
68 -319 -325 0
-214 275 -341 0
-77 -307 401 0
2 -20 -358 0
-99 -303 423 0
116 -286 417 0
28 -110 179 0
-79 377 -410 0
-93 -150 430 0
-180 219 -417 0
181 -295 415 0
136 154 -423 0
81 -358 -397 0
158 -178 279 0
-310 322 -342 0
-52 -80 -285 0
-51 70 -433 0
259 -296 -410 0
-28 -210 -320 0
-96 130 -214 0
-211 -215 395 0
7 -98 229 0
-158 355 402 0
-34 190 -240 0
216 -319 -441 0
90 111 -178 0
-106 -150 -226 0
-86 214 353 0
12 320 430 0
227 -273 -423 0
-289 308 352 0
46 -269 -286 0
-88 -191 372 0
-131 143 199 0
82 -318 427 0
3 386 391 0
243 349 -366 0
366 410 432 0
-77 226 -281 0
-28 355 445 0
62 -343 -360 0
74 182 357 0
211 -295 321 0
-282 -315 -362 0
238 379 -439 0
98 -105 231 0
-280 311 351 0
46 -108 -195 0
34 -150 316 0
-243 -264 379 0
-46 227 248 0
-45 -240 360 0
-245 323 -399 0
-86 198 -384 0
-113 134 -236 0
87 -317 -398 0
-178 -447 449 0
-230 407 419 0
2 -67 152 0
110 -198 -381 0
-277 289 -334 0
-66 257 371 0
-236 376 -399 0
187 272 304 0
170 -185 -397 0
-94 156 -419 0
135 -168 412 0
-39 -112 -219 0
60 -228 -408 0
-153 163 -169 0
141 204 424 0
2 230 384 0
-57 323 -401 0
-208 -280 441 0
85 271 279 0
-294 -348 445 0
8 120 345 0
-79 -165 -443 0
325 -379 -438 0
254 269 -295 0
-29 224 -299 0
51 -273 339 0
256 368 374 0
-262 271 383 0
-110 -329 -422 0
193 238 441 0
-6 -84 324 0
-38 309 361 0
115 -251 -285 0
19 -217 -445 0
-36 66 111 0
321 -378 -433 0
32 -168 419 0
-52 297 -354 0
36 120 369 0
19 67 352 0
5 -37 -406 0
249 -333 365 0
-156 -371 -375 0
188 -306 358 0
72 -94 -279 0
191 -236 411 0
-57 117 138 0
-16 93 -281 0
85 -128 -293 0
14 -107 443 0
-261 -274 -424 0
-185 -235 -276 0
60 209 367 0
-153 156 -385 0
230 271 -403 0
-11 -208 316 0
112 390 406 0
-167 -171 189 0
56 -159 -271 0
-43 -155 -371 0
17 180 183 0
-24 -244 -382 0
-209 369 -426 0
232 -272 319 0
-117 150 365 0
109 423 446 0
291 387 437 0
86 -337 450 0
-134 345 424 0
-13 -115 -286 0
171 269 372 0
66 -255 -277 0
72 214 -323 0
-71 140 437 0
-31 144 259 0
121 -226 266 0
-86 -133 -450 0
-221 -321 371 0
-139 -258 288 0
31 -121 -272 0
-110 243 373 0
13 -142 -264 0
64 118 163 0
-4 32 -221 0
-11 -232 -308 0
192 309 -394 0
-138 292 448 0
246 418 -434 0
129 -207 407 0
-339 341 398 0
71 -240 334 0
105 -145 341 0
-160 -240 253 0
-81 -307 439 0
-90 -229 -342 0
124 -181 -264 0
293 -362 363 0
12 -245 -351 0
56 125 -204 0
148 184 -335 0
-105 -238 432 0
243 414 -424 0
170 204 -283 0
21 -29 372 0
-113 -198 -289 0
-110 130 203 0
-106 127 -411 0
-21 -44 150 0
-7 -316 -394 0
111 297 -326 0
-112 -261 -317 0
188 -201 -353 0
-1 50 209 0
-91 -185 186 0
116 -293 -431 0
8 137 282 0
-115 -257 397 0
300 371 441 0
119 -199 237 0
174 -184 332 0
80 193 -224 0
-39 174 258 0
-73 -93 -160 0
-224 -367 -438 0
-192 -342 408 0
90 -389 -443 0
76 291 -373 0
-94 311 -416 0
43 113 -409 0
87 261 283 0
-101 122 -421 0
150 208 305 0
-167 -277 318 0
-146 164 -393 0
204 244 -334 0
132 -165 327 0
-16 -181 448 0
-97 117 406 0
25 -178 -389 0
-13 -97 194 0
207 -397 -423 0
212 -299 337 0
27 -139 -143 0
14 -25 416 0
34 -346 383 0
178 327 351 0
-163 -374 424 0
-166 397 -450 0
147 -198 -250 0
126 138 -418 0
94 156 443 0
-85 -204 -265 0
11 -195 202 0
181 -319 388 0
-94 287 389 0
-92 161 -396 0
206 -279 449 0
-124 205 263 0
103 303 361 0
-14 205 -320 0
183 341 -365 0
-119 163 235 0
130 -144 333 0
183 357 412 0
15 86 230 0
-144 -292 -409 0
-77 -294 407 0
51 154 249 0
-14 86 -142 0
-162 212 343 0
-67 -82 91 0
325 405 -443 0
43 -106 296 0
186 -368 -382 0
-253 348 -412 0
158 208 306 0
43 128 -380 0
143 -238 -409 0
169 -359 -396 0
-15 -21 -268 0
12 42 44 0
-170 230 -432 0
-49 243 253 0
-51 -274 421 0
42 296 -370 0
37 234 -307 0
-71 -129 253 0
144 -285 415 0
13 100 -310 0
-11 -343 -366 0
-66 -213 391 0
61 176 192 0
78 -85 365 0
-101 -381 -437 0
60 361 -406 0
-5 296 444 0
-99 -134 -436 0
356 377 -434 0
-33 145 314 0
-74 -122 239 0
-290 -338 -445 0
64 169 -316 0
201 -298 -319 0
26 -254 -351 0
-57 -66 -80 0
-60 -128 -250 0
-83 296 -385 0
49 319 342 0
-45 -250 -319 0
51 210 445 0
80 -187 411 0
4 157 201 0
238 350 -436 0
-38 -408 -428 0
-132 190 -271 0
-55 -77 445 0
-104 -163 390 0
-149 -169 176 0
-126 -141 -335 0
-19 380 -407 0
73 -293 391 0
128 -179 -325 0
-126 -288 -322 0
57 -78 388 0
-45 -67 216 0
-26 229 262 0
98 -108 192 0
68 -299 -418 0
188 -209 -227 0
-130 248 258 0
-179 321 346 0
34 -41 -291 0
-49 116 -316 0
151 314 384 0
-10 -155 336 0
6 -78 234 0
-113 -208 407 0
-81 -170 244 0
-28 291 350 0
118 -295 364 0
-91 317 -399 0
-62 224 -372 0
-131 -174 -397 0
56 -84 -146 0
-54 -357 444 0
333 340 392 0
43 56 123 0
-131 -133 -257 0
4 -370 380 0
-52 250 -371 0
128 -139 407 0
53 -224 441 0
-186 -291 -432 0
-11 -196 -283 0
94 119 -375 0
94 -380 384 0
-64 236 444 0
16 168 215 0
171 -296 353 0
41 82 170 0
4 -122 318 0
45 -102 -143 0
88 256 318 0
153 179 -282 0
-93 -122 -194 0
-50 -63 223 0
79 -150 -337 0
263 281 414 0
306 382 428 0
-304 -322 389 0
-88 -89 420 0
42 93 -404 0
124 -313 445 0
-94 -125 358 0
-59 -324 -325 0
94 -164 395 0
-119 -152 449 0
-65 272 -431 0
82 -151 330 0
-338 408 416 0
-82 -139 367 0
52 -116 187 0
-269 297 442 0
-16 320 -427 0
26 256 375 0
37 129 -273 0
-66 177 -195 0
-122 126 367 0
105 264 -279 0
-65 -224 325 0
270 -341 -408 0
24 84 -271 0
39 299 433 0
77 -275 304 0
16 -33 387 0
-176 207 305 0
-17 -41 -199 0
-111 154 266 0
-84 388 416 0
48 -187 295 0
42 75 232 0
53 362 420 0
2 70 299 0
326 -384 445 0
84 114 -124 0
-89 352 -409 0
187 -269 314 0
144 -297 -404 0
-91 370 -372 0
89 296 -357 0
-83 119 422 0
-46 126 -390 0
193 237 -334 0
114 -168 -268 0
165 -258 -382 0
-137 279 -348 0
-83 259 373 0
-69 221 -369 0
136 250 357 0
-22 -137 343 0
106 -265 350 0
-161 315 -418 0
68 287 -376 0
45 129 -390 0
-131 329 -401 0
-155 -285 329 0
84 -105 243 0
181 -209 -360 0
-149 -421 -447 0
17 -173 -326 0
-221 -279 298 0
75 -223 -313 0
-27 -227 350 0
113 191 388 0
-214 392 397 0
20 -240 -416 0
117 -156 -391 0
266 302 -322 0
64 -194 285 0
-149 378 413 0
-156 207 -340 0
-104 -267 420 0
-105 149 186 0
43 206 -346 0
125 -222 -289 0
-47 -274 -275 0
-106 299 -345 0
-21 -205 381 0
202 -406 -422 0
17 19 61 0
-32 298 -334 0
129 250 -269 0
-21 178 185 0
-118 178 -416 0
181 226 -419 0
-48 -300 333 0
254 271 -358 0
-22 -297 305 0
-20 -250 -341 0
-141 -260 -264 0
-13 80 -397 0
-23 285 -417 0
-250 -268 -354 0
-55 -210 -377 0
-106 235 -306 0
8 -294 -424 0
-11 24 201 0
42 -65 -341 0
136 225 383 0
164 362 448 0
70 213 297 0
-402 -405 413 0
-169 -177 194 0
-75 -109 -400 0
109 -283 -313 0
10 262 -326 0
80 161 406 0
36 42 145 0
108 320 -415 0
-183 218 443 0
5 -140 -231 0
-189 -219 -413 0
-123 -179 -297 0
39 -40 191 0
277 351 406 0
46 -274 -448 0
-221 357 -415 0
-55 119 439 0
138 370 445 0
-150 292 394 0
122 -213 -248 0
-33 163 -271 0
44 273 310 0
-79 -94 -409 0
137 -210 -349 0
118 -121 205 0
-156 -278 -358 0
-309 -416 442 0
-150 350 358 0
-263 300 373 0
155 -332 338 0
331 -407 429 0
100 -150 -313 0
-21 256 266 0
-87 148 -268 0
106 347 354 0
160 183 443 0
-267 -358 -372 0
-60 -158 -248 0
22 -175 -333 0
-9 -296 322 0
90 -231 274 0
-189 -200 306 0
-170 253 272 0
33 -359 -371 0
-352 385 -393 0
-183 -237 -238 0
120 193 259 0
-1 -81 436 0
53 -234 368 0
-135 -270 415 0
-79 -357 358 0
366 371 -447 0
189 -278 374 0
-74 -180 241 0
-160 -202 262 0
28 -321 -389 0
-112 -135 213 0
7 137 304 0
-110 111 -225 0
-15 -246 -360 0
9 230 331 0
-109 -278 322 0
73 -311 -359 0
-13 292 -424 0
65 318 400 0
-257 -314 -392 0
-194 -376 390 0
40 -302 -343 0
-137 169 -203 0
-122 221 436 0
36 -366 -428 0
184 213 265 0
-77 -374 391 0
-174 375 378 0
149 -224 -328 0
222 -351 368 0
355 418 -429 0
119 -168 448 0
8 -35 -430 0
-13 -88 -181 0
-122 124 -408 0
-64 -235 419 0
-149 -322 396 0
-177 -186 221 0
32 -159 -316 0
5 -134 416 0
78 83 433 0
175 -299 -373 0
-167 267 -414 0
-237 -371 377 0
337 -349 437 0
327 -357 -380 0
-24 154 -366 0
-32 -46 433 0
-134 141 180 0
49 -177 -416 0
51 -74 -246 0
-226 -235 -321 0
-110 195 365 0
-54 -102 -162 0
-11 -100 195 0
129 164 -394 0
109 -135 216 0
103 184 -198 0
177 262 286 0
-96 -126 417 0
-211 -331 369 0
138 -315 -442 0
-25 171 -269 0
160 287 -325 0
-150 -238 -260 0
-93 -115 408 0
240 337 399 0
8 -342 372 0
166 312 -435 0
-133 257 -395 0
-193 281 321 0
-35 -129 -436 0
-22 -120 388 0
61 251 401 0
230 -392 430 0
-26 154 -318 0
58 -103 -198 0
88 209 -359 0
9 -261 366 0
203 206 -258 0
105 360 -413 0
-99 414 -435 0
65 -241 409 0
39 44 -176 0
132 -207 -310 0
59 -66 222 0
-183 -227 357 0
44 248 -428 0
14 -124 320 0
-245 277 334 0
133 -358 418 0
171 -202 265 0
83 270 390 0
-108 253 -358 0
-77 -189 -420 0
100 356 418 0
75 -384 -425 0
-77 -127 383 0
-197 -213 -319 0
-100 203 -265 0
-189 262 406 0
23 -31 -362 0
-43 331 443 0
7 184 -403 0
22 125 -186 0
-93 -148 -157 0
84 122 270 0
235 -263 421 0
-91 239 -415 0
15 -121 -127 0
143 147 -417 0
162 -173 424 0
-153 303 -334 0
77 132 367 0
63 348 -406 0
161 -213 417 0
-109 -271 304 0
62 -83 -235 0
-62 74 81 0
104 140 269 0
162 -234 349 0
300 320 335 0
-97 -128 347 0
140 377 410 0
-369 -370 448 0
-149 -234 262 0
-80 82 284 0
-1 62 362 0
-118 -176 229 0
178 213 -295 0
194 -259 310 0
32 -413 443 0
-59 -228 -271 0
169 206 -352 0
-142 235 -450 0
82 -239 359 0
-191 313 -316 0
-43 -162 -266 0
16 -187 -217 0
13 -347 417 0
-48 -303 314 0
-7 128 313 0
-210 -228 -348 0
174 -297 397 0
-31 85 296 0
51 -123 226 0
-58 -292 -387 0
-61 -131 377 0
22 -166 349 0
81 112 -330 0
72 199 216 0
53 -176 -394 0
-96 -297 439 0
43 -347 -365 0
65 218 381 0
81 245 -275 0
-184 -252 -406 0
-44 -55 354 0
-13 -154 -386 0
6 -21 44 0
202 284 -399 0
63 -160 208 0
-97 -207 -224 0
3 -312 408 0
79 -272 284 0
19 37 -112 0
-74 -366 -407 0
8 242 340 0
-13 -266 -334 0
-125 -230 443 0
116 157 167 0
-95 184 249 0
158 218 -329 0
71 136 -338 0
-19 178 332 0
-273 306 -380 0
112 -178 -184 0
-53 -170 -264 0
44 263 282 0
-64 -214 -325 0
-19 196 -357 0
278 -380 406 0
-129 -181 409 0
-81 -214 -270 0
19 -105 -324 0
-70 -168 305 0
-73 293 388 0
-163 -381 -442 0
68 -160 344 0
252 273 -282 0
90 267 -413 0
8 34 207 0
87 -169 -294 0
48 267 -352 0
-107 233 274 0
113 308 309 0
-212 -291 431 0
18 172 -345 0
-94 -313 -433 0
187 -252 -331 0
76 -384 -390 0
80 -152 291 0
96 -118 449 0
129 -281 -287 0
-158 -338 444 0
-196 225 394 0
-161 169 -442 0
7 227 248 0
-100 133 199 0
12 106 256 0
-18 91 385 0
-192 219 -360 0
75 -277 -377 0
-140 -253 -307 0
-101 362 -450 0
-69 237 -383 0
-45 97 -226 0
-17 38 374 0
-291 -327 -345 0
-305 -334 434 0
43 -174 -414 0
49 -85 -149 0
36 91 289 0
197 -211 383 0
77 -221 -410 0
-107 305 413 0
-247 309 -324 0
201 -203 -334 0
132 -151 256 0
-63 255 407 0
354 364 416 0
-3 -49 -170 0
54 -309 -321 0
41 208 292 0
148 -152 -181 0
-13 -176 -377 0
-251 -314 -380 0
-109 -278 292 0
74 122 -130 0
-158 -262 409 0
-93 -306 382 0
70 321 -418 0
9 -244 -276 0
65 -313 -376 0
32 159 -413 0
133 151 -391 0
-152 401 -439 0
-92 -355 -447 0
-52 231 -370 0
-49 189 -248 0
-13 108 400 0
-158 366 369 0
102 112 -290 0
13 -206 335 0
7 -330 -339 0
167 189 -219 0
-25 28 -285 0
56 -129 418 0
-13 256 -360 0
-253 -362 408 0
119 -124 394 0
-24 -127 -318 0
-121 280 377 0
149 180 -212 0
166 214 -242 0
43 -403 440 0
-98 -298 -332 0
51 -186 210 0
84 87 351 0
44 -152 359 0
11 99 422 0
230 419 450 0
-2 72 -85 0
162 -269 283 0
-167 292 376 0
-177 272 407 0
203 -226 -302 0
-68 -131 -156 0
231 -255 363 0
-201 -272 -350 0
-101 -163 -197 0
-33 -286 314 0
127 251 313 0
-53 -148 308 0
-127 -236 413 0
-170 -270 400 0
175 408 422 0
-132 156 309 0
136 -251 341 0
78 -164 -372 0
-312 -365 427 0
-79 -406 418 0
-75 189 355 0
95 -189 414 0
-396 415 442 0
220 299 311 0
-367 413 -415 0
16 27 333 0
42 179 284 0
-329 384 409 0
-29 218 440 0
50 135 -336 0
-33 51 -319 0
-168 215 338 0
112 -145 152 0
75 -247 285 0
233 -308 -391 0
-158 360 449 0
-339 -423 446 0
-133 219 -265 0
18 172 413 0
153 -353 418 0
-273 -284 -430 0
195 403 408 0
143 -372 -441 0
3 111 279 0
44 -163 -214 0
209 -286 340 0
-73 220 -222 0
25 -313 390 0
-70 -195 -351 0
-80 167 -182 0
181 -395 447 0
393 -404 -435 0
-33 60 -288 0
84 -169 -413 0
11 153 -350 0
-14 -144 404 0
-17 315 -328 0
-203 239 -378 0
11 -33 294 0
65 -165 353 0
25 104 382 0
-70 165 442 0
-131 136 359 0
-40 282 -443 0
-143 224 -259 0
29 -131 402 0
118 388 -426 0
-54 95 164 0
89 127 -213 0
-97 273 373 0
63 128 210 0
36 -400 444 0
180 439 440 0
-150 157 -170 0
-44 -123 -445 0
-84 115 -294 0
24 250 279 0
-34 -114 254 0
-18 146 -226 0
-77 -246 344 0
193 -209 -279 0
72 93 428 0
45 -59 -331 0
-100 198 -334 0
-20 32 -293 0
44 -148 -364 0
-31 282 -397 0
-41 199 402 0
-31 -183 207 0
56 -285 -371 0
197 -224 -338 0
-100 242 -307 0
-140 -282 -449 0
30 241 425 0
346 -398 409 0
21 110 303 0
-54 -108 239 0
-171 -382 409 0
51 -136 344 0
-311 -405 -410 0
42 -244 442 0
-1 92 -212 0
34 -77 -94 0
145 384 385 0
-193 -206 331 0
-133 196 -265 0
-87 -383 389 0
342 -392 -397 0
-34 -431 439 0
-45 178 347 0
-91 396 -400 0
-136 199 336 0
124 -189 -320 0
-29 120 337 0
-274 -335 396 0
-262 -311 401 0
24 -226 -440 0
81 264 336 0
-89 -237 -256 0
-62 220 -391 0
79 -210 224 0
51 -310 -410 0
-78 93 365 0
-137 179 318 0
-91 -369 388 0
40 319 -333 0
-136 205 -281 0
57 -94 97 0
33 -329 422 0
280 412 -418 0
64 -397 -449 0
8 -212 366 0
9 -269 315 0
-12 -228 -347 0
-195 -287 449 0
-17 -126 -232 0
131 -180 302 0
46 -270 296 0
-110 170 333 0
170 280 359 0
138 -143 411 0
-217 -262 352 0
-163 -330 -381 0
31 205 -282 0
-238 -316 -327 0
230 -268 308 0
-93 148 -200 0
-46 334 426 0
10 -105 129 0
-187 -213 -299 0
-173 385 424 0
-4 108 333 0
-20 91 222 0
83 192 441 0
101 181 -410 0
-26 -79 -314 0
170 286 -378 0
17 -296 436 0
-197 218 280 0
64 -89 359 0
143 -208 362 0
-83 -306 -438 0
206 -271 -366 0
-86 165 399 0
47 -85 -87 0
8 -10 -297 0
22 383 439 0
-208 -394 -450 0
155 243 -444 0
128 236 -298 0
84 -123 -395 0
-40 53 -437 0
13 -45 -360 0
-193 319 -323 0
-22 -233 357 0
128 -201 295 0
-150 -154 425 0
-111 -309 345 0
43 87 105 0
114 162 334 0
67 -103 -441 0
-40 -42 -68 0
90 -208 280 0
-287 -330 -413 0
35 -48 362 0
-28 -298 -430 0
113 244 292 0
58 344 -414 0
264 -284 447 0
215 -255 401 0
-66 93 -366 0
-68 82 447 0
101 -114 203 0
157 -248 375 0
290 292 437 0
60 -66 309 0
-125 178 389 0
-111 160 -388 0
213 284 -355 0
-150 -245 362 0
150 242 337 0
96 261 -310 0
-153 -346 -380 0
-214 -320 -366 0
178 370 -407 0
-173 221 332 0
180 186 368 0
-108 -126 144 0
124 185 409 0
-48 -71 -327 0
-29 -371 442 0
53 -121 -162 0
-20 252 370 0
93 -348 -406 0
-98 -183 320 0
-299 -332 334 0
127 251 283 0
16 -351 -364 0
-20 381 -420 0
49 -280 -401 0
-169 -353 401 0
131 -408 420 0
231 -403 -441 0
-13 136 -150 0
5 -49 111 0
-211 -241 386 0
-122 193 -307 0
98 211 314 0
-198 270 290 0
17 118 439 0
-42 152 435 0
-35 -265 -342 0
-173 -202 439 0
-85 259 -282 0
-140 242 -290 0
74 -133 172 0
-178 -195 -440 0
136 -211 -329 0
59 207 445 0
32 119 148 0
113 351 -358 0
48 373 -446 0
177 -344 -395 0
-121 -333 -444 0
70 213 388 0
-20 -144 439 0
-254 400 -411 0
45 -354 -365 0
-188 273 343 0
-104 -143 228 0
131 -330 -364 0
-243 369 -409 0
-174 -295 -336 0
-110 -264 368 0
19 -121 -250 0
99 -292 371 0
339 347 365 0
92 -124 -160 0
248 399 437 0
81 270 -434 0
140 -312 -331 0
178 263 296 0
-5 375 418 0
3 -18 -196 0
5 116 184 0
7 180 -361 0
264 372 381 0
-37 128 185 0
-273 -357 409 0
133 160 343 0
103 153 290 0
20 204 -303 0
22 -28 -344 0
-16 32 -335 0
-189 -293 383 0
40 -168 248 0
-72 77 186 0
145 160 432 0
-49 -137 -290 0
-289 -336 -438 0
42 140 -398 0
330 388 410 0
-22 -116 259 0
302 -383 444 0
112 203 -252 0
103 -279 -320 0
-77 100 -161 0
-254 304 -315 0
-115 222 -309 0
-133 146 180 0
95 234 433 0
52 -163 383 0
189 -327 431 0
-18 95 -107 0
199 222 -327 0
-361 -390 431 0
-99 363 -371 0
-81 -382 408 0
-107 -219 -266 0
176 348 -397 0
-97 -223 414 0
-186 312 -341 0
-125 -291 327 0
134 -148 338 0
-23 -55 -64 0
-31 -337 338 0
247 256 422 0
-299 -355 435 0
59 145 -193 0
-86 -214 246 0
-150 320 361 0
80 276 344 0
-160 -186 268 0
224 -225 421 0
-27 112 -421 0
-117 -185 -225 0
-55 -100 -176 0
-6 -183 435 0
-32 -155 -275 0
160 360 429 0
-146 -388 430 0
293 303 324 0
-253 264 -344 0
-130 269 410 0
183 364 397 0
73 -136 -441 0
-91 96 -428 0
-119 212 315 0
124 345 371 0
112 -125 316 0
139 -179 -344 0
-34 -237 324 0
156 -203 -257 0
31 230 -247 0
-54 237 -439 0
-104 -164 410 0
-94 -247 -284 0
-102 -182 -246 0
-128 -200 -415 0
23 -186 365 0
14 162 -344 0
-67 -185 194 0
-136 -137 342 0
22 188 281 0
77 -268 432 0
116 -341 429 0
-6 188 255 0
21 -233 -254 0
-49 61 -289 0
-71 352 -392 0
-45 -270 -348 0
77 -334 409 0
118 216 257 0
33 -52 375 0
19 -112 291 0
91 259 353 0
1 169 270 0
7 44 94 0
-102 -120 -305 0
-313 -324 -339 0
-124 -342 353 0
40 103 114 0
-26 -158 410 0
33 -115 433 0
77 -372 376 0
44 -256 -304 0
215 -363 -401 0
-115 -209 226 0
-232 -361 399 0
-175 -375 383 0
-30 55 -71 0
-63 -78 -228 0
-38 -291 400 0
19 -309 380 0
214 -297 -416 0
29 76 -296 0
-97 -394 -417 0
-1 -206 247 0
-36 -363 -367 0
-1 -79 275 0
71 171 188 0
-245 375 414 0
72 430 -446 0
-33 41 230 0
-31 154 267 0
-57 -416 429 0
137 -173 -323 0
-1 30 48 0
30 92 146 0
113 -195 -420 0
-234 352 -382 0
188 255 347 0
-281 322 410 0
69 -113 -278 0
-177 -205 391 0
-96 -229 248 0
70 232 -373 0
47 153 371 0
-74 -198 407 0
-165 -369 409 0
-206 240 286 0
230 -305 428 0
-108 321 -344 0
161 173 359 0
10 253 450 0
262 -344 -378 0
17 -173 -208 0
-148 -216 -331 0
-20 -180 228 0
-146 205 -269 0
105 -179 -229 0
-112 143 -259 0
-135 374 396 0
82 96 -334 0
129 -348 410 0
-81 -131 -343 0
20 -51 137 0
221 -262 -327 0
253 -296 324 0
220 316 -393 0
269 270 -387 0
96 -131 295 0
80 -238 376 0
22 287 -364 0
2 -123 -267 0
207 257 -420 0
-64 79 -425 0
181 217 -427 0
-33 283 305 0
-116 243 380 0
117 148 -183 0
-76 91 -284 0
116 192 -426 0
174 -179 225 0
15 -231 -292 0
83 -94 431 0
-121 -125 -306 0
-104 334 397 0
37 -200 -309 0
4 -165 317 0
-99 302 330 0
7 -408 -413 0
-164 -217 428 0
-158 298 307 0
-8 183 209 0
70 267 -281 0
149 -180 -311 0
140 220 355 0
-132 164 212 0
-155 250 -323 0
-238 293 -334 0
120 152 320 0
-73 303 441 0
-221 345 361 0
45 248 -314 0
174 -250 -429 0
98 -348 -449 0
-56 -106 223 0
-118 -253 431 0
-128 -250 -370 0
168 -378 -392 0
330 356 388 0
-109 227 300 0
-97 -272 -286 0
112 293 425 0
-143 -237 -431 0
-2 -11 -397 0
4 228 -450 0
-278 -343 -435 0
316 359 -409 0
19 -379 -405 0
-17 -34 253 0
204 239 -296 0
-59 -173 262 0
-116 129 444 0
179 295 308 0
-92 300 387 0
-307 311 -405 0
-216 -286 -427 0
78 323 382 0
-331 365 -392 0
110 269 433 0
-123 -156 256 0
-84 263 424 0
31 -171 400 0
75 -98 -342 0
59 -71 -316 0
94 -291 413 0
-99 -293 425 0
-40 362 367 0
-26 236 330 0
-84 -193 341 0
198 214 324 0
-149 -240 413 0
-11 240 442 0
-152 199 -223 0
-36 139 216 0
-136 -199 320 0
251 253 280 0
-89 -165 -369 0
188 -202 437 0
-20 371 -393 0
48 93 -309 0
-130 165 447 0
144 -309 340 0
269 308 -346 0
177 -334 -384 0
-97 177 -243 0
95 201 -434 0
92 -315 -380 0
24 162 -189 0
-18 -75 265 0
-107 -265 327 0
17 252 431 0
-326 370 -390 0
69 -105 406 0
279 -358 447 0
152 244 -284 0
10 -196 -439 0
155 206 338 0
-9 -173 175 0
-3 68 277 0
112 118 -403 0
85 209 245 0
-16 269 285 0
33 -36 450 0
-92 -102 374 0
-213 341 -412 0
-177 -431 -445 0
-6 180 441 0
251 -318 424 0
-98 138 -354 0
95 -233 275 0
-158 205 -268 0
-201 215 -414 0
-32 -317 375 0
408 423 -439 0
-127 158 -367 0
-8 -110 407 0
-21 365 402 0
155 189 -275 0
-259 282 -391 0
-2 352 380 0
173 204 428 0
-26 -30 -70 0
139 244 -371 0
-17 123 -321 0
-90 -295 -417 0
138 -254 261 0
-136 193 -322 0
-152 -315 -387 0
-104 137 329 0
76 258 334 0
94 230 -285 0
151 381 418 0
-61 -148 296 0
269 327 -385 0
-81 165 317 0
-240 -298 370 0
