p cnf 450 1917
189 375 -426 0
108 -171 -361 0
4 18 -406 0
-17 -181 -322 0
-207 -375 -435 0
-230 -312 407 0
-150 301 399 0
43 220 -288 0
113 266 445 0
-75 103 297 0
268 -432 444 0
-5 52 -264 0
-34 343 355 0
293 401 449 0
-294 352 383 0
98 283 -413 0
116 -196 -447 0
33 -234 -302 0
-64 -159 263 0
-121 251 287 0
-185 -309 443 0
19 -307 -319 0
55 220 -350 0
29 342 -344 0
18 -28 268 0
-12 188 -416 0
178 371 391 0
47 -115 360 0
-232 -376 -383 0
15 292 296 0
92 -118 -145 0
-16 371 -389 0
45 -340 -407 0
213 -256 -272 0
-60 133 314 0
52 -159 -357 0
180 -245 368 0
105 -149 444 0
103 -116 -121 0
-64 279 350 0
24 197 -328 0
-96 -252 -268 0
185 -281 327 0
119 -187 -308 0
342 354 -359 0
151 -188 341 0
-99 320 -443 0
46 140 -232 0
115 -226 -273 0
-62 -92 371 0
205 257 -401 0
-78 163 -279 0
-144 201 292 0
126 202 -261 0
67 197 -240 0
-320 -378 -434 0
-151 -411 445 0
-48 -164 -448 0
-149 163 -331 0
106 -203 428 0
-27 148 -225 0
49 -189 355 0
27 325 -394 0
-43 273 444 0
86 -194 -317 0
-170 187 209 0
53 125 252 0
222 255 -269 0
152 -170 -236 0
-29 217 435 0
87 -219 440 0
358 -409 -429 0
42 -83 -119 0
-26 -211 -441 0
50 -330 -393 0
-86 174 290 0
-62 351 -400 0
-166 -281 417 0
54 264 -308 0
106 -435 448 0
-124 -145 -390 0
-163 286 -377 0
-193 301 387 0
84 147 219 0
192 -205 283 0
-94 -115 -219 0
-21 119 -214 0
126 -236 333 0
-115 -184 263 0
-9 -387 412 0
27 66 275 0
22 39 -369 0
57 158 324 0
71 198 367 0
1 35 -345 0
1 354 -371 0
-165 330 351 0
357 -363 417 0
-230 -233 -428 0
-116 296 -377 0
104 -327 -348 0
46 311 398 0
-69 317 -404 0
48 63 -354 0
-84 -187 -192 0
7 -159 426 0
-283 354 449 0
-184 -369 388 0
-22 -225 -332 0
-10 295 386 0
126 -146 211 0
13 -278 403 0
240 -358 -426 0
-62 -89 -226 0
151 287 -393 0
167 -333 343 0
73 -343 376 0
27 -37 64 0
251 -295 -301 0
21 99 439 0
-16 19 -223 0
-122 -209 264 0
306 -359 -420 0
-28 -86 334 0
7 -145 -151 0
94 98 -407 0
-118 139 -328 0
6 53 -374 0
-10 258 -351 0
48 -143 168 0
55 -273 334 0
7 410 426 0
-48 80 -396 0
-97 133 444 0
179 200 -290 0
-18 131 351 0
147 208 -405 0
-251 -276 -411 0
15 92 212 0
64 -122 -270 0
-377 399 433 0
104 248 341 0
-377 401 427 0
-135 -342 -406 0
52 265 294 0
-166 294 311 0
196 -273 431 0
59 -228 335 0
28 175 -352 0
-4 -345 -396 0
-101 -337 -449 0
279 -323 -406 0
56 106 205 0
186 -213 345 0
-10 -168 268 0
-102 -281 410 0
-89 -126 -344 0
-78 -89 158 0
-2 -330 361 0
-276 391 424 0
37 -282 -327 0
-168 359 424 0
-133 220 -395 0
263 -299 418 0
-198 248 -340 0
-202 295 -412 0
97 -168 -178 0
-194 273 -279 0
219 262 291 0
245 -320 328 0
172 -189 -433 0
74 -96 -243 0
-62 96 -261 0
2 -66 303 0
-107 -223 -321 0
69 345 365 0
-4 196 289 0
-242 246 -449 0
31 362 428 0
125 127 376 0
-63 392 -429 0
-84 -155 356 0
229 277 333 0
-86 -275 -294 0
-58 106 341 0
127 -178 -203 0
-273 321 -386 0
-81 -244 250 0
144 211 218 0
261 274 -341 0
-376 -377 -378 0
-61 68 -194 0
7 86 -405 0
-6 228 -315 0
297 -332 390 0
-77 114 396 0
-25 100 259 0
-80 -133 142 0
-249 327 -442 0
137 255 401 0
-22 170 392 0
-157 276 -443 0
-55 195 247 0
21 -38 -424 0
323 330 -449 0
49 82 -229 0
-24 -187 -227 0
174 198 244 0
65 257 393 0
90 -388 437 0
-99 250 275 0
-80 -121 210 0
-32 130 -285 0
-85 -304 364 0
-139 -388 -392 0
67 126 182 0
-165 250 299 0
62 149 -328 0
92 108 -445 0
-152 -207 220 0
99 -237 401 0
-134 -224 239 0
-8 -39 108 0
-102 187 -290 0
177 221 -338 0
-26 -127 -229 0
-66 -169 415 0
299 383 -425 0
-23 155 -192 0
-47 71 -291 0
329 -373 -413 0
129 147 -442 0
-27 78 -146 0
267 -296 -361 0
209 -238 253 0
-262 306 407 0
-117 170 -259 0
-40 143 332 0
98 156 -200 0
-20 -184 362 0
156 169 -198 0
-13 -78 131 0
54 207 338 0
-174 -253 -401 0
-113 -177 -306 0
-186 379 443 0
112 161 279 0
-252 364 366 0
-9 -151 323 0
-1 171 -334 0
65 -333 437 0
356 -370 420 0
-110 335 -422 0
-8 -9 158 0
54 -283 -298 0
-72 -174 -369 0
-83 -111 238 0
175 -286 -434 0
182 340 383 0
108 -122 238 0
127 -358 -405 0
-20 275 -410 0
-61 -152 449 0
-266 -308 386 0
206 292 -314 0
183 -311 375 0
183 223 -387 0
-93 135 -378 0
-97 -264 -363 0
-48 -206 445 0
169 237 -276 0
37 -190 -439 0
-142 438 -442 0
177 337 397 0
278 295 -331 0
-86 330 -439 0
157 -236 -372 0
34 -199 404 0
-17 -298 434 0
-78 256 -283 0
-44 47 385 0
71 288 309 0
-368 -395 -414 0
-119 -227 344 0
-79 -144 209 0
-69 -165 -239 0
-155 -199 398 0
-194 215 -411 0
159 166 184 0
28 131 265 0
-76 100 128 0
-100 -316 -428 0
31 60 -104 0
90 220 347 0
39 -272 325 0
48 94 -325 0
194 -212 328 0
-25 -233 -403 0
-247 333 -364 0
-127 137 159 0
11 -185 188 0
-262 394 412 0
15 36 249 0
62 -71 178 0
66 -120 -303 0
15 -88 -212 0
-213 -235 379 0
-72 268 -448 0
30 121 125 0
-94 109 -114 0
-170 223 414 0
-10 -287 -403 0
-61 354 -416 0
-40 -153 211 0
-166 -194 -434 0
-88 166 -387 0
-33 -261 383 0
-46 -332 -450 0
63 -192 228 0
36 -190 354 0
224 276 375 0
36 117 -183 0
148 -311 441 0
-1 291 -312 0
132 154 -346 0
-169 -381 -417 0
-148 -183 337 0
-176 360 422 0
196 -211 -419 0
163 -268 -437 0
10 279 446 0
115 153 -236 0
57 -298 353 0
-109 -234 263 0
89 297 -362 0
-26 -137 290 0
54 -266 290 0
98 -268 432 0
-108 -293 -305 0
-150 239 430 0
27 -96 238 0
-217 274 -296 0
71 178 -290 0
172 193 238 0
-111 -139 -410 0
-230 -395 443 0
-5 9 -226 0
-32 237 386 0
-252 -301 323 0
-1 11 -301 0
180 -271 -363 0
69 -252 -399 0
95 116 313 0
46 83 188 0
56 -139 423 0
-60 186 -433 0
112 -373 401 0
158 -261 -295 0
-228 -299 -414 0
-2 -127 340 0
-195 278 311 0
1 194 310 0
-145 -159 -173 0
-134 -160 437 0
126 -312 -321 0
-165 -336 -408 0
27 -249 294 0
177 250 439 0
-3 -111 177 0
-393 420 438 0
-207 341 349 0
5 -266 -284 0
-18 128 306 0
20 352 -448 0
-85 -180 344 0
120 260 -367 0
-34 253 257 0
92 106 384 0
83 141 260 0
-116 337 393 0
57 177 400 0
-152 288 360 0
91 -135 313 0
-103 -238 -404 0
-123 277 443 0
261 -413 439 0
72 323 -416 0
-181 191 -227 0
-35 268 -405 0
-6 382 -396 0
242 -356 392 0
-77 143 -280 0
-75 -168 367 0
106 138 160 0
87 -283 299 0
-152 184 417 0
94 -148 170 0
-23 400 403 0
-21 -237 357 0
243 308 447 0
-88 -298 -355 0
-116 -199 352 0
-39 -100 -374 0
136 200 400 0
220 232 -233 0
-54 -136 -408 0
-63 -305 -413 0
-349 -414 421 0
-27 82 161 0
-19 74 -276 0
-15 25 -447 0
-129 -225 426 0
86 -230 364 0
-71 98 -307 0
-258 -307 411 0
197 -214 -424 0
66 263 -354 0
-98 -155 -215 0
111 380 -444 0
275 -350 -434 0
301 -400 430 0
-295 327 -423 0
24 419 442 0
-73 -150 296 0
6 -69 -156 0
-80 117 311 0
-9 -181 202 0
249 -292 326 0
5 47 -330 0
-86 -132 171 0
66 -392 450 0
-293 320 413 0
-39 132 -423 0
-190 224 425 0
54 124 373 0
36 49 241 0
-151 -211 -402 0
147 240 -275 0
-261 318 358 0
169 -335 -438 0
100 275 367 0
-17 228 -383 0
-115 -312 -315 0
131 -294 -297 0
-11 -148 -363 0
-149 419 -428 0
-35 -209 392 0
150 -219 -346 0
196 -368 -447 0
-4 -51 292 0
-131 -197 266 0
109 141 408 0
157 -257 -351 0
-278 -315 -386 0
-41 297 -352 0
39 -155 -257 0
-29 137 411 0
-43 101 -187 0
-289 -368 429 0
-35 -100 118 0
-319 325 -333 0
-14 -144 -348 0
77 -312 -435 0
110 262 -357 0
-16 19 328 0
38 -191 -240 0
-75 78 112 0
37 -115 -262 0
35 -77 86 0
-270 333 -431 0
-133 -237 337 0
2 267 287 0
10 108 -268 0
255 -277 402 0
-196 220 358 0
-47 242 268 0
167 351 -410 0
-155 -183 407 0
9 -147 314 0
249 -386 426 0
-315 -422 -429 0
329 -408 424 0
65 -70 196 0
73 211 249 0
-199 233 -443 0
96 -145 -288 0
17 305 -418 0
-166 193 -386 0
-14 279 -388 0
-10 -67 -238 0
-86 163 -195 0
-46 291 321 0
-112 -201 -331 0
-119 128 438 0
-155 -177 259 0
-225 231 -237 0
15 -54 208 0
-19 301 362 0
-223 -257 -394 0
-52 228 330 0
80 -240 415 0
260 -350 -363 0
63 331 -344 0
63 150 -209 0
54 350 386 0
105 318 -329 0
74 -390 -428 0
34 -320 -328 0
9 258 421 0
119 331 334 0
14 -100 -205 0
84 -145 -401 0
-95 -274 -423 0
115 139 -377 0
-69 -112 -302 0
166 424 450 0
29 -174 228 0
-16 -59 -119 0
-49 364 -379 0
-44 366 367 0
40 -289 316 0
-65 260 438 0
-94 304 396 0
9 134 -178 0
-81 259 394 0
-7 186 -410 0
173 -222 -260 0
-152 -198 407 0
-23 -87 425 0
246 312 425 0
-157 -374 -389 0
95 -97 -385 0
166 -231 -435 0
-141 326 437 0
8 -117 173 0
-64 165 274 0
51 -123 310 0
-115 -370 391 0
145 -365 -378 0
-125 -301 -394 0
-86 -107 -268 0
113 137 272 0
-196 341 -443 0
145 261 -416 0
60 -295 -352 0
220 -337 -393 0
132 -205 267 0
290 -298 -367 0
-21 81 -257 0
30 245 352 0
-37 250 -383 0
-103 -147 253 0
-140 -192 -343 0
-32 33 -246 0
-127 -223 -442 0
-25 -74 319 0
349 368 374 0
137 144 -167 0
-36 373 -394 0
-255 330 388 0
90 253 362 0
-16 -180 -397 0
-43 -60 -263 0
-70 88 441 0
145 -215 417 0
91 351 -449 0
95 -221 -448 0
77 -111 209 0
21 -196 -292 0
61 -427 -437 0
30 -136 343 0
81 144 -197 0
25 41 321 0
-256 -303 -336 0
-160 -202 -314 0
-2 -219 414 0
-177 -271 363 0
318 354 369 0
11 -174 345 0
190 196 -406 0
-36 -139 -231 0
-227 397 411 0
114 268 426 0
-93 244 -292 0
-8 -294 348 0
58 106 -215 0
29 249 -365 0
-198 -243 332 0
15 -201 257 0
23 157 -437 0
6 334 -404 0
-30 79 209 0
113 -372 -388 0
161 -249 441 0
-96 -230 268 0
-1 261 321 0
38 -164 253 0
5 -41 -431 0
107 -227 -402 0
-100 -341 -408 0
-210 -247 424 0
47 76 220 0
193 -416 -433 0
-99 -223 -415 0
-110 -272 353 0
34 343 -375 0
249 306 315 0
76 186 379 0
195 -246 -429 0
-185 261 433 0
-7 268 -410 0
145 -259 -380 0
-210 221 400 0
261 274 -346 0
-41 84 -342 0
145 164 386 0
-127 -237 441 0
13 -195 200 0
95 -412 -418 0
119 409 -428 0
21 395 -398 0
236 308 385 0
193 -238 250 0
270 -303 -371 0
128 194 -216 0
-73 -402 449 0
19 -236 -237 0
-27 -185 -406 0
-11 -120 -195 0
-390 396 -408 0
-80 -138 298 0
-146 170 -403 0
214 234 277 0
-37 -75 -297 0
-176 -271 -346 0
-61 -274 309 0
-80 105 219 0
-70 -207 309 0
182 379 388 0
-78 231 390 0
126 143 -297 0
218 243 -267 0
201 -343 -367 0
-19 -188 202 0
-238 281 372 0
-87 251 -265 0
39 134 -427 0
46 -138 -303 0
-34 -46 118 0
63 -72 282 0
-102 -246 362 0
-6 340 -379 0
-59 119 -377 0
91 239 -431 0
-9 -255 -408 0
80 320 -433 0
-187 384 -391 0
-79 217 -447 0
120 -197 -352 0
113 -361 427 0
-75 -211 -401 0
-109 -110 -315 0
-149 -305 421 0
46 -68 213 0
-77 158 342 0
59 191 409 0
-75 115 -365 0
-107 -109 -334 0
154 194 236 0
11 156 -329 0
-241 -297 403 0
44 70 -268 0
-62 190 -385 0
-156 364 410 0
-4 168 253 0
-58 283 348 0
135 -362 -442 0
-55 -104 -204 0
-191 -233 -414 0
204 -321 -353 0
110 296 322 0
-309 -368 434 0
-139 174 437 0
4 -27 -281 0
-54 221 -300 0
7 -67 -356 0
33 -131 -174 0
129 -380 410 0
70 389 421 0
-3 -49 -220 0
-98 321 -424 0
126 249 -413 0
97 198 291 0
27 -100 268 0
-17 80 124 0
36 154 -315 0
-111 286 -440 0
-62 -171 -426 0
-134 381 410 0
156 -253 354 0
12 357 -374 0
-184 -241 -277 0
222 -258 438 0
46 172 -194 0
-53 151 161 0
132 -175 -361 0
-245 -283 316 0
59 -108 329 0
-10 -35 -272 0
88 90 -276 0
80 260 306 0
-7 -347 -412 0
124 188 -292 0
-85 237 -251 0
93 140 -164 0
278 306 -361 0
139 -346 -395 0
-55 -175 -321 0
130 254 410 0
205 -229 -449 0
117 -166 337 0
-98 -155 -288 0
107 178 440 0
-47 69 208 0
-16 24 230 0
150 349 -429 0
-26 -53 322 0
94 160 321 0
6 206 408 0
-259 -282 378 0
-60 186 380 0
-134 -356 405 0
-32 168 -384 0
-47 -170 -415 0
-136 261 361 0
-167 -252 -418 0
1 107 257 0
-78 126 -349 0
12 308 394 0
-176 -214 250 0
-109 -112 283 0
-242 269 341 0
67 -124 420 0
-44 -155 283 0
-47 -54 -341 0
-264 295 -382 0
14 182 -387 0
22 250 -376 0
-125 157 -334 0
96 281 305 0
296 419 427 0
-206 -352 431 0
-72 74 -261 0
184 209 -333 0
220 237 -376 0
196 -306 -383 0
153 446 449 0
182 -435 444 0
15 -354 -373 0
136 147 -168 0
122 136 -223 0
62 -207 -383 0
-12 -99 134 0
-160 244 276 0
193 -384 -431 0
-48 -235 300 0
-83 278 -324 0
-180 -285 448 0
234 -295 -447 0
-15 221 297 0
-39 -287 -346 0
246 310 339 0
-46 -58 -189 0
-49 -55 334 0
-107 -128 -365 0
-179 382 -392 0
-35 229 376 0
190 344 -428 0
-38 382 -384 0
53 -96 270 0
83 275 -292 0
-206 -402 410 0
-361 392 -450 0
-124 -217 -340 0
-136 -180 389 0
-206 -285 359 0
-251 360 426 0
232 264 272 0
128 151 228 0
-168 -350 388 0
158 -194 408 0
64 -386 414 0
104 122 -254 0
58 224 381 0
53 -159 -185 0
-30 195 -310 0
67 221 -288 0
-136 -209 -372 0
-74 288 350 0
155 203 -351 0
261 376 392 0
78 -300 339 0
-132 258 -409 0
-298 374 -386 0
198 284 -319 0
71 -159 -206 0
31 278 -406 0
-308 352 -395 0
-95 -281 -352 0
-71 -141 434 0
230 264 273 0
37 -270 -275 0
286 330 432 0
102 -367 -391 0
-22 247 328 0
-92 -255 -408 0
-35 -235 397 0
-87 -362 394 0
192 365 375 0
222 256 403 0
153 -211 -331 0
-15 361 371 0
-30 -188 -216 0
114 352 418 0
234 -309 346 0
-34 112 -327 0
-49 -119 367 0
-155 -187 410 0
-138 187 310 0
17 174 419 0
133 283 -321 0
144 167 338 0
-65 354 415 0
165 -169 377 0
-150 229 361 0
3 228 -368 0
18 196 -228 0
203 311 -377 0
74 178 -373 0
-101 -143 -403 0
-116 170 -302 0
-261 -317 -434 0
33 -110 -257 0
-25 32 -206 0
-197 233 320 0
-34 116 -410 0
346 384 -434 0
-31 -86 -113 0
38 -404 406 0
-97 133 374 0
293 421 -446 0
-111 371 -380 0
123 -202 423 0
168 -215 319 0
73 -126 360 0
-214 403 429 0
-66 306 -313 0
202 272 -445 0
195 276 333 0
44 249 -423 0
57 -137 -442 0
2 -258 295 0
-57 216 305 0
-62 -77 -83 0
249 -277 336 0
-183 -211 287 0
99 -268 -398 0
-151 296 -379 0
83 -160 314 0
29 92 -163 0
-197 330 -352 0
94 -193 218 0
9 -52 -106 0
-23 -325 381 0
31 -135 -214 0
1 -23 160 0
58 126 448 0
-38 105 -270 0
-104 -140 439 0
157 -195 375 0
-285 357 439 0
-79 -137 -269 0
-247 -312 -406 0
182 -360 -403 0
-77 81 -156 0
70 -277 386 0
-142 165 -385 0
246 -311 430 0
-3 23 123 0
-246 -275 366 0
-16 -141 -450 0
-34 -361 -435 0
-64 122 401 0
10 108 375 0
55 -233 -416 0
-8 -141 -170 0
-195 -284 351 0
-39 166 -205 0
-85 102 185 0
-166 252 445 0
-106 -128 202 0
-12 -411 -440 0
-35 51 -116 0
-61 -86 349 0
49 -74 164 0
23 107 -108 0
168 -251 395 0
313 409 -444 0
-102 169 -349 0
46 -263 -411 0
128 180 -209 0
26 -355 362 0
-257 -416 -424 0
165 311 -439 0
-107 -206 -252 0
127 219 -318 0
155 351 417 0
20 -27 337 0
-109 -136 -397 0
33 -100 239 0
-5 -15 -147 0
-135 339 -419 0
-256 -308 -443 0
74 -91 389 0
26 37 -291 0
207 -262 345 0
-19 -97 227 0
-124 -239 370 0
54 127 394 0
-80 -191 350 0
-1 -136 165 0
201 333 -365 0
169 -205 -416 0
239 319 -447 0
-243 -304 361 0
-77 -169 197 0
-173 -295 401 0
92 224 -340 0
27 130 -210 0
151 156 -198 0
154 -206 -365 0
-61 -161 -446 0
-124 183 -236 0
85 -175 -444 0
78 101 -121 0
184 -309 -380 0
122 365 422 0
-231 244 381 0
-179 -225 362 0
-286 324 390 0
-58 -113 433 0
-111 -173 -206 0
138 -264 -366 0
31 -270 -360 0
78 85 206 0
25 320 414 0
293 358 421 0
58 76 -99 0
4 -85 -424 0
-142 235 -333 0
47 233 270 0
-104 250 284 0
151 363 389 0
39 160 -186 0
97 -114 239 0
-36 -229 414 0
109 405 -437 0
-69 -168 398 0
-9 -37 -138 0
-24 -74 344 0
-339 -344 356 0
-113 436 442 0
151 -254 311 0
31 40 140 0
-352 -413 450 0
-3 -17 329 0
-51 400 442 0
-47 -168 232 0
-171 -210 -226 0
-70 182 433 0
-25 48 126 0
29 -404 -443 0
81 208 379 0
-244 -316 -407 0
-56 -85 334 0
23 231 -406 0
-156 358 -397 0
-2 -31 337 0
100 -188 -334 0
-53 -168 -397 0
-110 272 -283 0
-105 221 -352 0
-19 -24 -25 0
-52 -356 -407 0
153 -197 -271 0
-131 -203 374 0
51 -349 392 0
-20 65 -198 0
-4 211 366 0
35 126 386 0
-205 288 440 0
-47 -92 403 0
220 -225 -416 0
-89 -347 -425 0
-28 271 440 0
-118 -165 432 0
-41 -137 -214 0
161 235 240 0
87 250 297 0
258 413 414 0
-12 171 -321 0
155 310 376 0
-193 -208 -435 0
145 250 -364 0
73 -77 -362 0
-156 -176 263 0
-137 -275 387 0
-157 192 308 0
-177 -305 354 0
378 423 -445 0
-33 -158 -381 0
129 298 -405 0
32 208 255 0
30 -299 311 0
32 126 -255 0
147 303 -419 0
-35 270 330 0
170 -239 -269 0
-145 191 236 0
-22 235 -257 0
113 224 432 0
-10 -387 409 0
62 162 330 0
63 -278 -410 0
35 -174 -415 0
-208 361 418 0
147 -173 405 0
-30 -62 115 0
183 243 439 0
-45 -112 -417 0
-134 -189 -293 0
-30 -89 -270 0
-93 -243 -385 0
-321 367 -418 0
-248 393 445 0
55 263 317 0
116 -338 -386 0
20 -315 -446 0
185 279 -409 0
-51 284 416 0
-107 -262 -323 0
-16 -77 414 0
-3 175 370 0
132 227 419 0
16 -139 -269 0
-255 436 438 0
149 170 287 0
-241 -298 -377 0
52 150 151 0
-119 -294 -324 0
-152 -202 324 0
-330 389 -411 0
55 -67 -185 0
-274 327 392 0
217 323 325 0
16 134 -360 0
120 -149 -189 0
165 230 241 0
152 229 -259 0
44 -330 432 0
119 315 336 0
126 195 323 0
-3 312 -402 0
-107 114 325 0
100 187 -271 0
-79 208 -355 0
-261 -312 445 0
207 345 388 0
35 -60 297 0
-221 -342 -427 0
21 -169 -314 0
-61 -100 227 0
-158 229 -445 0
-77 -382 396 0
38 326 -416 0
-13 -270 -401 0
-121 -327 393 0
-28 -216 -417 0
-124 -348 396 0
-208 261 -386 0
-40 -66 412 0
-54 235 -303 0
-161 -204 238 0
101 -227 232 0
-19 192 199 0
34 75 -394 0
-282 328 334 0
87 -153 281 0
235 415 429 0
-78 149 -433 0
326 347 406 0
-274 280 366 0
47 -137 270 0
-56 160 356 0
-105 -114 -449 0
-54 -167 -350 0
-167 196 -319 0
-397 -408 449 0
-117 -148 -316 0
102 123 310 0
110 237 -269 0
155 345 -397 0
-342 357 366 0
-50 -183 -364 0
-47 103 205 0
98 269 432 0
155 -166 -198 0
-99 -241 -253 0
191 -227 356 0
100 -253 358 0
19 -187 312 0
1 -43 -399 0
-72 147 328 0
-68 -354 -361 0
244 259 299 0
-121 154 249 0
70 249 287 0
-154 177 244 0
97 251 259 0
79 119 -315 0
-123 -183 -437 0
243 410 -411 0
-39 -203 -404 0
-324 360 386 0
-2 -54 132 0
61 -240 -450 0
-20 172 179 0
42 118 317 0
-148 -214 -276 0
-36 -258 301 0
-162 -204 -382 0
12 -97 410 0
-34 -175 340 0
214 -330 358 0
126 -323 436 0
-285 344 -438 0
-141 -195 291 0
21 141 208 0
-218 -433 438 0
-42 -258 303 0
-188 290 -389 0
71 -329 -410 0
198 236 311 0
115 -160 182 0
165 180 -311 0
60 -65 -149 0
-14 91 -107 0
111 134 324 0
181 286 449 0
77 343 -419 0
18 -195 332 0
43 -175 -243 0
-164 218 -243 0
212 -249 444 0
-33 217 349 0
28 117 -129 0
36 169 409 0
233 366 374 0
-331 -435 -437 0
215 371 -388 0
80 98 104 0
-226 -291 424 0
-21 61 -326 0
-114 243 410 0
46 -264 -439 0
-8 46 -122 0
49 -244 255 0
145 -336 375 0
146 152 -280 0
-67 97 -98 0
92 -109 242 0
136 140 -320 0
-56 -219 -333 0
-66 107 212 0
22 44 252 0
41 -315 397 0
-18 151 351 0
-16 -351 372 0
101 160 -356 0
212 258 398 0
-57 242 -372 0
-314 -342 -419 0
-194 -348 396 0
-93 -423 -438 0
68 186 -233 0
-306 -384 -385 0
-156 313 -438 0
-55 -236 272 0
194 -238 -366 0
158 305 423 0
125 -221 348 0
-18 -105 324 0
159 355 -445 0
118 -407 420 0
-253 270 321 0
-80 -358 -360 0
-141 288 -418 0
120 -310 399 0
-32 37 266 0
3 282 -425 0
7 99 -214 0
214 275 -440 0
32 183 185 0
-245 256 257 0
20 -91 209 0
-33 -419 428 0
-266 307 450 0
-33 -58 -395 0
-31 -349 356 0
149 206 -326 0
-3 -298 431 0
-225 -389 -444 0
-212 291 293 0
4 -339 -387 0
216 336 392 0
-32 -166 -371 0
13 207 -345 0
-30 154 307 0
60 236 309 0
-27 56 -284 0
-211 281 -361 0
-113 -165 286 0
-152 -263 311 0
84 342 -356 0
-26 -316 343 0
-15 326 -365 0
47 -100 361 0
-56 -334 -386 0
125 -318 401 0
107 -128 -439 0
-126 262 272 0
-17 -389 -417 0
-10 49 -150 0
-143 185 317 0
-21 209 242 0
-82 -188 354 0
395 -441 443 0
-161 -212 303 0
-103 182 -227 0
-105 -187 -198 0
-62 142 192 0
-165 300 -359 0
232 -277 289 0
-102 233 -372 0
1 -146 170 0
86 -171 219 0
132 -257 425 0
-57 -190 349 0
186 309 387 0
-51 -149 246 0
41 278 -374 0
84 267 424 0
149 -160 426 0
281 311 -434 0
98 253 -425 0
-4 -179 350 0
115 -431 441 0
47 -102 206 0
-70 301 -345 0
-15 72 -229 0
123 317 384 0
-235 289 411 0
-273 350 -368 0
30 -427 447 0
89 258 -268 0
-225 -357 390 0
134 175 231 0
26 248 363 0
77 -224 314 0
8 -30 59 0
-234 365 -420 0
261 291 -302 0
270 -283 -401 0
-106 110 -178 0
47 74 289 0
-32 299 -361 0
215 -240 -288 0
57 -401 425 0
-16 -27 -115 0
68 -261 332 0
63 -91 300 0
195 205 355 0
-22 -339 -425 0
85 88 -356 0
221 259 -382 0
166 -232 422 0
272 309 433 0
-175 246 -304 0
38 166 406 0
-296 -382 -390 0
-95 228 295 0
71 -100 361 0
-285 -307 -347 0
50 -220 309 0
44 -339 422 0
-188 219 -265 0
219 -317 -363 0
-12 -321 374 0
-118 351 428 0
137 -212 245 0
141 -205 408 0
38 269 -377 0
-197 378 405 0
21 -234 298 0
-86 93 300 0
-168 181 -251 0
-105 -232 -274 0
31 -300 397 0
-148 -220 -252 0
124 -378 432 0
-23 91 324 0
-165 233 323 0
-270 -287 -323 0
-101 233 276 0
-227 -359 368 0
-159 231 427 0
184 -211 264 0
12 124 399 0
10 289 296 0
180 -263 416 0
-156 240 242 0
11 -120 190 0
-276 393 -429 0
-112 -254 -341 0
29 201 -394 0
136 -173 253 0
65 202 -381 0
-335 356 -403 0
-86 221 -235 0
92 203 213 0
185 -226 -415 0
65 -78 -427 0
35 228 -243 0
45 391 434 0
63 -112 144 0
342 380 -391 0
26 168 -418 0
-138 160 -179 0
-125 -287 414 0
-116 -278 -440 0
113 154 162 0
200 444 -445 0
75 286 -306 0
-68 208 378 0
160 181 282 0
84 -139 -394 0
107 -158 252 0
138 363 -372 0
-91 166 391 0
-2 -263 434 0
-6 -179 -329 0
-151 258 -433 0
-160 -369 -434 0
46 -213 424 0
240 -376 -410 0
21 -375 377 0
22 -56 435 0
-41 -291 391 0
-62 -280 -450 0
-119 -301 -427 0
-170 234 -337 0
108 -129 -445 0
-272 335 394 0
-180 213 239 0
-202 -211 -300 0
-4 203 302 0
196 262 301 0
-200 -285 418 0
-127 213 431 0
-341 388 -404 0
-194 -251 361 0
53 -76 438 0
31 -362 408 0
-67 -295 -299 0
87 -247 268 0
39 -108 -411 0
-6 161 278 0
-73 -193 350 0
84 107 438 0
342 351 -411 0
9 74 -430 0
-31 -52 415 0
-20 122 375 0
-138 184 368 0
65 -198 300 0
44 -203 249 0
284 290 361 0
232 259 -346 0
190 -192 -259 0
-13 -164 349 0
53 90 -375 0
235 278 297 0
53 146 263 0
230 -336 448 0
78 -207 -318 0
-41 -87 -349 0
14 305 395 0
-152 -172 291 0
115 -220 -319 0
-212 364 -368 0
-402 438 446 0
-141 154 415 0
232 -275 -337 0
257 290 404 0
-38 -58 -184 0
99 -130 373 0
-109 -246 363 0
-8 -74 436 0
54 188 424 0
-280 382 446 0
-13 -104 190 0
14 -39 166 0
-224 -312 -416 0
229 -379 436 0
-24 -311 369 0
43 -138 -409 0
-114 -438 -446 0
42 -306 429 0
-2 -102 433 0
2 -337 -351 0
-198 -323 -382 0
-9 -22 -74 0
14 -57 345 0
61 -83 320 0
-21 61 435 0
-35 264 440 0
87 -359 -412 0
21 -69 -311 0
-81 -83 -228 0
75 -206 -298 0
-46 -262 372 0
-57 -273 -381 0
185 -251 280 0
232 -298 -346 0
-29 230 -256 0
9 26 252 0
-112 -127 183 0
83 -178 421 0
98 -124 -198 0
-8 -35 -181 0
159 327 438 0
-65 -197 326 0
-36 118 296 0
-201 225 308 0
-72 127 -312 0
-144 435 439 0
12 -249 -412 0
-101 -365 -437 0
48 104 -234 0
-144 -212 436 0
121 -143 165 0
-119 -318 -398 0
55 326 -388 0
35 -436 447 0
-69 180 434 0
141 237 -349 0
-70 -308 -333 0
-46 -153 -345 0
-63 87 328 0
-47 58 -364 0
73 252 -402 0
-145 219 -290 0
69 193 -212 0
-157 -400 432 0
-240 324 441 0
161 215 -309 0
67 -118 -274 0
-266 -279 -359 0
-60 -83 -338 0
75 236 311 0
-75 272 -413 0
34 319 362 0
43 -339 -383 0
-69 139 377 0
-111 185 243 0
-56 189 410 0
-265 -287 292 0
199 -203 295 0
-159 -306 -348 0
179 -189 405 0
43 62 -112 0
-39 140 259 0
9 84 209 0
-55 204 -346 0
-193 -279 425 0
-181 -191 -314 0
-81 109 323 0
-53 -174 256 0
-135 -347 369 0
-45 187 336 0
-51 -100 175 0
-70 319 346 0
-100 -319 -325 0
-75 125 432 0
10 91 374 0
-299 -384 -420 0
28 -268 -423 0
-17 -261 -298 0
-24 -77 190 0
96 -102 245 0
-142 -157 -301 0
147 -234 322 0
74 -177 201 0
12 -212 293 0
-79 -146 -302 0
2 173 -217 0
74 355 377 0
-55 87 -249 0
20 189 -286 0
-386 404 444 0
218 -390 -411 0
-214 -277 439 0
34 -62 100 0
-64 192 -386 0
235 -359 389 0
-147 443 447 0
-128 302 449 0
-204 290 -372 0
-101 -305 -394 0
-162 242 427 0
211 433 -450 0
331 -367 450 0
-154 -264 323 0
-58 -234 261 0
-40 -95 -158 0
71 -140 218 0
-182 -379 -399 0
-24 92 101 0
-74 -148 400 0
-181 272 -305 0
-44 253 -280 0
-101 -169 -178 0
-48 92 116 0
-124 -227 -434 0
-209 219 -424 0
-1 -184 -359 0
50 115 -189 0
160 -175 -229 0
163 -252 287 0
-44 -160 -191 0
-259 388 394 0
3 7 -212 0
-371 379 421 0
27 -148 -221 0
-1 -165 -176 0
-69 172 -333 0
-293 361 386 0
292 -364 -397 0
88 -219 380 0
-93 -236 380 0
227 242 -424 0
174 301 -387 0
-177 256 -307 0
-18 -192 -308 0
34 -106 334 0
1 -3 336 0
85 -399 429 0
-59 115 130 0
-121 -225 -226 0
-242 263 -286 0
26 50 77 0
35 -59 106 0
133 247 -264 0
55 75 -152 0
12 -137 263 0
297 -301 -402 0
-335 374 399 0
-328 -375 401 0
-284 -303 -336 0
-48 260 266 0
-214 -306 420 0
-4 76 306 0
322 -339 411 0
-98 -106 407 0
28 -212 -414 0
4 102 -162 0
-182 -254 -389 0
98 216 -219 0
-179 205 393 0
93 228 -313 0
14 95 426 0
223 -317 374 0
201 208 -217 0
121 -201 -305 0
-166 -383 -446 0
25 -43 -204 0
-22 -408 414 0
-304 -305 -447 0
-15 -156 -211 0
-143 238 307 0
-90 110 249 0
69 -222 -331 0
-178 -193 -379 0
403 414 443 0
17 -157 -186 0
99 -252 261 0
-185 257 364 0
-66 162 344 0
52 -193 -272 0
-131 190 -420 0
-19 -67 282 0
-252 -308 326 0
162 -193 425 0
130 -172 -365 0
49 -162 -332 0
50 85 -222 0
69 276 -438 0
-206 303 442 0
54 270 388 0
164 -174 -408 0
182 344 -422 0
-25 -104 416 0
-84 91 -132 0
-9 94 -269 0
-14 -63 -282 0
22 203 -270 0
7 -90 -444 0
20 331 -332 0
-32 -199 442 0
110 205 423 0
-134 -215 222 0
-34 -104 -292 0
-111 116 -315 0
58 -86 90 0
117 242 396 0
-21 -218 395 0
158 176 236 0
-115 317 -382 0
-102 152 -396 0
327 -437 -450 0
30 -121 235 0
51 76 -230 0
-113 115 213 0
-155 228 419 0
-14 123 -295 0
-134 391 397 0
-7 -144 -166 0
20 49 -437 0
24 -48 -291 0
-46 264 388 0
-38 306 384 0
-95 202 270 0
20 77 -329 0
10 364 -448 0
-76 274 322 0
77 377 391 0
87 346 442 0
158 371 393 0
-38 144 -196 0
-18 121 -261 0
-122 -170 -263 0
-277 -301 442 0
157 -376 -378 0
239 326 -413 0
-84 153 -161 0
-13 -246 -249 0
77 375 -385 0
-1 171 -204 0
-284 308 431 0
-82 142 350 0
61 -75 114 0
-112 186 -450 0
113 176 -408 0
18 413 417 0
-93 128 330 0
151 -266 432 0
-75 -283 387 0
-13 -26 -94 0
234 306 -346 0
39 -104 -406 0
157 -321 -330 0
12 69 -338 0
-132 -339 -438 0
236 -360 416 0
60 128 273 0
-44 142 294 0
104 -120 -341 0
72 109 403 0
66 -275 -348 0
-73 309 -389 0
30 328 -384 0
201 -259 395 0
44 167 265 0
7 201 -331 0
-32 173 -340 0
105 242 -336 0
-154 172 -398 0
175 346 380 0
-133 144 249 0
-196 -238 368 0
-165 -310 -429 0
139 227 408 0
-41 -59 -252 0
-75 76 155 0
115 178 267 0
20 42 -91 0
-106 -219 -227 0
59 233 303 0
-9 126 358 0
48 383 387 0
221 226 -307 0
136 255 400 0
92 219 334 0
60 -117 167 0
-94 209 251 0
-33 146 435 0
123 383 -401 0
-5 121 179 0
117 362 -424 0
88 -98 -101 0
148 290 -442 0
-37 153 226 0
52 -243 325 0
33 238 -321 0
165 -260 -271 0
264 -372 413 0
99 330 -405 0
-265 273 275 0
25 29 226 0
47 -164 216 0
-85 365 -432 0
202 -261 370 0
-26 194 -305 0
-52 277 286 0
-220 -429 -432 0
-9 -333 -338 0
-53 138 235 0
71 107 -228 0
-134 294 420 0
-74 -231 -259 0
176 249 406 0
9 -36 -312 0
310 -342 415 0
-32 180 -235 0
226 261 446 0
22 165 423 0
-28 -41 -154 0
77 165 -302 0
68 147 355 0
-59 -304 -429 0
-14 -224 -327 0
131 -265 -450 0
-12 57 -181 0
83 -232 -406 0
249 -304 -437 0
136 -206 -264 0
137 -187 437 0
-39 -226 435 0
157 -234 -327 0
73 163 410 0
29 -186 360 0
101 -116 158 0
211 289 398 0
8 -24 -290 0
-47 -247 373 0
208 -341 386 0
-145 -156 -310 0
20 -381 -414 0
-86 118 251 0
322 325 -382 0
34 -50 -206 0
-229 311 332 0
186 259 -434 0
17 -175 275 0
107 -138 207 0
41 -159 -323 0
-172 348 364 0
76 -148 267 0
93 230 357 0
28 38 -188 0
-213 279 435 0
217 -244 259 0
-16 -240 -258 0
-142 206 314 0
61 68 106 0
187 -215 -241 0
62 105 327 0
-14 59 128 0
-117 323 -343 0
-177 280 324 0
-168 216 -436 0
-252 283 -449 0
81 -200 -345 0
234 -316 -336 0
-116 180 228 0
14 -353 -362 0
43 -57 242 0
21 231 -232 0
-126 -326 -357 0
-79 -237 240 0
-27 -292 -384 0
56 -133 312 0
-35 51 170 0
-47 -215 -296 0
-161 -373 -447 0
-146 213 388 0
-4 40 -155 0
-77 129 151 0
-118 235 432 0
8 113 133 0
-40 97 -289 0
108 144 -439 0
116 -172 332 0
-182 -230 -383 0
14 -337 -377 0
322 388 -421 0
133 -178 -309 0
-37 -184 449 0
155 -171 -331 0
-49 220 404 0
39 364 365 0
-68 327 -337 0
-194 327 442 0
29 132 292 0
-65 -215 414 0
117 -196 243 0
-90 -272 301 0
-251 363 -393 0
-276 -283 404 0
177 -189 -350 0
-304 -397 434 0
193 -372 434 0
165 194 -208 0
9 -94 371 0
183 -261 302 0
-256 -296 369 0
-1 344 351 0
101 -125 171 0
-147 -190 215 0
8 204 -211 0
51 214 -268 0
-3 154 -363 0
-180 196 337 0
-31 -123 -289 0
-159 -406 -412 0
120 149 -356 0
-28 109 -356 0
-198 -367 -377 0
10 76 123 0
40 -202 -370 0
-50 -171 312 0
-158 337 -395 0
-161 -251 -438 0
-7 197 224 0
-122 -223 -435 0
1 -105 -182 0
-38 -42 -395 0
211 -215 443 0
-305 -344 -450 0
-72 131 376 0
206 312 407 0
-19 87 -437 0
176 294 436 0
-443 -445 -448 0
-273 377 -426 0
37 -111 -166 0
151 -362 425 0
-23 -264 -288 0
-189 223 315 0
-80 -159 342 0
-29 -42 236 0
63 87 -233 0
-157 231 412 0
54 58 257 0
2 -285 433 0
28 249 446 0
78 361 420 0
-30 64 -446 0
-41 160 275 0
-41 46 303 0
157 -267 349 0
-223 -395 396 0
183 404 450 0
161 -329 -357 0
-13 139 -330 0
31 -129 347 0
114 -218 229 0
-91 237 448 0
50 -116 -217 0
-127 314 -363 0
-140 -223 388 0
-137 -311 406 0
192 -220 431 0
74 131 177 0
97 175 -232 0
16 -196 -448 0
23 -206 222 0
200 336 -388 0
121 -210 -412 0
64 -337 422 0
189 346 435 0
4 -269 342 0
85 -234 -268 0
-40 -109 -413 0
-2 30 269 0
-2 286 -374 0
-30 -411 444 0
-150 194 279 0
-55 -95 156 0
220 -272 361 0
-45 -151 442 0
105 -331 420 0
-107 119 -187 0
34 -273 428 0
-7 220 -298 0
237 -264 420 0
-45 -147 -415 0
