p cnf 450 1917
1 37 252 0
163 270 -371 0
201 269 -364 0
-46 75 -110 0
45 -231 308 0
30 -81 -229 0
-106 137 -283 0
-43 142 -390 0
125 219 -318 0
-52 76 -292 0
-62 -165 317 0
-78 -108 347 0
-208 -256 -272 0
-256 -311 -370 0
43 -67 112 0
-135 215 -315 0
221 -329 -347 0
-54 -274 -331 0
182 -287 -424 0
-3 265 -415 0
125 247 409 0
31 219 -303 0
-162 -188 -206 0
17 210 -265 0
221 302 361 0
72 -180 -206 0
213 276 -368 0
-260 -263 -330 0
-46 -131 -391 0
-33 -41 -177 0
-46 355 368 0
-300 364 -412 0
-51 301 413 0
-52 -63 134 0
-83 -268 302 0
-39 105 -155 0
93 -166 -194 0
149 -170 -348 0
-244 -330 380 0
-142 -332 335 0
-7 -237 247 0
82 214 393 0
170 -260 -286 0
-80 174 -417 0
227 -231 296 0
-48 -150 164 0
-106 -132 400 0
89 133 -403 0
-219 420 -422 0
-277 -296 352 0
300 316 -433 0
105 292 335 0
81 321 -404 0
168 172 276 0
-27 -94 -120 0
-194 232 -366 0
-23 -239 -291 0
-12 -305 -329 0
37 234 -367 0
88 -112 -425 0
-76 213 -266 0
-29 253 290 0
223 -253 270 0
337 -381 411 0
-83 236 360 0
-85 161 323 0
-116 -151 -242 0
-116 162 -434 0
-67 283 358 0
78 212 344 0
202 219 426 0
212 396 412 0
-49 337 -407 0
-72 367 413 0
-7 -43 180 0
-137 254 380 0
3 173 -358 0
18 -32 -302 0
-96 -126 -189 0
127 269 -342 0
-70 250 -335 0
-225 -245 249 0
-162 379 422 0
112 -193 -394 0
54 -401 447 0
-217 -303 396 0
-123 193 398 0
132 -201 -214 0
82 161 -354 0
59 184 357 0
-71 111 340 0
24 155 -206 0
186 272 -336 0
157 -189 223 0
-54 -201 -372 0
-37 -87 -120 0
-105 -121 263 0
326 -362 420 0
-4 -83 255 0
30 95 212 0
-91 -226 430 0
-10 -158 -167 0
59 -80 284 0
95 -260 361 0
-78 110 -217 0
308 385 403 0
-103 144 225 0
86 -214 -399 0
273 -396 429 0
-7 -200 283 0
64 341 415 0
-68 175 305 0
107 117 216 0
320 -410 -432 0
-130 310 378 0
-116 201 -256 0
-104 -171 207 0
168 -188 -369 0
-309 346 -441 0
4 11 406 0
-74 110 -301 0
-36 -78 243 0
205 317 349 0
-122 -358 404 0
-30 -201 -318 0
-2 -70 -200 0
211 255 -323 0
-117 240 -327 0
138 -173 356 0
139 -232 -252 0
-58 -198 -384 0
-97 -165 266 0
9 -183 297 0
-256 265 -310 0
-18 -200 -352 0
-202 238 -276 0
-158 300 -404 0
-114 345 -427 0
71 -129 138 0
-82 -157 402 0
157 -358 -391 0
67 -142 368 0
101 -227 -443 0
-14 -147 404 0
-85 86 -402 0
-228 269 424 0
104 185 -358 0
67 205 -226 0
-92 -130 -372 0
-36 -202 -405 0
294 -331 -373 0
-79 -322 413 0
-13 -65 232 0
-139 -201 319 0
-197 -377 -445 0
270 312 -340 0
-152 303 384 0
222 -418 -444 0
-31 -77 -303 0
-97 -203 -449 0
-9 -161 -384 0
-16 -54 352 0
-27 -88 -254 0
-278 414 434 0
186 309 -335 0
-254 377 408 0
-52 190 209 0
62 -246 -286 0
6 -239 387 0
-222 245 286 0
-8 171 289 0
-134 273 -329 0
72 120 174 0
134 -149 317 0
-92 120 -238 0
36 -79 -368 0
159 -217 -417 0
-50 -141 198 0
23 -222 -313 0
-117 169 -197 0
124 -135 -264 0
394 -399 448 0
-73 75 -110 0
1 -292 -349 0
-274 -341 -346 0
67 270 -393 0
71 -126 389 0
-27 -60 -87 0
177 -292 -364 0
130 -155 216 0
87 -220 -229 0
3 33 -344 0
43 115 205 0
92 275 395 0
-172 176 -368 0
-53 -191 447 0
-92 178 -441 0
-155 -158 282 0
187 259 322 0
143 -163 250 0
-154 192 -369 0
-16 -147 -353 0
17 -104 -190 0
-118 -157 316 0
69 -312 354 0
-320 332 -388 0
-160 331 443 0
11 173 -365 0
-16 181 -351 0
-286 -298 -408 0
-140 229 -336 0
238 281 375 0
80 -142 -371 0
-238 -287 -450 0
33 89 270 0
-11 265 272 0
-72 275 428 0
-160 233 -341 0
43 -355 445 0
-31 84 113 0
-115 -305 348 0
161 -174 423 0
214 -379 384 0
-241 378 441 0
-228 -246 -417 0
-259 -372 -447 0
201 -303 405 0
101 -186 -362 0
-29 -318 324 0
-317 366 408 0
52 320 441 0
107 266 -276 0
18 -35 201 0
-43 51 401 0
-224 233 -344 0
74 -338 -363 0
-233 -427 -430 0
294 375 -387 0
-296 -318 -427 0
223 290 384 0
118 -307 370 0
37 70 -314 0
-8 45 -110 0
-98 220 -238 0
40 -164 254 0
-141 267 355 0
-51 279 294 0
-69 216 -444 0
149 -364 -396 0
-47 -151 -406 0
40 -111 -224 0
-132 146 358 0
33 53 -399 0
-52 174 283 0
296 368 -387 0
-37 150 366 0
25 -326 -445 0
-114 -223 -448 0
-66 -78 -424 0
-51 -226 359 0
60 -96 -102 0
-276 298 354 0
-50 -94 330 0
-33 129 -317 0
-215 366 378 0
75 -177 -398 0
-292 -340 439 0
-11 -28 -287 0
-62 -84 -255 0
180 329 -446 0
60 -116 -312 0
5 -161 434 0
114 289 -410 0
-211 251 274 0
362 -418 -420 0
-278 281 421 0
111 -266 -274 0
101 292 -330 0
-53 -137 -372 0
191 -319 402 0
52 -204 244 0
-1 153 198 0
173 -257 -372 0
289 -333 416 0
-109 147 316 0
36 144 343 0
-62 -188 -350 0
23 354 373 0
-149 -359 -373 0
-21 29 166 0
-153 -219 -250 0
-114 269 387 0
-149 269 276 0
-45 -224 -355 0
-16 -253 295 0
188 -387 400 0
-3 -53 -337 0
-86 261 375 0
-7 98 101 0
-228 -293 417 0
-192 265 -288 0
-80 130 150 0
301 331 369 0
20 200 209 0
70 373 388 0
51 314 327 0
4 -115 -441 0
-203 -216 -248 0
186 257 352 0
-103 270 -327 0
12 -277 362 0
3 94 360 0
-183 203 439 0
-158 227 -369 0
-32 181 -278 0
-11 -228 -376 0
30 -234 410 0
65 -91 -99 0
239 -265 397 0
149 230 311 0
48 91 -356 0
-3 -53 442 0
-195 306 -427 0
-63 191 -396 0
160 -198 438 0
341 -426 -431 0
-7 305 -386 0
-34 217 -266 0
-174 -197 309 0
3 16 291 0
-94 145 -401 0
-76 296 -429 0
-172 216 315 0
248 -266 -284 0
-36 -90 -241 0
-176 -217 -252 0
126 -228 -253 0
52 172 370 0
71 -156 -327 0
-267 288 -381 0
-355 359 441 0
-121 -205 -284 0
-122 167 -310 0
36 -47 -401 0
52 -344 -425 0
-216 242 -437 0
179 295 -387 0
-5 -34 274 0
211 229 -380 0
41 -109 254 0
253 -330 437 0
-92 -117 391 0
13 -214 -436 0
-4 -16 247 0
-4 -241 386 0
-200 292 419 0
-147 418 -436 0
-120 219 246 0
220 -221 -286 0
14 -159 -301 0
267 -313 -431 0
148 263 -438 0
-173 205 363 0
158 204 248 0
-131 290 349 0
107 192 256 0
123 146 -419 0
-148 190 -318 0
70 -220 223 0
-251 296 -378 0
34 151 296 0
-23 202 -394 0
-169 233 -369 0
104 201 -377 0
-98 -295 448 0
116 -243 -322 0
125 164 -202 0
38 -188 381 0
285 -409 -417 0
-2 -193 304 0
49 -261 -270 0
92 214 -387 0
-125 189 -220 0
-94 -141 -182 0
-132 -248 295 0
15 -42 -354 0
150 -426 435 0
178 320 351 0
257 331 -431 0
-173 178 255 0
-4 269 334 0
323 376 -384 0
-160 -182 376 0
143 279 411 0
66 -85 221 0
-55 300 319 0
91 159 313 0
-131 139 -250 0
12 -31 -274 0
63 -387 395 0
67 -350 -404 0
-20 82 379 0
-237 -245 -282 0
-25 80 -130 0
-180 257 436 0
139 -222 -273 0
248 -268 371 0
-219 -264 -366 0
226 -305 -429 0
161 222 -421 0
-144 -365 -413 0
161 -193 425 0
-99 225 355 0
-156 157 -223 0
-30 -70 -284 0
21 -99 -126 0
55 -357 -432 0
73 219 -276 0
23 143 199 0
135 -211 -439 0
-121 -138 445 0
-186 207 421 0
-127 331 -332 0
106 271 279 0
-100 119 -255 0
66 -267 -408 0
12 -246 309 0
96 -335 -341 0
27 371 425 0
120 134 -362 0
51 92 445 0
85 -113 182 0
-19 398 433 0
20 152 211 0
-180 339 -423 0
239 -329 437 0
33 -366 -433 0
37 -204 -337 0
-107 -255 391 0
-125 347 -438 0
300 330 -429 0
-14 -46 416 0
-99 -430 -432 0
204 -231 426 0
122 -164 264 0
321 356 399 0
-60 -233 -255 0
13 -96 -158 0
170 -259 -370 0
-19 179 -418 0
-87 397 433 0
58 214 -251 0
77 308 427 0
49 -208 -265 0
84 -138 244 0
69 -200 433 0
-99 167 256 0
58 -184 365 0
-242 -376 -442 0
135 -258 286 0
-96 -314 344 0
161 337 386 0
201 281 -450 0
-145 -343 -404 0
35 114 257 0
181 205 -285 0
214 -222 -385 0
-92 186 357 0
-36 173 -282 0
37 -181 415 0
177 253 337 0
-225 -252 -390 0
-299 317 -410 0
-60 185 410 0
-258 423 433 0
185 188 -400 0
315 327 -362 0
39 341 418 0
-68 338 391 0
216 252 306 0
143 254 -399 0
10 -176 419 0
-134 403 412 0
-133 147 -215 0
-341 -375 425 0
-16 -332 448 0
74 218 415 0
-142 257 -352 0
128 -176 -352 0
-39 -103 -249 0
83 141 -157 0
67 253 -298 0
78 -201 -256 0
71 -146 -234 0
-264 -290 -295 0
-271 369 -423 0
168 249 265 0
-171 -311 396 0
-112 -142 -228 0
255 -270 -435 0
-206 292 406 0
63 -342 -404 0
-100 354 447 0
54 -98 -191 0
-312 319 384 0
28 103 -121 0
18 385 415 0
61 -354 421 0
-53 -111 222 0
259 -263 -301 0
44 -61 125 0
81 -325 -339 0
100 -228 -392 0
146 -223 301 0
14 34 -315 0
-81 108 267 0
-99 -377 -421 0
-167 -219 417 0
83 152 -288 0
176 -231 -323 0
110 -213 364 0
-60 298 -403 0
218 239 -444 0
-230 261 388 0
7 394 424 0
154 -362 -389 0
-252 360 361 0
207 231 378 0
-139 208 427 0
-108 187 243 0
-69 187 -282 0
-93 -111 320 0
240 254 402 0
-39 173 -316 0
-192 -289 -446 0
-67 -146 -339 0
-33 92 -407 0
-62 242 401 0
-263 374 397 0
316 -393 401 0
-86 390 -434 0
96 285 -434 0
75 -283 -390 0
-42 100 -122 0
10 69 364 0
-53 -338 -408 0
132 191 278 0
93 -155 276 0
-192 241 -386 0
154 -380 388 0
-139 -172 422 0
-245 387 -443 0
35 -97 -305 0
64 -140 143 0
-236 -390 -442 0
10 106 282 0
1 -101 102 0
131 232 336 0
-111 250 421 0
-20 -122 266 0
72 225 -294 0
215 -241 420 0
-192 253 277 0
-8 148 -252 0
-212 -355 -441 0
-73 -116 286 0
181 -315 -445 0
132 176 -438 0
69 -102 313 0
14 82 -225 0
42 -129 154 0
153 294 -365 0
8 -100 -417 0
81 151 -160 0
-40 69 -383 0
131 144 318 0
-245 -326 -417 0
-15 -127 256 0
-162 202 -225 0
-110 221 262 0
76 193 327 0
228 -313 -381 0
171 -346 352 0
-198 -259 315 0
158 254 409 0
-19 -87 -88 0
74 178 293 0
32 33 -358 0
-18 -148 259 0
-251 -293 -322 0
39 -233 418 0
133 -181 -397 0
15 171 -242 0
-11 91 -209 0
226 251 398 0
86 -154 198 0
-136 236 390 0
194 -229 -420 0
-126 -269 309 0
-318 323 -403 0
-53 91 -128 0
56 407 441 0
79 -94 -332 0
79 -312 -386 0
159 -276 -444 0
-88 -135 372 0
-126 -145 376 0
91 224 -378 0
284 319 348 0
-128 -177 -330 0
72 -280 -380 0
-58 92 257 0
99 -197 -411 0
7 -360 413 0
-51 -64 332 0
259 313 -450 0
59 -225 346 0
-49 -215 -373 0
-426 -443 -444 0
-148 247 374 0
107 -189 376 0
-68 -216 346 0
64 273 359 0
96 170 192 0
-130 367 -432 0
-96 204 -223 0
191 326 341 0
-28 -71 -150 0
-54 100 209 0
-98 -138 295 0
77 -91 303 0
13 -254 332 0
88 124 -388 0
-46 -69 -204 0
66 433 443 0
234 337 449 0
-26 188 -265 0
-263 -288 -330 0
-231 238 -394 0
-174 196 -389 0
-247 273 398 0
-76 272 425 0
-143 -215 221 0
-237 -272 447 0
41 218 -431 0
-159 -356 -369 0
19 231 -274 0
150 -253 263 0
49 -231 -281 0
9 -18 439 0
220 -229 300 0
-45 268 -398 0
99 -185 -278 0
-65 -67 89 0
105 304 447 0
262 -347 -369 0
-43 -157 -199 0
-39 -116 163 0
-102 214 -275 0
9 332 -408 0
-167 -271 300 0
120 125 -186 0
-72 188 -291 0
158 -167 192 0
-13 279 -435 0
-105 233 -378 0
-152 239 347 0
246 -276 -423 0
10 104 -436 0
32 216 -331 0
-71 -92 -172 0
-233 255 405 0
15 -169 210 0
-117 156 325 0
-69 -258 318 0
33 -311 436 0
96 -371 -398 0
33 176 -295 0
62 -303 -317 0
187 -344 -436 0
-125 -211 326 0
154 216 -364 0
136 -148 -194 0
-138 253 342 0
157 -182 -340 0
-10 -220 450 0
-84 -327 -365 0
2 229 359 0
77 164 276 0
252 -412 423 0
197 231 293 0
34 -99 -167 0
154 242 -444 0
-286 -351 386 0
-36 -137 310 0
-105 231 -387 0
-23 231 -317 0
216 298 -312 0
-48 -231 381 0
-128 -270 443 0
-86 -230 -356 0
-150 194 -426 0
-36 -333 435 0
54 -169 -441 0
10 12 145 0
-77 -341 -423 0
318 -337 -379 0
-47 70 141 0
-104 116 267 0
3 -141 -384 0
32 -149 -263 0
-228 -288 331 0
50 153 216 0
76 300 417 0
86 -304 347 0
28 -29 -248 0
-145 376 -412 0
76 -345 404 0
59 105 439 0
-118 -180 -308 0
77 -262 359 0
59 -133 -333 0
-218 258 341 0
15 -316 406 0
-31 -272 315 0
287 319 -408 0
12 183 188 0
-226 -287 -408 0
190 -405 -424 0
19 110 349 0
-199 -431 434 0
29 -46 -95 0
-210 -217 -401 0
-151 -203 336 0
44 99 -122 0
26 142 -300 0
-7 -82 384 0
-61 -105 236 0
188 306 373 0
77 -182 349 0
243 326 -356 0
75 -292 385 0
-8 -71 -128 0
-62 -155 253 0
252 -273 338 0
273 -297 340 0
-26 -53 -359 0
-30 -358 414 0
42 118 -412 0
97 -149 281 0
-299 -377 403 0
-173 237 256 0
4 -108 -195 0
225 263 340 0
93 -299 425 0
95 227 -339 0
234 288 -410 0
-141 -289 -312 0
-37 -345 -347 0
-48 333 -439 0
51 -270 -359 0
-25 235 -283 0
184 -264 368 0
-42 117 -439 0
-209 293 -363 0
-204 -276 -434 0
-29 254 400 0
227 295 418 0
-121 -280 -343 0
127 363 -448 0
-32 -267 -277 0
70 -344 362 0
-90 -142 -390 0
-28 113 -199 0
-81 -149 -376 0
289 -306 435 0
-174 -242 -290 0
-129 -349 375 0
-63 -315 356 0
13 -207 -350 0
25 -202 448 0
242 -340 -412 0
-146 153 329 0
110 171 372 0
-9 -162 -258 0
-185 -313 389 0
28 100 218 0
15 309 313 0
-18 274 -419 0
71 -225 307 0
-115 -209 407 0
-90 -200 -325 0
279 359 -363 0
181 197 202 0
74 -266 290 0
225 -306 378 0
-187 210 375 0
-214 -379 436 0
-101 -267 351 0
-89 -282 381 0
-20 285 312 0
70 273 -360 0
-45 -94 145 0
196 -278 353 0
90 -372 -442 0
73 225 278 0
-103 -174 284 0
-95 255 296 0
-206 -283 -344 0
48 179 -247 0
-52 55 222 0
32 -413 -432 0
182 262 403 0
-215 321 394 0
-56 -301 -434 0
-24 -46 77 0
115 -413 -444 0
-31 122 -395 0
-107 -307 -339 0
-285 324 326 0
35 133 -268 0
63 147 -232 0
-36 -359 415 0
-43 -247 335 0
-87 329 -377 0
-71 197 392 0
189 216 -255 0
-140 307 389 0
71 229 -405 0
-23 -234 -406 0
80 -120 421 0
-57 -240 247 0
-43 109 221 0
95 207 410 0
-136 316 358 0
285 361 -386 0
-166 260 -271 0
7 40 -334 0
-106 149 152 0
43 154 195 0
-294 354 -410 0
108 -305 -357 0
25 112 329 0
5 -54 -124 0
-64 65 -353 0
-110 -133 248 0
168 -271 395 0
21 -107 434 0
188 284 394 0
116 -135 150 0
219 249 -300 0
282 -334 -420 0
-56 -339 -425 0
-116 -316 389 0
41 157 -392 0
144 -195 408 0
188 342 -363 0
44 99 287 0
48 -124 285 0
190 296 378 0
-94 -305 341 0
-18 137 385 0
74 -146 187 0
279 -335 -416 0
27 -136 -422 0
255 -258 412 0
-90 164 -220 0
-59 -109 281 0
-35 441 447 0
-23 94 -307 0
-44 134 -213 0
-296 -401 402 0
205 304 -385 0
18 -98 -247 0
293 -413 -427 0
65 181 447 0
132 -340 -426 0
119 -159 243 0
-137 -350 444 0
-360 400 -441 0
-168 241 391 0
-1 174 -319 0
26 -91 141 0
42 267 -438 0
58 221 -426 0
14 62 -401 0
-11 106 275 0
-149 401 439 0
76 -192 374 0
30 -197 199 0
216 -230 298 0
185 234 -291 0
-234 307 -388 0
86 88 185 0
105 -245 -408 0
-120 -328 410 0
-123 153 -297 0
-27 -121 258 0
-87 94 -129 0
162 -245 -392 0
363 372 425 0
-90 -131 136 0
243 -418 -425 0
314 397 -443 0
2 251 424 0
22 413 -415 0
9 277 420 0
12 110 215 0
-9 42 -96 0
2 232 -269 0
-14 223 278 0
147 -184 -425 0
12 345 428 0
107 -195 450 0
144 -178 389 0
64 220 -366 0
-125 360 -418 0
56 226 -232 0
-328 354 407 0
147 -205 -288 0
-190 206 242 0
-221 302 415 0
315 -328 -445 0
114 176 350 0
83 -215 -236 0
97 136 442 0
245 367 446 0
-180 -392 397 0
4 25 -241 0
190 278 345 0
250 -317 -336 0
22 -219 421 0
-79 280 -431 0
-66 167 -201 0
5 302 -384 0
50 156 351 0
50 -135 358 0
-219 -410 422 0
174 346 427 0
270 -303 428 0
164 183 423 0
-214 -261 -394 0
-137 145 -233 0
-124 -182 382 0
300 -335 -371 0
-259 367 -436 0
20 -62 291 0
321 408 423 0
-149 -223 254 0
-298 -387 448 0
-5 123 328 0
195 230 -294 0
-195 227 245 0
152 -385 -420 0
287 -323 342 0
-11 113 -126 0
-231 323 -350 0
-89 -216 -373 0
-29 -130 396 0
-240 272 -391 0
68 210 316 0
-129 -192 -338 0
-78 -135 393 0
27 -413 -415 0
45 83 199 0
-71 165 -273 0
-126 272 325 0
-4 298 413 0
-188 -357 437 0
68 233 -297 0
77 -332 -384 0
214 407 -408 0
111 331 -430 0
-62 400 -430 0
-173 -181 355 0
109 346 -442 0
10 41 82 0
203 230 -260 0
-68 -376 -433 0
48 52 -126 0
-70 167 286 0
-133 177 -267 0
26 -157 386 0
-300 -365 417 0
-8 -95 135 0
-215 -229 252 0
-334 408 426 0
120 262 -344 0
-52 121 -238 0
-80 159 -234 0
290 -309 431 0
-81 142 237 0
-41 -184 299 0
115 -132 267 0
-289 -324 -332 0
-2 -249 -312 0
129 336 -389 0
187 -315 377 0
-155 314 -433 0
31 -118 -300 0
102 -230 314 0
-286 332 383 0
156 -260 364 0
-172 176 306 0
188 -361 -428 0
-177 -250 -339 0
8 206 -330 0
-118 190 359 0
85 253 -352 0
344 -395 -435 0
-184 -272 -445 0
99 -401 -406 0
8 -135 204 0
-4 -96 317 0
-240 292 352 0
-47 130 -347 0
45 111 -415 0
-28 253 333 0
-47 -230 410 0
-1 -255 -304 0
-163 -308 344 0
130 -425 449 0
-252 -291 -447 0
80 97 -137 0
-35 72 -294 0
-298 -379 447 0
-137 -243 360 0
77 101 125 0
-176 182 -225 0
26 212 382 0
46 247 -255 0
59 265 -413 0
-312 332 -392 0
-101 331 -366 0
-127 -252 -449 0
-229 -324 -408 0
-126 186 -272 0
100 -192 -250 0
-31 95 -436 0
-76 160 -432 0
-121 -124 -141 0
159 -220 225 0
70 -112 -121 0
2 -73 -275 0
25 55 -139 0
-101 193 -333 0
-7 -218 258 0
-141 -370 -449 0
-44 298 -375 0
-43 -274 -311 0
29 -145 -291 0
-172 -185 -301 0
-214 -306 -447 0
7 -21 -425 0
39 263 -401 0
33 -248 -360 0
-3 -18 -431 0
16 276 281 0
-163 -233 318 0
-139 161 -201 0
-44 -221 302 0
294 358 444 0
37 63 437 0
73 -305 -325 0
-52 244 -337 0
135 233 -329 0
-56 -256 366 0
202 -291 359 0
-140 269 317 0
15 110 179 0
-307 321 -392 0
-164 286 316 0
-235 392 -421 0
97 271 -416 0
70 129 -188 0
87 -116 229 0
-14 -140 263 0
-62 128 237 0
322 -364 443 0
107 -193 283 0
-77 118 -270 0
-329 334 429 0
185 -297 426 0
25 286 -319 0
-111 112 377 0
-10 37 -209 0
173 339 -425 0
104 -123 224 0
27 -144 -324 0
150 190 -345 0
-65 162 242 0
-97 308 439 0
-23 224 -425 0
-153 -242 447 0
117 315 -433 0
-11 -52 -306 0
151 242 279 0
108 -123 270 0
-34 -395 439 0
-84 -93 -415 0
-186 310 362 0
-112 -245 331 0
-66 88 154 0
-94 -139 -223 0
16 -320 -382 0
-21 -38 -397 0
-100 158 -294 0
-213 -234 -396 0
-99 217 -395 0
-152 295 378 0
118 309 -313 0
-146 -373 -417 0
152 -234 -343 0
104 192 318 0
204 419 447 0
79 380 428 0
-238 -281 402 0
-219 -224 383 0
-216 -273 311 0
-136 165 -188 0
-196 -225 -330 0
126 -129 -240 0
-121 327 -410 0
-134 223 411 0
-53 274 -427 0
6 147 -216 0
-165 199 319 0
52 -90 129 0
283 -373 379 0
-15 167 -447 0
78 101 -383 0
170 277 -342 0
82 152 -413 0
-4 -50 -95 0
-40 74 -173 0
2 -35 -315 0
-76 195 -262 0
31 185 404 0
78 81 -186 0
144 -261 -282 0
147 316 334 0
-59 -202 273 0
190 241 332 0
49 -139 -187 0
7 -221 326 0
76 -94 371 0
231 261 351 0
-94 221 -415 0
-108 306 448 0
145 -284 -445 0
133 -320 -409 0
197 -281 302 0
15 -60 -162 0
118 -150 -165 0
-66 417 444 0
67 230 -275 0
32 273 -437 0
-166 -194 293 0
50 166 207 0
25 342 -410 0
33 -86 -433 0
178 -396 437 0
-55 -227 385 0
2 59 142 0
-11 184 189 0
-91 280 390 0
3 -200 285 0
101 -233 -348 0
-144 220 371 0
276 -286 -361 0
2 -82 331 0
-25 93 164 0
-207 208 -388 0
-93 -146 -321 0
123 -201 -435 0
-118 -175 -329 0
-254 -348 446 0
-206 -363 382 0
-120 335 377 0
-278 -330 -398 0
101 -254 -338 0
-5 -112 274 0
-78 243 262 0
-141 -330 374 0
179 373 430 0
-36 81 337 0
98 199 -258 0
-186 358 446 0
-89 -295 -400 0
-51 -119 214 0
3 -120 266 0
-116 319 -416 0
-71 318 424 0
168 -304 379 0
-232 250 -286 0
41 89 335 0
-105 -260 332 0
-213 304 -332 0
-12 229 446 0
157 311 -421 0
-151 -185 304 0
252 -259 -327 0
108 -143 -299 0
-11 -141 410 0
112 309 -347 0
222 304 400 0
239 269 411 0
-50 137 265 0
33 181 420 0
-61 196 -422 0
160 -192 331 0
2 -209 -365 0
157 241 -442 0
86 -397 -403 0
78 -79 377 0
-60 -311 428 0
-61 74 -312 0
-84 -208 -373 0
-16 -35 -47 0
-243 254 -407 0
-210 -306 -424 0
-168 173 430 0
-67 106 434 0
155 -218 -317 0
-314 331 -389 0
-157 175 257 0
-34 -139 -413 0
191 386 413 0
57 -125 -205 0
76 -199 337 0
14 391 -422 0
81 -306 439 0
121 -276 -371 0
-217 297 -430 0
126 145 -335 0
93 -238 289 0
102 -129 306 0
-59 293 314 0
16 -366 378 0
-71 271 377 0
-189 206 422 0
55 -90 292 0
-328 -361 -398 0
-83 84 -432 0
140 -236 -380 0
-17 368 -378 0
-151 -336 -403 0
-131 188 328 0
97 -377 399 0
-98 -111 411 0
-14 -138 -376 0
132 -332 -438 0
54 -83 -369 0
150 169 -300 0
-77 223 -274 0
-201 -289 -306 0
169 -176 272 0
-262 299 -343 0
-27 355 -401 0
-8 45 338 0
-6 -271 -383 0
-171 -409 435 0
-40 -259 292 0
21 280 292 0
-161 -322 -345 0
49 -142 179 0
-103 -178 -222 0
241 256 312 0
-302 -307 -400 0
-18 -201 -233 0
-61 128 341 0
-37 205 259 0
27 -52 443 0
-95 -226 381 0
85 221 -373 0
293 323 388 0
4 -274 -421 0
-68 85 -124 0
-21 77 421 0
-206 239 -418 0
287 -395 -401 0
319 334 -358 0
95 249 378 0
175 182 -277 0
-299 335 378 0
-108 149 -339 0
3 -104 -372 0
149 187 377 0
17 -210 295 0
92 -192 357 0
-79 276 400 0
-194 -308 391 0
-9 -102 314 0
282 -354 -446 0
-168 169 -393 0
121 -248 306 0
-44 227 -246 0
-23 -227 403 0
-142 -293 -303 0
-63 -287 -365 0
-7 110 -383 0
-220 -325 366 0
19 -192 -332 0
157 319 343 0
-36 43 44 0
25 -234 273 0
-11 -52 -127 0
52 396 446 0
92 123 -126 0
55 -220 275 0
194 -401 424 0
-123 -223 -357 0
152 -189 -342 0
-101 -276 -419 0
-250 253 301 0
-72 -256 273 0
27 -100 443 0
-37 -127 374 0
-41 -251 340 0
126 -240 370 0
-41 -204 297 0
54 59 -414 0
-111 -302 322 0
426 432 445 0
122 -154 444 0
-1 75 -370 0
41 211 -315 0
91 231 326 0
73 -191 390 0
-289 -420 421 0
250 -369 -422 0
-49 345 443 0
253 -295 398 0
-363 369 395 0
-124 298 389 0
-200 -314 -327 0
-77 336 -341 0
280 309 405 0
-10 132 -181 0
152 266 391 0
-10 -75 -253 0
-111 -261 314 0
117 249 351 0
-65 -120 -134 0
-50 -179 397 0
47 267 377 0
-1 -135 -269 0
-47 174 -250 0
86 218 -392 0
208 390 433 0
-41 98 -327 0
-29 -322 409 0
85 204 -417 0
-81 243 444 0
-184 -232 375 0
49 190 -341 0
-76 107 219 0
-111 218 -336 0
-118 -385 -394 0
-68 -236 425 0
-75 174 209 0
351 -398 447 0
34 -176 -220 0
-41 276 396 0
135 165 283 0
-171 -192 -290 0
136 177 207 0
42 163 -402 0
46 -413 -415 0
-51 244 -426 0
-70 -280 355 0
101 -303 -334 0
-6 -236 251 0
27 48 -389 0
-164 281 -348 0
-163 -200 -302 0
-6 -24 90 0
76 -137 432 0
-121 -251 -271 0
-136 -284 326 0
4 -54 -288 0
-22 281 319 0
-123 173 242 0
-209 -227 -266 0
33 -68 449 0
136 -313 -402 0
-69 -126 321 0
-33 -82 -423 0
-134 -226 -274 0
-65 -123 293 0
-9 138 -220 0
66 209 419 0
-29 -302 402 0
-147 205 254 0
122 -224 -291 0
227 -286 -381 0
-13 -176 -318 0
-239 342 -387 0
-226 -237 383 0
-100 -151 218 0
-144 323 -364 0
-49 -101 327 0
96 -276 393 0
28 -34 334 0
-73 -278 -290 0
188 351 448 0
116 -387 -393 0
31 -136 351 0
197 -212 -426 0
-76 -203 314 0
-111 -266 -365 0
95 -214 307 0
-106 235 319 0
196 -289 -385 0
121 397 -450 0
310 380 -385 0
-24 -210 -379 0
106 -341 -372 0
-47 -222 -384 0
-26 122 168 0
-160 -276 286 0
232 243 -444 0
-111 -292 391 0
-72 295 441 0
-40 -154 434 0
64 115 268 0
-91 -184 -253 0
-64 -149 -426 0
203 -219 -426 0
-202 -344 369 0
24 -157 349 0
-156 333 -336 0
132 -390 429 0
-300 394 422 0
62 140 331 0
-107 141 157 0
32 -286 291 0
181 182 -388 0
-31 -359 425 0
106 378 -406 0
40 140 -440 0
-258 441 -446 0
63 -260 -405 0
-99 261 -326 0
215 -225 -439 0
44 -306 -356 0
11 -33 323 0
-92 122 -144 0
42 169 386 0
-60 -349 399 0
-147 -277 -389 0
10 197 -210 0
-38 143 -413 0
-32 139 301 0
41 -334 -395 0
-2 58 444 0
-80 -264 315 0
213 323 334 0
-168 283 311 0
77 118 -145 0
-77 175 -295 0
44 -131 181 0
-142 207 -440 0
39 151 439 0
-51 -80 -208 0
-45 76 -268 0
-134 157 -190 0
76 -342 422 0
136 -203 447 0
-35 321 -433 0
61 -102 -218 0
-68 205 422 0
-82 350 390 0
-68 137 351 0
98 -265 395 0
93 -307 -431 0
-143 310 325 0
-215 -380 -425 0
279 -308 346 0
23 -112 422 0
194 311 426 0
-106 -169 -241 0
140 -332 -384 0
156 385 -427 0
-108 -292 -442 0
-102 -141 -260 0
-53 112 -338 0
175 -178 286 0
143 212 220 0
112 -220 391 0
137 -184 -363 0
-45 -113 173 0
-1 393 -434 0
18 21 -145 0
50 80 423 0
283 -317 -362 0
24 42 -307 0
-63 -257 300 0
-212 355 -418 0
148 167 -353 0
174 209 -382 0
115 384 -387 0
110 333 -415 0
-184 -201 420 0
-110 226 -326 0
131 -443 450 0
2 -53 120 0
262 266 339 0
-84 88 -431 0
-1 -70 195 0
7 -16 -175 0
206 -246 432 0
65 260 371 0
150 -180 275 0
167 209 -297 0
-76 -79 94 0
-145 -169 238 0
40 -84 257 0
-37 -275 444 0
-205 328 -376 0
90 -258 -438 0
43 46 -426 0
69 -265 274 0
-236 -290 -334 0
95 280 435 0
-9 -293 -320 0
-113 -154 -343 0
59 -119 -141 0
-8 -21 241 0
217 -292 421 0
154 173 -435 0
-61 -93 117 0
-85 -183 431 0
28 -133 -315 0
-45 -228 -398 0
-193 258 -402 0
-57 94 96 0
172 -250 416 0
-289 331 -399 0
-15 -113 432 0
-6 -24 206 0
114 -153 -233 0
334 -361 -439 0
-405 412 425 0
-68 -419 429 0
-55 331 -379 0
78 -214 289 0
50 209 373 0
-205 324 -419 0
197 -369 429 0
-20 45 179 0
-219 261 -289 0
272 447 -448 0
-82 193 -416 0
62 -347 373 0
-62 188 406 0
-168 -202 362 0
-241 -288 354 0
-76 120 -402 0
-40 271 -410 0
115 155 -427 0
-32 48 251 0
208 281 343 0
47 -207 -284 0
14 76 -393 0
-50 -173 364 0
-59 71 313 0
-169 -258 289 0
-332 -392 -430 0
118 -264 335 0
-292 328 -434 0
32 158 -413 0
-5 160 248 0
-120 289 300 0
121 142 -366 0
-141 -151 -417 0
201 -285 349 0
-1 -291 445 0
95 433 -443 0
48 279 361 0
-80 186 -346 0
-50 -341 -344 0
-54 379 394 0
-213 214 -349 0
-26 28 65 0
94 -98 382 0
105 145 356 0
-237 -250 327 0
-265 -295 401 0
-397 -433 -437 0
31 107 200 0
-168 269 -431 0
-88 -129 -174 0
-63 194 292 0
210 319 376 0
179 182 407 0
165 178 379 0
212 253 -413 0
280 -316 -399 0
187 330 416 0
13 -37 -437 0
-141 -158 -415 0
114 336 -413 0
31 -136 -329 0
62 -238 418 0
-72 -114 398 0
198 -213 310 0
19 -244 286 0
-82 -168 -438 0
-165 -260 395 0
-99 -330 348 0
-87 -227 395 0
285 345 -388 0
-78 118 270 0
18 -289 -329 0
110 138 397 0
229 426 442 0
-317 413 417 0
11 63 447 0
-19 -26 169 0
220 227 367 0
-67 -128 338 0
-251 309 349 0
140 292 431 0
110 134 356 0
31 209 320 0
-57 -100 -244 0
-154 428 445 0
113 233 -251 0
78 159 -301 0
98 343 -432 0
-57 -78 -212 0
-248 -262 -417 0
-257 -427 447 0
30 -250 426 0
-229 -285 -442 0
-273 325 -407 0
37 406 -424 0
-147 -188 -251 0
204 -248 -387 0
-88 -165 222 0
-181 -250 388 0
-66 -167 -285 0
2 230 370 0
26 -141 421 0
56 -115 232 0
-72 251 -301 0
-172 315 -433 0
-48 112 218 0
212 -341 -385 0
-5 106 355 0
-47 143 -287 0
97 438 -449 0
167 343 359 0
-103 104 -271 0
28 228 -272 0
-278 -349 -444 0
-89 161 443 0
-192 -240 -387 0
4 -49 -235 0
21 139 445 0
-33 70 390 0
20 102 426 0
24 -160 270 0
-48 -189 441 0
155 -222 -389 0
-59 135 -235 0
10 221 379 0
-273 -282 417 0
52 161 202 0
286 -287 -403 0
80 -362 407 0
-60 282 415 0
52 -133 -358 0
1 -232 270 0
104 397 -446 0
-234 354 -357 0
-56 173 -420 0
-43 -254 -264 0
-222 333 417 0
-145 402 425 0
28 -159 222 0
-41 133 200 0
-1 -57 -257 0
121 -262 -364 0
-225 -303 421 0
224 -332 -357 0
22 -168 -381 0
30 350 -351 0
117 265 270 0
-6 153 167 0
-75 -121 389 0
-34 -249 -328 0
98 197 364 0
160 -219 396 0
124 170 185 0
43 141 -215 0
93 201 314 0
70 241 275 0
25 -341 428 0
-40 325 399 0
4 -230 -353 0
-10 -93 -345 0
-38 48 446 0
72 -152 -258 0
-19 -233 342 0
-215 274 355 0
138 -312 384 0
60 -372 -444 0
-320 -386 422 0
-285 -322 -383 0
28 104 -251 0
-17 218 -350 0
-124 -148 437 0
34 150 -188 0
-64 341 -445 0
-52 295 -366 0
153 302 -314 0
-72 -97 -152 0
97 179 -216 0
19 -230 415 0
195 -318 359 0
22 237 359 0
-157 -355 -369 0
172 -205 323 0
303 327 435 0
25 -132 -232 0
-127 364 412 0
179 -305 -377 0
-127 205 -344 0
151 203 354 0
-198 409 -424 0
197 226 -257 0
141 166 -258 0
-74 -195 423 0
-40 -143 163 0
165 -271 -420 0
-134 -271 -371 0
146 291 340 0
-7 -247 -338 0
15 -50 -250 0
-105 192 -377 0
99 162 189 0
130 156 -236 0
-192 229 -245 0
29 75 427 0
90 225 326 0
-14 176 373 0
-9 146 -182 0
5 -352 -393 0
-8 174 -345 0
173 381 437 0
133 -257 305 0
-181 -307 -319 0
122 -216 -312 0
95 105 309 0
117 230 -356 0
27 -35 -220 0
-20 -151 -352 0
-3 -300 -442 0
-1 -250 359 0
132 233 -310 0
-119 148 -224 0
12 -70 358 0
-338 431 450 0
-41 109 -394 0
204 -229 351 0
66 104 -119 0
55 -78 -207 0
-121 -405 -413 0
127 -143 -302 0
-9 -43 -418 0
155 393 433 0
89 -132 418 0
150 186 287 0
266 297 413 0
103 -239 434 0
-23 -99 398 0
73 176 -298 0
-22 298 -306 0
-8 -199 254 0
2 68 419 0
-14 162 251 0
89 -297 -365 0
69 -120 164 0
114 -203 342 0
-72 119 346 0
-173 -318 426 0
373 394 -409 0
-24 47 -324 0
-134 266 -387 0
7 252 -418 0
25 -65 -369 0
99 159 383 0
-46 283 -383 0
-47 -133 -433 0
-21 147 -397 0
187 -257 268 0
126 -343 430 0
-169 -221 -349 0
273 301 362 0
22 -35 306 0
55 -195 -263 0
-22 -122 -183 0
95 213 315 0
272 304 421 0
79 -181 328 0
77 -84 -171 0
35 -62 356 0
10 -94 -189 0
-18 135 423 0
-7 -240 -291 0
145 -215 -227 0
-251 -252 -364 0
62 -151 -399 0
231 -252 -334 0
-2 -28 -367 0
270 401 445 0
89 174 348 0
16 -90 386 0
-61 -244 327 0
181 221 -409 0
-39 53 -187 0
-30 39 407 0
-136 -151 220 0
231 235 299 0
-32 73 -237 0
112 -414 432 0
82 225 -375 0
39 147 -205 0
-16 159 -175 0
-19 -75 -427 0
14 154 281 0
-41 -71 180 0
-138 -390 -400 0
287 -322 -441 0
139 219 416 0
-91 213 -390 0
-195 -231 294 0
-252 275 -419 0
-139 -147 329 0
36 -106 -406 0
237 -242 -297 0
274 287 340 0
32 257 -369 0
-62 -181 -293 0
10 288 -353 0
130 257 -377 0
299 -373 379 0
204 -348 350 0
45 130 330 0
-3 358 -377 0
250 343 406 0
12 -155 229 0
-270 278 -319 0
-59 -63 334 0
66 -311 338 0
-139 155 185 0
-152 261 -307 0
-29 -182 -421 0
-229 303 -305 0
321 -346 -366 0
-212 386 -448 0
-205 352 -397 0
108 282 390 0
-15 20 -419 0
4 -13 -311 0
-322 379 411 0
83 -86 165 0
61 210 432 0
-16 61 -275 0
44 -124 339 0
-54 -120 245 0
-44 -72 -345 0
-20 326 -408 0
175 -206 423 0
95 -298 -353 0
-7 74 -256 0
-27 -207 -420 0
-93 277 444 0
-50 -111 192 0
-151 -407 -432 0
222 -258 -314 0
-151 315 443 0
-191 -320 -373 0
-83 218 258 0
71 419 440 0
18 162 358 0
-22 265 346 0
-100 -159 378 0
-54 -165 402 0
65 75 79 0
-25 -94 -435 0
-63 208 -214 0
-126 -199 370 0
159 -229 -336 0
-50 -381 -394 0
12 -79 258 0
-201 -374 425 0
154 289 343 0
-42 -71 150 0
-183 -233 423 0
3 -37 -371 0
157 -293 435 0
-128 -209 -354 0
-50 -203 -325 0
-157 260 -414 0
92 408 446 0
23 81 88 0
78 141 -214 0
125 203 343 0
-108 125 174 0
-293 301 -352 0
9 342 -359 0
132 172 282 0
-61 98 -146 0
-88 102 -447 0
