p cnf 450 1917
-4 186 -439 0
181 -316 390 0
-135 268 439 0
-95 -241 -328 0
4 100 -369 0
-145 -351 380 0
54 -310 329 0
25 -166 410 0
6 -38 310 0
281 313 -433 0
-145 256 -312 0
128 -416 -449 0
-23 -282 396 0
171 -188 -439 0
146 -345 365 0
-170 -351 446 0
-239 -280 440 0
-93 365 424 0
-66 -123 -282 0
-62 -66 444 0
-139 328 -400 0
270 -378 -439 0
153 -306 -448 0
125 -340 397 0
328 364 -379 0
208 -275 -289 0
-68 -297 325 0
-38 174 258 0
-49 138 209 0
67 324 428 0
-162 -217 322 0
195 242 -293 0
-40 -131 -318 0
-224 -270 -431 0
221 -341 -387 0
-295 -404 420 0
-165 -179 -187 0
-174 -205 274 0
124 -157 430 0
79 -147 440 0
-118 -269 -359 0
-145 -288 355 0
-31 87 -380 0
-89 206 -228 0
16 169 -214 0
-111 -145 -343 0
26 88 -279 0
-52 151 -227 0
134 -163 234 0
-33 327 350 0
-141 177 363 0
-17 334 422 0
108 325 -441 0
5 58 421 0
186 232 -242 0
-291 315 413 0
9 -80 -99 0
-43 317 331 0
-196 386 -441 0
102 -105 -343 0
-95 -315 -434 0
-129 244 409 0
-61 222 310 0
-90 -100 331 0
205 312 367 0
-20 -117 228 0
53 132 191 0
77 -299 302 0
-127 180 241 0
-104 208 417 0
-129 205 341 0
-46 378 402 0
1 77 300 0
93 177 -253 0
342 -362 435 0
-33 -359 425 0
-133 380 -415 0
162 206 253 0
-98 -235 -381 0
259 360 436 0
-43 -103 235 0
-196 244 -336 0
1 17 -181 0
-89 -216 325 0
2 -321 412 0
-6 -144 426 0
-22 -127 -283 0
-177 403 410 0
-75 101 -155 0
100 -183 226 0
-6 47 -183 0
-45 144 307 0
-90 -259 -275 0
122 -338 -357 0
65 -161 -209 0
-50 77 -371 0
-31 82 -197 0
207 -274 -405 0
-151 -202 -278 0
-36 -363 -409 0
18 -70 194 0
80 -269 -366 0
92 -107 -349 0
-209 -223 -280 0
-54 93 -208 0
-41 195 -442 0
-303 333 -348 0
78 -155 -221 0
84 295 316 0
61 369 -403 0
-191 243 -399 0
350 -376 434 0
147 267 -396 0
-174 -288 -432 0
-176 345 -430 0
9 -132 -443 0
191 -200 314 0
-64 423 -440 0
35 -125 -127 0
-78 -93 -214 0
165 225 -420 0
-28 -315 -392 0
148 -289 450 0
46 -119 195 0
120 -291 416 0
-130 201 -233 0
-91 -115 158 0
-34 271 387 0
129 250 380 0
92 340 401 0
316 -371 403 0
-6 -58 -178 0
331 -353 437 0
92 335 -421 0
4 -63 -85 0
-244 -264 -266 0
-101 -379 -380 0
-291 297 449 0
29 -123 389 0
109 144 199 0
9 252 -366 0
-210 323 371 0
-182 -241 361 0
-78 156 -279 0
-72 -160 213 0
163 254 297 0
-192 -430 -433 0
-152 -183 -327 0
-147 -153 -407 0
-225 -317 357 0
-28 215 -374 0
132 -398 430 0
-312 373 409 0
-3 -32 -200 0
104 -119 442 0
-113 -197 -240 0
113 -152 281 0
257 431 434 0
154 186 -241 0
227 -256 435 0
-22 -238 419 0
194 217 311 0
-242 324 -393 0
79 203 -271 0
-137 286 424 0
127 281 333 0
5 208 -326 0
-114 193 311 0
-26 -27 332 0
169 222 -243 0
243 275 -385 0
-10 35 -406 0
11 59 -222 0
-256 367 384 0
-85 137 -328 0
-111 -138 302 0
8 -337 357 0
-24 -188 -345 0
85 -133 -446 0
20 177 -386 0
-22 -179 358 0
-189 359 361 0
-53 -166 361 0
-12 -29 -91 0
-43 61 74 0
-21 -273 423 0
12 184 321 0
148 230 249 0
100 -125 -245 0
100 199 -221 0
-71 -218 -320 0
103 -261 386 0
32 143 385 0
79 93 -162 0
-58 299 -315 0
56 265 -300 0
322 343 -417 0
-82 -113 -241 0
-182 317 328 0
-23 59 391 0
-257 -408 -431 0
17 -59 181 0
-287 -293 -415 0
245 396 441 0
-107 -163 229 0
-4 -267 269 0
50 72 355 0
-62 -111 -285 0
167 186 435 0
-27 -149 390 0
-49 252 -439 0
-17 269 326 0
148 186 235 0
-196 -218 346 0
-26 84 411 0
-147 -251 -292 0
43 65 103 0
58 -310 -411 0
-42 -270 -424 0
65 98 394 0
-159 355 380 0
-23 -28 -202 0
-89 135 -282 0
-181 -190 -334 0
-21 106 -332 0
-105 214 374 0
-59 79 -87 0
-7 344 402 0
28 -166 -416 0
23 -262 -418 0
-142 -271 -412 0
-207 311 380 0
-24 -385 -417 0
-160 266 -320 0
-81 328 -396 0
8 -13 426 0
1 222 -282 0
-57 241 367 0
264 387 443 0
155 163 286 0
-168 -324 327 0
-263 -283 -425 0
5 -204 -379 0
-58 239 407 0
-123 -207 -286 0
-21 -286 -333 0
-57 -388 -414 0
197 -347 -367 0
-13 133 -450 0
84 272 -340 0
259 -275 430 0
-103 303 -415 0
59 106 294 0
-109 -211 350 0
102 -179 -210 0
51 -215 -315 0
-15 -409 445 0
203 217 -367 0
-90 -176 235 0
156 224 -360 0
196 252 -329 0
135 185 -209 0
103 188 -256 0
73 -245 422 0
141 148 -439 0
-215 -224 -273 0
85 -106 -374 0
-90 239 355 0
-4 -40 97 0
163 172 420 0
85 124 448 0
86 -290 365 0
-314 -344 377 0
114 175 -349 0
94 315 322 0
60 -292 -447 0
-9 67 274 0
71 128 244 0
103 -224 -269 0
-364 415 -430 0
102 -195 353 0
-64 -104 -400 0
194 -349 -393 0
4 -192 -360 0
-3 202 443 0
-79 131 284 0
167 312 -331 0
-97 190 -358 0
-78 -166 -428 0
140 362 -379 0
155 -238 -332 0
-48 345 403 0
-284 -292 297 0
-52 198 -223 0
59 128 -249 0
1 170 -337 0
-107 131 -194 0
-306 -310 -438 0
346 -392 -441 0
-17 -105 301 0
104 -147 -168 0
-50 -125 -431 0
34 155 -274 0
2 -277 -325 0
303 -405 427 0
-38 -177 -178 0
-277 -325 -376 0
-73 119 -121 0
125 136 -218 0
160 -205 -230 0
-67 -296 432 0
100 146 344 0
19 -98 313 0
-379 407 448 0
76 214 358 0
240 374 387 0
-103 184 -418 0
203 -415 427 0
-222 -236 -350 0
-184 261 404 0
-90 -205 -425 0
237 -325 328 0
121 -282 -413 0
-91 -191 -293 0
-103 -119 -363 0
-83 -311 431 0
-8 371 401 0
73 221 429 0
71 -110 241 0
189 262 406 0
-126 354 422 0
53 165 -410 0
203 -253 333 0
18 -167 -218 0
-61 308 449 0
34 45 259 0
-189 243 -279 0
-200 -238 -347 0
-127 232 -358 0
-2 51 140 0
-145 -331 441 0
69 -126 315 0
124 -256 -353 0
-124 -153 -368 0
285 -287 -381 0
216 -264 279 0
261 305 336 0
-51 -104 -118 0
243 302 -441 0
60 147 311 0
-235 328 448 0
-303 332 388 0
36 398 -413 0
68 -219 325 0
18 -301 -431 0
206 -295 -364 0
-60 369 -410 0
-46 -121 162 0
-34 -138 -323 0
-82 -302 -395 0
-122 -225 363 0
45 -153 172 0
357 -382 -429 0
-144 281 -381 0
-19 90 -274 0
82 -274 -351 0
369 374 -411 0
-268 275 -378 0
-243 358 -404 0
126 -230 439 0
90 322 -398 0
288 -329 334 0
-336 -407 408 0
-74 -89 398 0
191 310 -429 0
258 326 415 0
-42 -267 433 0
17 341 -372 0
100 -155 -329 0
-96 247 -383 0
210 -297 347 0
-112 230 -369 0
236 345 -397 0
106 -417 438 0
57 269 -323 0
-45 58 279 0
160 -170 346 0
269 -270 -358 0
178 -303 -382 0
337 368 -369 0
-41 51 -284 0
-31 -296 376 0
-59 -115 376 0
215 292 317 0
-251 -273 388 0
7 132 277 0
-65 164 -433 0
207 345 -356 0
43 -185 253 0
272 295 362 0
31 157 302 0
-175 -229 299 0
-60 -140 -334 0
128 -350 -431 0
58 73 261 0
-22 289 -369 0
33 304 312 0
319 432 -442 0
69 -107 -142 0
268 -284 310 0
280 -366 384 0
69 -239 407 0
-244 266 -309 0
-69 177 -180 0
-269 299 -328 0
54 222 -275 0
16 136 -201 0
38 -134 417 0
383 -428 -443 0
-46 48 -420 0
6 -246 -363 0
161 323 445 0
-87 -181 300 0
-11 68 362 0
311 365 436 0
-113 -195 409 0
-252 290 395 0
-199 -340 -439 0
362 399 444 0
-19 -188 349 0
155 -230 391 0
115 117 406 0
-27 -271 381 0
-126 272 338 0
191 301 -445 0
-37 -250 -417 0
-41 62 -213 0
18 -261 -265 0
177 222 -436 0
-10 123 -156 0
-97 -169 -310 0
70 128 -313 0
78 -325 -436 0
-37 158 -374 0
89 -348 -372 0
28 43 -374 0
111 181 333 0
-35 -52 321 0
-34 -295 326 0
175 -336 -380 0
-144 150 271 0
69 87 -201 0
-228 253 263 0
-129 199 -279 0
110 238 392 0
-264 -396 -440 0
-161 -419 -438 0
273 -416 436 0
143 -178 -358 0
-310 -322 -446 0
246 317 -368 0
-218 396 -427 0
-286 317 -402 0
-68 375 -377 0
31 -411 -434 0
-89 -190 373 0
-107 -355 438 0
262 -301 -402 0
66 -159 -407 0
-139 181 281 0
22 -120 -340 0
90 -330 -425 0
-161 -234 -322 0
22 -234 -356 0
-347 -384 -404 0
41 -182 -208 0
67 -205 -367 0
-136 -180 -395 0
-155 225 -378 0
-301 313 -388 0
120 239 -280 0
210 226 439 0
-88 -224 228 0
39 -72 -314 0
131 -261 -395 0
105 -189 294 0
375 -386 440 0
236 244 435 0
-167 258 -351 0
-50 136 392 0
311 336 426 0
-214 -328 399 0
225 345 -416 0
-25 -187 217 0
76 -254 -297 0
64 215 402 0
-11 -206 -446 0
157 386 408 0
-21 -61 325 0
30 -132 259 0
144 -364 389 0
-163 333 -351 0
-281 350 431 0
-115 138 -371 0
15 -147 -360 0
-71 283 -309 0
-10 43 -195 0
126 -248 -438 0
32 -232 -357 0
-120 -140 440 0
93 -221 -379 0
-91 -187 260 0
221 -289 384 0
-99 236 -283 0
317 324 347 0
179 -222 298 0
160 -256 415 0
-50 212 281 0
54 -74 423 0
-65 -220 329 0
102 -160 -251 0
13 -217 440 0
83 -125 -135 0
-118 377 -443 0
-74 -318 -374 0
-60 -232 -240 0
130 -205 281 0
171 -339 346 0
254 321 -432 0
-54 -150 406 0
-112 -188 -329 0
161 445 -450 0
62 160 241 0
206 -302 -371 0
37 -242 312 0
278 -292 -335 0
329 -364 408 0
-141 207 285 0
142 254 -412 0
-38 215 -317 0
-176 -257 -414 0
-41 -176 252 0
400 -403 439 0
-307 -308 -438 0
-72 -292 -425 0
73 -232 -397 0
25 69 -391 0
15 237 352 0
-238 -367 448 0
-287 343 364 0
1 120 254 0
88 368 -442 0
52 312 -322 0
-92 -129 -283 0
-7 216 -267 0
-160 -171 -266 0
61 -140 -370 0
165 180 -219 0
-5 -62 -291 0
275 -322 424 0
113 334 358 0
-98 -164 -287 0
48 302 360 0
35 186 -379 0
27 -149 336 0
-62 -337 -390 0
31 77 439 0
-3 408 410 0
-25 -259 -333 0
-53 -79 -447 0
-14 -96 -442 0
165 351 396 0
145 -277 -412 0
45 186 -298 0
-132 173 372 0
-306 320 -444 0
37 -132 -426 0
-101 145 419 0
-5 -56 -414 0
26 -81 -412 0
12 -252 -354 0
54 168 317 0
14 47 183 0
57 -140 -285 0
193 368 -416 0
99 -260 353 0
-74 -104 395 0
145 162 243 0
-339 -365 406 0
22 -96 387 0
21 -32 -331 0
31 181 250 0
7 -102 -237 0
-237 -251 -428 0
13 239 -351 0
112 -258 -391 0
-264 -285 -389 0
-25 -217 -322 0
-73 250 272 0
116 -230 403 0
-31 -79 343 0
56 242 279 0
93 -119 -257 0
-61 -162 164 0
76 216 322 0
-22 285 292 0
-72 -83 312 0
162 321 -323 0
-364 -395 437 0
16 30 -363 0
-67 -357 -397 0
-318 330 -443 0
89 -193 -249 0
238 369 444 0
-178 -199 -334 0
69 173 203 0
280 309 400 0
25 59 -312 0
-218 -231 -405 0
-149 163 410 0
-64 321 -356 0
29 -86 211 0
165 -360 418 0
-81 96 296 0
-73 228 389 0
-112 -240 371 0
26 -194 -446 0
-62 -326 398 0
-145 284 -359 0
-95 257 -279 0
14 164 438 0
60 -158 -243 0
-168 -252 -384 0
-22 -189 -348 0
136 243 -317 0
44 148 -437 0
191 338 -343 0
259 -272 -437 0
253 272 -443 0
70 -73 -412 0
-3 -204 -298 0
-162 240 260 0
-218 317 372 0
98 -151 376 0
153 241 254 0
-116 -136 358 0
-248 275 290 0
411 -428 441 0
-80 -112 -279 0
-199 281 342 0
-92 -180 -214 0
-57 276 -333 0
-6 -25 382 0
-35 90 324 0
77 -326 396 0
-23 -91 -156 0
27 244 280 0
156 276 372 0
-14 119 -421 0
-144 204 355 0
-65 274 -302 0
335 -346 370 0
39 192 327 0
101 287 -369 0
-7 326 -412 0
206 309 -341 0
-158 -236 -385 0
-180 291 304 0
270 -329 377 0
-151 -347 384 0
-112 -159 -297 0
-46 49 -122 0
213 -345 427 0
115 170 412 0
121 220 -260 0
3 11 229 0
126 -290 410 0
-121 -207 -218 0
87 167 233 0
-170 -237 415 0
139 -344 -346 0
-92 -299 416 0
-107 310 316 0
40 129 -185 0
-319 424 436 0
-170 392 -440 0
-34 -61 190 0
-228 257 -358 0
147 328 -414 0
-137 188 -448 0
61 -102 139 0
-16 152 -267 0
-62 206 267 0
-81 -88 -208 0
-35 -77 -150 0
102 200 351 0
-28 -76 186 0
329 381 433 0
16 -107 204 0
193 277 -426 0
292 302 386 0
-8 -122 291 0
-200 202 -385 0
73 217 256 0
5 -36 -131 0
-47 320 -417 0
-155 385 446 0
13 294 362 0
-268 313 -372 0
-86 336 391 0
-93 111 -265 0
-2 254 395 0
-79 -379 -414 0
-196 -426 431 0
62 84 306 0
196 365 414 0
218 -287 301 0
93 -207 -417 0
-28 249 -416 0
-255 278 422 0
14 214 314 0
198 333 -429 0
313 352 -442 0
-122 218 -404 0
143 206 328 0
-136 218 -346 0
186 -391 428 0
128 -133 -419 0
-160 -204 378 0
-66 97 -262 0
94 -272 -356 0
36 -47 -151 0
37 -143 -354 0
161 360 -422 0
-226 -312 -390 0
-48 106 -437 0
-146 269 -310 0
-97 -233 302 0
-121 -312 -313 0
-98 196 -246 0
-50 114 -318 0
221 -225 378 0
103 260 -433 0
-92 -157 -275 0
-61 -149 -264 0
51 218 299 0
-88 -141 213 0
-98 -389 -427 0
34 -159 236 0
-125 249 -389 0
14 -46 -447 0
39 -57 -446 0
-211 268 -326 0
-25 -332 404 0
109 -237 -361 0
41 -281 -445 0
85 -370 425 0
-47 -72 134 0
-115 378 -430 0
45 -170 -412 0
68 187 -240 0
37 95 -365 0
-7 95 117 0
159 303 354 0
-320 -373 445 0
-56 104 -179 0
-17 105 -436 0
-84 157 -293 0
73 -91 253 0
-40 -284 420 0
-316 334 449 0
285 -286 440 0
-43 -63 -77 0
97 -377 -410 0
-154 -171 -402 0
-305 411 -445 0
-52 -66 194 0
-248 -264 -436 0
-60 -270 415 0
-39 77 -378 0
1 346 -391 0
-26 -214 220 0
-283 -304 -375 0
88 255 316 0
294 312 -417 0
174 -392 449 0
-25 122 435 0
286 352 387 0
-61 -217 -323 0
-67 121 415 0
99 -297 -299 0
-45 377 380 0
299 -399 -435 0
-146 -175 311 0
-87 258 303 0
20 358 405 0
68 -320 372 0
4 96 335 0
228 304 -358 0
-128 -146 356 0
-48 -77 325 0
21 -333 -346 0
34 63 391 0
-40 198 202 0
120 200 -249 0
116 -186 -255 0
-60 -144 -343 0
-201 266 -319 0
214 -356 361 0
-70 324 334 0
114 248 311 0
-16 -27 -442 0
-141 154 -163 0
57 293 -398 0
183 335 424 0
61 144 201 0
-76 148 -368 0
66 187 -327 0
44 136 -324 0
262 -304 357 0
-299 315 -331 0
184 188 -293 0
47 -273 387 0
-357 412 413 0
-214 -303 -326 0
241 -257 403 0
-47 -79 -340 0
-5 127 -216 0
169 179 -268 0
37 67 -441 0
-228 -352 -428 0
-236 357 389 0
194 -319 358 0
-187 -423 -434 0
188 -380 -418 0
-23 -25 445 0
-43 211 -430 0
-39 -83 391 0
80 -265 371 0
-12 -35 341 0
200 272 356 0
61 -62 -293 0
116 298 -305 0
47 -183 -395 0
-14 -321 374 0
35 -56 276 0
265 428 432 0
108 -189 -239 0
-143 -190 -196 0
-26 -83 303 0
-211 -342 -389 0
-122 162 298 0
5 18 -227 0
-13 64 281 0
44 124 -194 0
-61 -129 -253 0
132 167 -276 0
-75 -329 -333 0
252 289 325 0
48 -61 276 0
176 -218 -404 0
-39 260 -346 0
-89 163 -247 0
21 357 -422 0
39 77 345 0
200 -251 377 0
-221 -406 414 0
229 403 404 0
215 363 -421 0
-203 292 331 0
-10 -210 -445 0
40 -223 226 0
78 -89 313 0
-29 85 239 0
-123 -165 241 0
42 -71 -113 0
-25 -91 -296 0
-159 172 -232 0
-191 330 379 0
-174 229 231 0
-81 151 -444 0
-128 264 430 0
42 137 314 0
-12 303 314 0
271 287 -412 0
-85 144 324 0
44 172 -404 0
-75 -406 -423 0
91 129 403 0
63 -146 187 0
-132 350 439 0
-287 402 -406 0
79 -296 355 0
-51 -87 405 0
-167 173 -447 0
210 389 -436 0
133 174 -187 0
3 353 432 0
-53 198 -232 0
-261 338 -426 0
-221 275 -288 0
279 -285 -347 0
-23 132 184 0
47 -250 -268 0
181 217 362 0
-174 -420 -438 0
-36 -260 405 0
261 -325 -331 0
-19 -292 339 0
-115 416 -449 0
104 229 -289 0
12 107 432 0
-70 -129 274 0
-108 160 -279 0
9 -245 -424 0
-116 -328 -365 0
-167 287 423 0
188 -223 -248 0
-193 -229 -354 0
-210 -300 394 0
146 229 321 0
99 -212 -376 0
121 182 -195 0
-18 -273 343 0
122 180 256 0
-147 237 425 0
258 -338 -366 0
-6 77 87 0
-205 -272 -369 0
-29 138 -246 0
-93 156 300 0
-37 116 400 0
-108 220 -255 0
41 -369 -411 0
263 -368 -377 0
-95 198 382 0
48 -198 407 0
156 -236 -364 0
-157 189 438 0
211 330 349 0
-27 224 -385 0
56 134 222 0
181 -404 -426 0
-48 -98 -153 0
128 254 -363 0
76 265 282 0
-18 -165 -205 0
100 261 -385 0
-10 220 -448 0
-130 134 159 0
51 -215 369 0
112 426 -448 0
-232 337 -406 0
176 228 -313 0
-178 -260 443 0
-27 -273 -382 0
114 -293 -302 0
24 130 -198 0
-3 -306 339 0
-78 -334 394 0
-147 198 259 0
-13 -186 207 0
55 -136 -329 0
49 319 -423 0
-79 -205 342 0
-44 -263 337 0
-42 -214 290 0
-274 384 -386 0
54 -109 -127 0
159 -160 330 0
-46 375 -448 0
-51 -211 -377 0
-14 -299 -361 0
55 -251 -422 0
157 -238 246 0
87 -301 -324 0
212 253 -390 0
129 306 -384 0
-47 -260 356 0
20 179 250 0
128 245 -251 0
-123 -289 -382 0
-130 -267 285 0
216 -321 414 0
-110 155 306 0
306 -336 445 0
-338 -401 419 0
-50 79 -385 0
-45 288 399 0
199 -286 -309 0
163 -352 367 0
-73 124 294 0
-30 143 -164 0
-245 -353 -408 0
-116 -259 -351 0
170 -186 254 0
110 -142 -231 0
49 347 361 0
-101 -175 -404 0
9 -91 391 0
183 -272 446 0
62 -249 347 0
65 -278 -368 0
54 -180 -210 0
40 154 159 0
219 404 415 0
18 -71 -197 0
257 -348 -373 0
115 136 234 0
-50 66 -301 0
-140 -267 -304 0
32 47 99 0
-189 -288 -361 0
-61 88 -372 0
11 27 -166 0
22 87 370 0
-9 18 -287 0
-231 -316 -317 0
57 225 433 0
25 78 295 0
60 283 423 0
4 -250 292 0
-48 197 295 0
-176 216 -323 0
84 111 -391 0
170 339 413 0
310 354 370 0
-227 -293 -433 0
-54 -278 -362 0
-49 156 -276 0
-173 325 -406 0
172 342 447 0
-50 64 329 0
7 230 284 0
78 -342 363 0
37 65 90 0
91 -167 -392 0
198 -373 -441 0
80 201 -205 0
73 174 -369 0
-79 -138 -394 0
-2 -8 -123 0
-45 -158 -336 0
-115 250 -376 0
99 -319 356 0
35 330 366 0
-85 -320 -381 0
-179 -225 -379 0
285 312 370 0
91 -431 -439 0
82 -117 178 0
-112 246 264 0
-56 65 321 0
-27 114 227 0
138 -212 -443 0
133 -308 424 0
-81 140 -248 0
-87 185 -357 0
264 -288 -372 0
-2 -155 -335 0
-4 -44 -412 0
-40 146 327 0
25 -232 303 0
-53 -140 379 0
251 353 -389 0
-186 -249 -325 0
-223 -408 421 0
124 263 -289 0
139 295 -346 0
-81 -84 -171 0
122 -195 -208 0
22 66 106 0
-51 287 -341 0
-345 408 -445 0
-174 -370 423 0
129 237 -410 0
104 -180 -238 0
255 355 435 0
-17 -284 -441 0
343 -384 412 0
-1 -56 -249 0
117 202 -334 0
54 -119 260 0
-98 386 -414 0
33 180 -380 0
29 -200 367 0
55 -285 361 0
-202 268 399 0
239 244 446 0
-142 154 -294 0
-35 232 -280 0
251 -281 335 0
-145 336 -357 0
-196 259 449 0
-95 -194 -401 0
21 127 224 0
19 -101 -411 0
-11 -78 302 0
133 149 -191 0
94 117 166 0
-111 380 391 0
-390 -415 -445 0
36 146 -205 0
-33 101 -333 0
111 337 -427 0
170 242 -248 0
207 -242 -395 0
-117 -155 -445 0
-41 -394 402 0
240 -263 275 0
-39 -151 -418 0
77 -168 265 0
-18 -71 318 0
174 185 -380 0
122 146 -318 0
-127 142 199 0
-92 -142 403 0
217 307 316 0
-82 203 387 0
130 168 -175 0
-132 -330 -410 0
-190 266 -435 0
23 177 331 0
202 355 -394 0
-27 215 -373 0
-422 438 -446 0
-39 -119 337 0
239 365 414 0
77 -117 -122 0
-20 296 372 0
-52 225 -374 0
103 422 423 0
56 -79 334 0
-252 -308 -389 0
89 -183 276 0
-77 -116 -432 0
138 -288 299 0
25 296 -307 0
90 151 -275 0
6 82 -356 0
-117 -287 -299 0
-2 -149 -317 0
-65 263 412 0
43 -209 -397 0
13 375 -437 0
-137 -326 -427 0
49 -214 -379 0
-42 -90 423 0
-174 -269 -415 0
-247 272 320 0
41 -294 398 0
-132 223 278 0
234 -251 -314 0
58 181 -236 0
-13 79 -243 0
88 -196 311 0
11 -112 -125 0
29 -358 -422 0
55 -178 -207 0
-49 -164 320 0
98 -195 -324 0
79 102 -231 0
-1 77 -413 0
-160 -376 -382 0
193 -255 437 0
-180 258 -430 0
29 395 445 0
-127 -356 431 0
-8 -121 406 0
-171 -241 410 0
-92 -104 152 0
74 89 -269 0
73 174 258 0
-40 117 -169 0
-97 177 -377 0
116 -230 -276 0
-211 -257 395 0
147 -341 401 0
-40 -101 -154 0
189 351 -386 0
-69 104 291 0
-19 205 -446 0
65 289 380 0
193 -346 441 0
334 359 449 0
87 -159 240 0
69 106 -213 0
222 417 -441 0
100 327 -416 0
9 82 -162 0
-167 346 -376 0
55 -403 -407 0
-105 295 405 0
-137 -182 357 0
108 -280 -353 0
218 -326 342 0
-143 181 400 0
-237 -366 -404 0
1 72 124 0
85 295 355 0
87 -117 232 0
-150 -299 341 0
10 -236 280 0
44 140 267 0
83 -104 -231 0
-48 -187 228 0
-44 -119 -146 0
35 -77 314 0
-50 110 330 0
-152 204 -376 0
104 -428 -436 0
-138 -186 204 0
-115 -215 -379 0
253 276 333 0
132 175 -215 0
-72 125 -252 0
93 -131 370 0
76 -147 442 0
72 180 196 0
230 273 -416 0
-247 -411 -450 0
78 290 -323 0
-31 277 -301 0
140 -340 367 0
-13 -87 -270 0
9 -33 51 0
47 -154 -377 0
260 263 -403 0
19 182 193 0
-226 -361 -432 0
1 257 -315 0
-141 -220 404 0
-296 316 -326 0
-100 -413 442 0
46 158 -412 0
49 346 404 0
-53 -274 434 0
-23 32 -152 0
-59 123 -222 0
-35 -167 274 0
-69 -148 -381 0
-54 318 357 0
-228 -345 352 0
205 -307 387 0
-145 173 416 0
-137 302 -345 0
-315 362 -413 0
-43 293 -377 0
-150 260 -426 0
-331 -364 421 0
-237 269 353 0
232 294 -419 0
164 310 -400 0
-129 166 334 0
201 308 -374 0
95 278 -405 0
171 352 -372 0
-66 -242 -316 0
35 322 -384 0
20 -90 202 0
210 332 -399 0
-224 297 -430 0
84 285 -395 0
24 -64 391 0
-7 227 248 0
-2 33 -65 0
1 -173 -399 0
5 267 -372 0
-124 246 -301 0
-177 -334 -412 0
-6 -257 373 0
291 363 365 0
175 241 422 0
31 -34 -206 0
-12 -255 322 0
141 167 -211 0
-53 -112 211 0
-58 -159 262 0
45 -282 444 0
50 238 290 0
196 -200 304 0
55 -241 256 0
-11 34 228 0
311 349 417 0
-80 295 -338 0
42 287 -316 0
39 250 367 0
55 63 326 0
-241 -298 326 0
145 149 174 0
-124 232 -282 0
-50 -349 394 0
-3 -49 352 0
-143 -293 420 0
108 -130 -414 0
8 164 252 0
-232 -256 335 0
-80 -301 -389 0
14 -261 449 0
23 -186 217 0
345 393 -399 0
-114 -132 -336 0
-97 -239 291 0
82 404 424 0
63 -270 423 0
330 356 382 0
34 -222 322 0
-81 327 -338 0
33 203 210 0
8 115 -427 0
-201 287 -313 0
-124 293 -324 0
-251 256 -420 0
160 229 327 0
-7 122 -381 0
-79 156 -327 0
102 136 254 0
96 -116 440 0
58 -401 -436 0
-46 90 127 0
-69 -202 426 0
-188 -339 -368 0
90 -389 431 0
46 -180 295 0
-131 212 -213 0
32 65 -166 0
35 227 280 0
-324 -336 391 0
-35 363 446 0
57 220 307 0
87 177 -200 0
47 112 212 0
-77 -356 376 0
-92 -271 -308 0
-195 -394 -443 0
49 327 345 0
-135 -260 -364 0
-78 196 -294 0
40 -419 426 0
-115 -184 -408 0
40 86 407 0
-291 347 424 0
-1 251 -402 0
-283 369 -426 0
-20 429 -443 0
-133 -230 -291 0
-58 195 420 0
-61 104 149 0
212 -284 422 0
85 182 -305 0
255 358 434 0
60 -243 393 0
-76 -83 -319 0
42 -133 148 0
-27 146 200 0
6 311 -317 0
-26 123 -364 0
-2 236 -435 0
-196 -200 -213 0
-224 236 -254 0
42 -193 -210 0
-65 196 -313 0
17 -67 69 0
-100 -109 -251 0
-93 192 -198 0
157 201 -437 0
-113 206 -410 0
292 322 -424 0
-84 -168 -305 0
13 220 352 0
-182 276 366 0
-43 -78 151 0
-31 -177 214 0
43 56 -159 0
42 175 347 0
108 -219 -254 0
157 284 299 0
191 276 279 0
-38 -169 -326 0
152 343 371 0
-217 -315 -343 0
-88 -121 255 0
95 100 325 0
-15 -92 -152 0
-11 -13 -208 0
-42 209 240 0
-125 170 -201 0
87 -189 228 0
-55 -103 -449 0
-232 312 -421 0
-94 340 -421 0
-57 113 -210 0
-161 337 -445 0
-217 345 398 0
22 -285 -423 0
123 254 -414 0
-62 -77 -423 0
-228 247 344 0
130 133 -386 0
-243 358 -365 0
-312 411 417 0
15 75 -88 0
-116 -334 370 0
-122 -299 424 0
-326 369 430 0
130 -193 269 0
119 -361 398 0
-46 -129 -368 0
35 383 443 0
-84 224 325 0
155 -263 393 0
6 164 -296 0
-82 -227 326 0
70 -218 -374 0
-272 -356 -387 0
47 154 -415 0
209 329 -427 0
-232 -265 -420 0
-318 337 400 0
-222 -239 -403 0
-87 -189 -215 0
-109 176 -373 0
-357 406 -423 0
-60 -106 379 0
303 -374 381 0
-246 284 -391 0
234 396 420 0
-173 243 -447 0
91 172 346 0
78 -192 287 0
93 -286 -288 0
-219 250 -322 0
16 74 236 0
-108 222 315 0
141 -313 -365 0
-22 55 -246 0
210 -340 -346 0
78 94 -193 0
-132 157 -199 0
-264 283 362 0
132 -138 -349 0
90 -149 369 0
29 61 382 0
128 -214 -236 0
130 252 -424 0
48 179 240 0
-126 -197 -408 0
-167 -189 -191 0
-225 -303 347 0
-255 -311 -383 0
108 -245 261 0
26 -145 218 0
306 367 -426 0
-272 307 320 0
139 -179 -419 0
12 165 408 0
-12 -36 104 0
95 -197 253 0
32 160 -372 0
-227 369 403 0
-27 48 99 0
32 -100 236 0
143 220 305 0
-141 -173 -183 0
13 149 -183 0
-176 -238 -255 0
-13 -95 -239 0
-110 -119 -217 0
-238 405 436 0
-55 -267 -383 0
261 -292 296 0
-111 -385 392 0
-150 263 273 0
40 268 -328 0
88 -309 -400 0
-29 187 382 0
71 -199 371 0
25 -35 412 0
-5 -204 397 0
72 372 -418 0
334 341 358 0
91 157 266 0
29 342 -344 0
-8 -118 -365 0
-74 77 345 0
67 190 -427 0
106 -133 249 0
-65 276 -340 0
-354 -403 -424 0
-115 130 -391 0
-193 214 287 0
8 371 417 0
-227 309 385 0
124 -232 440 0
44 118 422 0
321 -400 -441 0
-4 174 403 0
121 222 -270 0
-98 127 383 0
-41 -122 -211 0
-61 -148 -298 0
-76 -313 425 0
-16 -103 426 0
-138 -148 -266 0
89 -102 106 0
129 -226 -408 0
247 286 416 0
-20 133 218 0
-244 419 -431 0
-100 -122 -174 0
-26 39 122 0
-92 -250 342 0
-84 228 300 0
-130 -284 358 0
85 -216 -219 0
113 -168 -273 0
-40 -154 253 0
282 403 415 0
264 327 370 0
103 -347 -449 0
-91 101 106 0
-3 -77 -348 0
-139 -176 193 0
-8 254 -381 0
104 393 -407 0
-154 -402 432 0
104 -213 229 0
80 107 123 0
145 401 -442 0
-123 -244 344 0
242 362 385 0
35 -209 -346 0
174 -278 -445 0
-9 271 347 0
-122 142 -371 0
4 326 -328 0
271 278 -308 0
67 -279 -399 0
128 -288 -293 0
136 -235 -278 0
69 171 -210 0
-278 -292 -384 0
-74 279 308 0
13 -24 -401 0
39 -220 427 0
-125 136 450 0
125 -425 436 0
-91 -122 -305 0
99 265 -394 0
-5 -80 392 0
159 -170 -381 0
82 -103 -116 0
84 -146 181 0
23 243 435 0
49 187 212 0
-92 163 389 0
173 -270 -380 0
-80 376 -384 0
52 139 -441 0
304 363 -427 0
2 54 361 0
-57 86 -358 0
-76 208 -439 0
78 -167 -181 0
-35 56 132 0
-201 254 -417 0
-34 -253 -419 0
-173 -250 275 0
189 -208 367 0
252 -273 -294 0
-77 165 -202 0
-38 -275 -317 0
-14 109 -328 0
-1 150 -256 0
11 54 221 0
35 -283 -409 0
79 -101 290 0
-8 -72 100 0
201 -209 -404 0
-241 313 315 0
-127 -221 260 0
162 -274 437 0
-87 -400 -438 0
-45 -104 -249 0
-68 -77 -381 0
65 -118 148 0
124 -213 388 0
-68 166 -228 0
69 -419 427 0
203 378 406 0
57 -277 298 0
-122 -290 -353 0
76 -145 -223 0
-145 -226 -317 0
-179 249 314 0
-100 325 411 0
18 139 356 0
-124 230 -396 0
-217 -240 -367 0
-228 -375 388 0
-10 -187 -388 0
-200 216 -324 0
-50 -145 399 0
-91 -109 167 0
-86 -108 197 0
207 272 326 0
-18 -225 -405 0
-146 167 411 0
103 228 -290 0
28 -169 270 0
175 196 248 0
-237 -346 -417 0
213 -341 348 0
-114 -159 -229 0
32 260 321 0
198 -246 -339 0
-303 -381 394 0
-84 114 -148 0
-24 88 313 0
39 65 244 0
-220 374 442 0
-18 132 -175 0
-70 -381 448 0
-174 278 -318 0
124 -156 -287 0
-201 254 286 0
-9 88 262 0
68 267 -435 0
317 -319 336 0
-26 31 362 0
40 -162 191 0
58 102 -379 0
159 341 -365 0
64 191 235 0
-51 -120 427 0
-143 275 -368 0
174 -366 -379 0
-32 234 322 0
83 -128 251 0
-192 244 327 0
20 -78 -201 0
137 -305 335 0
-241 295 412 0
-134 -142 -198 0
19 302 447 0
42 -132 -307 0
15 -30 -212 0
-70 -398 429 0
110 -354 -359 0
-43 106 -375 0
-164 -289 360 0
-79 -97 -159 0
31 -89 281 0
-32 152 320 0
366 -430 -440 0
16 32 -272 0
182 259 450 0
27 -54 170 0
-288 385 -402 0
200 426 437 0
129 -134 349 0
31 -155 -201 0
-18 -142 -356 0
-228 417 426 0
-111 152 -226 0
100 -198 -289 0
-162 -325 -331 0
-29 38 144 0
-87 -284 419 0
8 307 391 0
-109 136 436 0
36 389 -407 0
-163 -240 376 0
145 255 411 0
-371 -395 435 0
71 -202 -338 0
5 220 242 0
-244 -285 303 0
58 -142 260 0
-72 430 442 0
201 306 -414 0
-66 232 242 0
-250 -295 436 0
203 225 -227 0
60 86 -411 0
-320 441 -446 0
-49 -208 -443 0
158 -356 441 0
-28 71 -269 0
-233 247 -445 0
-400 402 449 0
-34 123 224 0
-48 240 -261 0
-46 -61 225 0
-263 -378 -400 0
88 105 196 0
-127 206 -235 0
181 257 -375 0
8 -378 -383 0
240 332 -380 0
-175 -180 334 0
-32 -133 -209 0
-102 363 435 0
-23 -225 -425 0
-150 260 321 0
-159 171 -436 0
-116 -361 394 0
-201 -206 -306 0
-134 240 259 0
97 -205 427 0
-137 -275 341 0
1 -5 -360 0
331 363 372 0
132 -160 424 0
-122 -285 -402 0
-93 98 277 0
-58 -324 -386 0
49 -156 -372 0
154 -172 -391 0
-173 315 -372 0
64 -175 430 0
25 -322 362 0
265 316 324 0
49 174 -386 0
86 241 -371 0
67 288 446 0
-359 -436 449 0
-54 237 -377 0
291 -318 334 0
-85 -143 445 0
-41 -115 337 0
-42 -220 395 0
76 -93 252 0
-128 -250 366 0
-7 138 -271 0
-94 -148 344 0
-203 -336 -360 0
122 177 -210 0
-220 261 318 0
242 -309 447 0
4 87 -295 0
112 164 434 0
138 -182 283 0
-112 120 -184 0
67 -260 307 0
-103 194 329 0
203 -379 407 0
72 -112 -206 0
-239 279 -317 0
-90 124 352 0
55 65 385 0
85 -174 413 0
156 357 -416 0
189 -360 -380 0
250 326 362 0
-143 156 233 0
11 106 -277 0
214 292 379 0
4 44 -350 0
-209 332 -406 0
223 352 447 0
-38 347 435 0
-130 137 196 0
-176 234 263 0
-84 327 399 0
-98 137 445 0
50 -323 402 0
35 -228 326 0
7 72 167 0
18 332 -448 0
-135 186 438 0
-13 133 -337 0
129 210 -368 0
199 213 -359 0
-100 -289 -445 0
74 260 411 0
63 -309 -367 0
155 -164 -403 0
-98 -134 -324 0
37 -343 351 0
-61 -314 419 0
-198 -241 396 0
-7 122 363 0
-47 74 237 0
90 120 192 0
166 347 -430 0
252 324 -406 0
232 -344 -358 0
-257 292 -432 0
-42 51 260 0
-18 82 -98 0
-293 -297 430 0
30 -124 -168 0
168 261 446 0
129 150 -255 0
97 -137 254 0
297 -376 420 0
72 178 -189 0
-24 87 -272 0
-169 273 -404 0
159 -444 446 0
-68 352 368 0
-175 323 -347 0
63 -368 378 0
64 -133 388 0
78 261 282 0
-50 -206 -304 0
40 -89 226 0
176 179 384 0
-253 266 404 0
-154 263 397 0
-114 -194 257 0
-163 -196 422 0
-132 -238 407 0
115 258 -423 0
79 -97 -382 0
-43 58 319 0
-126 258 259 0
33 -38 240 0
5 -134 -403 0
-48 103 -118 0
246 -356 366 0
27 218 220 0
106 -191 353 0
153 -191 -426 0
-8 92 364 0
-77 99 334 0
52 -233 -235 0
284 -328 368 0
-45 85 -140 0
-136 -203 -324 0
-35 221 230 0
-233 371 388 0
44 323 336 0
-264 292 -373 0
-115 139 -167 0
-5 -200 -343 0
-210 320 355 0
-30 -85 338 0
74 -219 -406 0
285 -405 443 0
-114 132 170 0
-167 334 385 0
-223 -339 -341 0
-75 177 236 0
133 -208 276 0
105 -132 145 0
-204 307 -430 0
-76 -256 -415 0
-20 238 -415 0
-44 -63 256 0
298 -308 319 0
-83 90 -341 0
-180 367 368 0
-53 176 -281 0
58 -275 295 0
360 402 -449 0
-155 270 288 0
232 304 336 0
-323 332 -374 0
94 425 -443 0
109 -279 -287 0
-99 200 -410 0
-106 216 410 0
-226 266 309 0
-23 -375 422 0
-59 -175 344 0
-87 179 276 0
113 193 -197 0
-178 -206 375 0
70 -124 -249 0
59 272 328 0
294 320 348 0
-131 -311 352 0
95 -123 -365 0
-239 327 -391 0
-98 -348 385 0
164 -293 376 0
91 121 363 0
5 54 213 0
-125 273 -449 0
193 -233 416 0
-103 -166 -280 0
-70 142 266 0
-114 -183 -404 0
-16 54 -307 0
-44 219 -320 0
39 -100 -273 0
75 -105 419 0
-60 -301 -410 0
30 -49 51 0
-224 -253 -427 0
-132 135 292 0
-383 411 -445 0
-53 334 -364 0
-59 63 195 0
-204 -263 273 0
-11 96 102 0
51 -74 104 0
-196 228 -274 0
78 309 -352 0
-76 144 -206 0
2 87 -351 0
171 -257 -333 0
20 124 295 0
188 -310 412 0
3 179 397 0
-146 371 -428 0
-42 -174 239 0
-193 431 -438 0
179 -369 -373 0
35 -181 -314 0
-241 339 -449 0
-107 -279 322 0
-289 -419 -445 0
154 -317 411 0
-128 209 347 0
