p cnf 450 1917
-3 -193 -425 0
-289 -331 351 0
-126 -436 -441 0
-5 245 370 0
-126 -222 -394 0
-299 -338 398 0
-350 -361 -428 0
81 -322 361 0
-12 -125 -423 0
15 -178 252 0
81 86 356 0
-69 224 238 0
56 77 419 0
188 206 282 0
-20 196 -393 0
-193 239 385 0
10 -171 295 0
46 70 -264 0
-227 -354 -381 0
-186 274 -367 0
133 215 -406 0
20 -46 -303 0
32 271 -365 0
224 -232 395 0
-146 -294 316 0
120 -341 391 0
-183 -257 446 0
-19 -398 -418 0
305 -383 -432 0
297 -411 425 0
62 -82 443 0
-203 -244 -426 0
14 228 -387 0
90 152 -180 0
-299 -361 -364 0
3 -209 376 0
129 192 217 0
-123 -131 -286 0
-57 110 139 0
-87 -216 -418 0
-231 317 -430 0
-74 -112 224 0
-188 -338 -353 0
46 -113 -187 0
139 218 304 0
-159 -217 244 0
-66 -188 -405 0
-17 137 -332 0
26 42 -216 0
60 -84 201 0
-127 219 -397 0
-323 -372 405 0
-254 273 -422 0
21 156 164 0
-189 -282 -337 0
191 252 365 0
288 -310 -393 0
209 231 287 0
111 227 280 0
26 389 403 0
-155 -189 -383 0
17 40 346 0
-7 -119 172 0
45 106 118 0
87 -205 -300 0
-175 322 392 0
45 331 410 0
-202 329 -334 0
-80 101 -317 0
9 -307 412 0
51 -415 450 0
-146 -174 -193 0
55 255 322 0
-297 366 401 0
1 -64 164 0
49 136 -188 0
-90 -205 252 0
49 -275 356 0
112 -176 -293 0
-147 -371 404 0
-11 -157 166 0
-260 263 -304 0
180 380 391 0
-56 -212 266 0
67 227 -327 0
15 33 -172 0
-18 -23 153 0
192 -346 422 0
67 -245 263 0
-244 -294 -435 0
-90 312 -438 0
-186 239 -269 0
4 99 159 0
157 -245 430 0
56 215 -365 0
25 138 335 0
3 117 389 0
-35 151 -414 0
234 -235 -379 0
10 269 294 0
-13 145 185 0
314 -344 355 0
300 373 -440 0
132 -314 323 0
136 254 -378 0
-166 -290 350 0
22 85 -373 0
67 154 -369 0
-92 322 -390 0
-191 253 444 0
159 -268 -430 0
148 -370 450 0
41 -168 -264 0
-38 -149 170 0
37 -249 439 0
146 -166 302 0
257 -328 424 0
45 169 -439 0
180 -253 -368 0
-183 -220 276 0
262 356 365 0
-12 -308 -309 0
27 210 278 0
93 279 408 0
154 361 429 0
-216 394 -450 0
-51 348 390 0
181 -405 429 0
-265 -267 322 0
18 174 262 0
139 -145 379 0
179 219 419 0
-7 -76 -362 0
258 292 -422 0
-29 134 -428 0
141 -423 -446 0
210 -292 426 0
23 -289 353 0
32 -59 340 0
-23 -90 -268 0
-96 -270 -349 0
-10 84 96 0
-52 249 432 0
-250 271 -318 0
-143 300 -404 0
-195 321 401 0
308 379 419 0
200 350 -370 0
-123 -238 -339 0
-57 -122 302 0
243 264 -399 0
53 348 382 0
-25 32 352 0
84 -123 340 0
-86 219 379 0
-42 195 -436 0
9 -172 -303 0
-152 310 424 0
242 -278 -367 0
331 -353 366 0
-34 47 375 0
4 -177 352 0
-63 161 -242 0
13 324 -429 0
-51 -80 253 0
-71 371 432 0
-34 -79 -368 0
78 -108 300 0
-9 -104 220 0
-87 266 447 0
-24 55 -303 0
86 -169 439 0
-90 -248 -334 0
205 -224 -383 0
142 -174 -285 0
279 306 -449 0
41 316 343 0
-85 -277 -391 0
-262 -305 443 0
-151 -210 -267 0
146 230 349 0
103 -121 -284 0
-47 219 320 0
199 338 382 0
-12 -159 418 0
125 184 268 0
-43 124 241 0
-18 156 388 0
173 318 424 0
61 -104 265 0
-39 -257 276 0
125 -133 -237 0
-270 -339 -422 0
-39 -81 435 0
55 -140 163 0
-3 -26 -260 0
20 -149 375 0
-58 377 -409 0
-132 163 -432 0
-209 -238 449 0
-162 178 442 0
-173 257 381 0
-254 -306 -336 0
42 243 297 0
89 174 238 0
113 -158 429 0
59 78 -435 0
262 -283 -442 0
-258 385 424 0
-218 240 385 0
-7 -341 423 0
16 -213 -306 0
-6 -104 -288 0
62 -227 -387 0
-75 -264 416 0
9 -73 106 0
-17 -68 298 0
39 -347 -373 0
-261 -327 -414 0
149 319 412 0
103 350 -377 0
121 -183 186 0
59 -204 -247 0
70 -78 151 0
115 -165 219 0
146 -174 288 0
399 -429 -438 0
-66 -229 399 0
-97 -354 370 0
-251 -264 -289 0
88 293 412 0
-3 -253 -402 0
236 -286 329 0
-36 -125 -232 0
-224 -345 430 0
296 319 432 0
-98 -105 -239 0
188 -223 355 0
5 -415 417 0
-247 -267 -449 0
-35 -45 -54 0
-82 -135 197 0
-46 -134 -167 0
38 -96 -297 0
47 100 -327 0
29 358 -362 0
125 -179 -435 0
-101 301 377 0
-175 182 -278 0
256 -318 -364 0
70 101 365 0
13 -379 -422 0
6 180 347 0
133 250 337 0
-252 -275 294 0
-248 307 -398 0
90 138 -437 0
-17 169 240 0
223 -331 421 0
176 -228 408 0
155 -363 -416 0
141 -169 -346 0
142 -158 -426 0
-256 -302 -441 0
22 -120 -276 0
189 366 -371 0
-9 71 242 0
-132 246 -263 0
152 -304 330 0
9 261 377 0
-19 -42 202 0
44 -93 -440 0
-136 -311 -312 0
-39 -104 -160 0
-29 -211 270 0
-53 114 396 0
119 195 430 0
56 123 313 0
176 -273 -434 0
-98 283 338 0
-77 -117 230 0
277 -375 -407 0
-131 -204 256 0
-90 -129 -434 0
126 218 277 0
130 223 -242 0
26 112 115 0
24 269 428 0
-242 -250 295 0
-109 -135 370 0
-33 -67 438 0
14 89 346 0
-60 199 258 0
-213 -252 -322 0
-55 101 -225 0
24 -92 250 0
58 -83 206 0
-307 -335 399 0
-84 212 323 0
269 -287 373 0
345 363 -391 0
141 303 435 0
43 134 -180 0
-230 -378 428 0
-326 369 -386 0
-97 -201 225 0
15 100 190 0
29 -142 334 0
279 345 388 0
-54 133 -438 0
214 380 -404 0
65 -175 210 0
21 294 -431 0
12 260 -328 0
178 -191 365 0
77 -326 434 0
-204 -262 -398 0
-221 350 -449 0
16 -238 -428 0
63 -285 402 0
-121 -176 -238 0
-65 347 -382 0
-14 -159 -221 0
-108 173 212 0
18 -107 -118 0
110 146 -174 0
-28 -210 -444 0
138 168 304 0
10 -111 -276 0
214 -360 391 0
131 -142 -183 0
-11 208 295 0
-89 -125 335 0
-181 -276 308 0
-86 129 420 0
115 -145 -214 0
-55 135 268 0
-130 -152 320 0
-125 -333 400 0
151 245 262 0
42 -172 326 0
13 52 -136 0
-65 427 444 0
-85 -319 -396 0
111 180 394 0
93 -129 396 0
-17 191 293 0
-53 83 -407 0
-33 170 190 0
-8 250 -448 0
-1 16 -56 0
-30 62 -270 0
-31 206 -376 0
211 236 -429 0
213 257 -352 0
170 336 369 0
158 -369 449 0
-251 300 -319 0
110 218 -371 0
2 -287 -319 0
257 -367 -375 0
-69 -171 -398 0
-99 119 199 0
295 -328 -425 0
-28 -146 -296 0
-148 -230 -401 0
122 -321 352 0
132 -197 222 0
-98 -122 181 0
217 -404 447 0
130 135 -396 0
-126 242 254 0
-167 348 -394 0
-65 -171 -376 0
170 222 -290 0
26 175 -388 0
88 -92 341 0
32 391 -432 0
93 -383 -437 0
-28 -73 -152 0
-12 -37 253 0
156 -246 313 0
-44 350 -383 0
-218 344 397 0
-163 241 258 0
-285 288 294 0
-53 -94 367 0
-7 123 -364 0
-146 205 -428 0
272 343 402 0
122 -129 444 0
-211 -281 -311 0
-80 195 347 0
-106 -201 302 0
63 -158 271 0
-35 -160 361 0
83 -253 382 0
-5 176 225 0
100 -300 333 0
132 288 -314 0
186 -192 -357 0
-213 -221 -240 0
-48 180 435 0
62 -142 -293 0
159 -254 304 0
-103 -296 327 0
227 256 381 0
83 -259 418 0
1 165 -298 0
95 -307 370 0
-153 -182 220 0
223 301 303 0
2 -145 -321 0
-63 -71 -207 0
87 -273 -343 0
7 -93 381 0
-47 259 -330 0
307 -405 -421 0
77 -149 156 0
175 -280 -430 0
-120 -275 435 0
-356 -389 -431 0
-141 149 -433 0
178 366 -388 0
244 389 -436 0
-23 -140 -351 0
-55 184 368 0
242 -348 -423 0
-79 143 226 0
112 132 395 0
-140 -168 412 0
-266 277 300 0
-140 185 279 0
19 58 -238 0
275 359 -361 0
72 225 260 0
100 105 -264 0
93 333 387 0
102 -141 -432 0
99 203 -348 0
213 -214 -366 0
-95 -292 339 0
12 57 -123 0
-4 -299 -432 0
-197 -224 -341 0
-47 164 -302 0
-28 53 -428 0
73 184 -303 0
91 332 420 0
-210 -246 -434 0
26 163 282 0
102 -297 -437 0
-46 80 -406 0
-314 399 -400 0
-321 -377 400 0
-172 235 404 0
86 299 311 0
17 -161 -395 0
133 283 369 0
-290 292 -297 0
54 -238 -383 0
-50 -319 358 0
-151 246 -256 0
-72 -382 405 0
137 -191 431 0
5 -87 384 0
-106 240 -253 0
4 142 -262 0
122 268 -285 0
-35 54 -104 0
-182 245 275 0
-79 -185 259 0
168 176 -339 0
154 -282 -372 0
-195 -230 -233 0
190 292 -441 0
146 281 -423 0
35 -123 -322 0
258 327 433 0
132 147 -377 0
259 -358 -405 0
154 -231 -272 0
-54 358 -409 0
-110 -229 294 0
-128 -288 342 0
273 324 -337 0
-211 244 432 0
38 -193 242 0
96 194 332 0
96 -277 301 0
-236 -377 427 0
108 -270 449 0
70 -235 -305 0
-340 -405 427 0
-192 206 337 0
-279 -388 401 0
-64 -201 258 0
-44 121 221 0
17 274 404 0
267 -298 -319 0
106 115 317 0
25 311 -412 0
-4 329 -411 0
-192 -197 396 0
269 307 -443 0
-4 306 -437 0
-26 -142 251 0
12 -132 162 0
71 -162 359 0
70 -184 212 0
-44 -203 -364 0
11 30 299 0
30 165 -411 0
23 -354 386 0
104 -340 386 0
-184 -395 -422 0
-81 83 -86 0
-118 125 277 0
-194 300 -321 0
-56 -113 351 0
-53 -99 136 0
86 -162 263 0
78 -153 -440 0
-40 195 359 0
-214 -309 434 0
95 -191 338 0
-9 53 144 0
85 -373 395 0
20 -143 -150 0
-102 -159 -190 0
15 -236 392 0
78 189 373 0
-220 -285 419 0
-64 -191 356 0
404 427 446 0
80 -282 318 0
7 -87 412 0
-169 -396 433 0
-133 -208 -446 0
39 -86 374 0
-38 -297 338 0
213 -266 -290 0
138 -305 -401 0
42 76 86 0
110 -235 248 0
-21 -26 255 0
326 384 401 0
66 108 293 0
-4 -302 -416 0
60 -89 125 0
-97 -145 -309 0
143 154 -443 0
-289 302 -420 0
35 -323 -375 0
-6 287 -331 0
-310 -394 -433 0
199 252 -334 0
-54 -307 334 0
145 -184 -209 0
116 -122 425 0
325 357 427 0
205 -222 -331 0
255 264 270 0
-160 224 324 0
-320 344 -373 0
70 -188 -434 0
48 -141 -297 0
-139 398 422 0
111 276 399 0
134 -388 -420 0
-9 151 -228 0
182 -273 424 0
189 -202 312 0
114 126 -365 0
243 354 426 0
-9 165 -293 0
-273 288 -449 0
14 372 -391 0
102 -144 -438 0
3 -165 -439 0
100 -122 -442 0
94 -201 414 0
-24 -101 111 0
-26 103 429 0
-1 -49 -322 0
-81 256 -264 0
-193 340 -421 0
184 -240 250 0
-35 -78 80 0
-19 -174 -300 0
-151 268 349 0
-331 -362 -397 0
-20 281 -434 0
-35 177 -245 0
85 -180 272 0
-32 -129 176 0
122 -279 -368 0
231 -416 -423 0
-51 114 279 0
105 -253 -266 0
-24 37 -352 0
112 -225 -380 0
149 350 -402 0
-199 225 -372 0
209 246 -252 0
-28 52 412 0
52 -242 394 0
-90 -301 442 0
-42 -197 -384 0
-10 437 439 0
176 364 -432 0
-58 271 420 0
-73 -184 348 0
-102 144 -262 0
-38 130 252 0
235 -349 -359 0
-47 -172 256 0
-267 425 440 0
-203 -312 368 0
126 174 221 0
92 226 320 0
-104 -341 385 0
-89 -141 440 0
-260 299 -327 0
37 170 -265 0
82 -342 408 0
-49 277 -423 0
-8 -215 449 0
-36 51 145 0
53 -174 -408 0
-90 -183 304 0
31 244 291 0
142 293 -417 0
-3 374 427 0
128 235 -420 0
129 -163 317 0
61 -226 386 0
-121 351 -362 0
-216 -302 415 0
304 314 -374 0
242 -436 449 0
-91 102 -255 0
127 -130 412 0
-42 264 334 0
-18 -171 -230 0
30 -69 -397 0
328 403 -417 0
30 293 -416 0
298 -312 -344 0
74 221 -357 0
-387 -397 407 0
283 340 -448 0
-49 -80 -308 0
-50 155 -345 0
-6 -120 430 0
244 305 -401 0
101 347 377 0
72 -250 288 0
134 -240 388 0
-353 -359 365 0
250 404 -432 0
194 375 428 0
150 -168 370 0
79 127 295 0
55 267 317 0
-69 -94 -311 0
-49 122 395 0
251 -302 323 0
-198 330 -341 0
107 -372 -407 0
-7 30 450 0
-71 264 -366 0
182 369 -401 0
22 -61 -296 0
278 -374 -385 0
47 -49 110 0
-29 -106 254 0
203 -322 338 0
320 -355 -430 0
-163 -174 427 0
9 75 324 0
4 145 -380 0
-63 -295 314 0
-104 -248 354 0
5 261 282 0
-58 -129 -182 0
12 25 383 0
173 293 298 0
-70 76 -150 0
3 300 -337 0
-13 -289 -450 0
-8 314 392 0
-144 269 319 0
22 208 378 0
-106 -191 -410 0
14 -352 395 0
57 59 89 0
-22 27 436 0
206 -305 -426 0
172 -195 265 0
-71 111 -271 0
40 -52 94 0
-199 224 -421 0
313 373 -428 0
-21 -220 -284 0
-245 -292 370 0
164 -190 358 0
150 -354 -420 0
165 227 447 0
-53 111 306 0
201 214 298 0
-52 -82 -125 0
-157 -289 336 0
-137 153 -211 0
-16 -159 -298 0
24 -346 410 0
80 190 212 0
-31 -143 341 0
-87 349 390 0
-58 300 307 0
352 355 381 0
7 -41 -408 0
356 -421 437 0
-248 -318 -373 0
-195 -222 -241 0
-3 -236 -328 0
-13 51 -362 0
-209 261 -418 0
204 253 389 0
42 -124 355 0
-84 -284 -434 0
94 243 -441 0
-235 -244 -427 0
-181 -321 -389 0
-34 189 -264 0
-54 65 -105 0
38 -186 -374 0
295 334 424 0
-180 -204 -255 0
69 -262 -320 0
-148 276 338 0
146 344 378 0
258 -326 -394 0
-124 -417 -434 0
-29 346 363 0
240 -241 318 0
-34 -327 436 0
-68 107 201 0
94 251 430 0
-11 -101 -277 0
-108 267 -374 0
-158 259 -385 0
-36 -181 229 0
144 -151 329 0
-165 198 210 0
-50 271 -346 0
-23 -101 378 0
173 -352 380 0
-127 217 -393 0
179 -180 -208 0
81 -293 379 0
147 -160 -212 0
179 -198 -277 0
-37 308 -379 0
28 -167 -297 0
-175 -417 -441 0
182 237 307 0
-64 -215 407 0
-74 309 362 0
-194 269 274 0
-33 206 237 0
4 274 383 0
-316 -360 -377 0
62 -121 207 0
26 34 -165 0
-85 -248 -409 0
-24 118 -242 0
45 -213 296 0
141 357 -437 0
-161 229 396 0
-262 267 327 0
-220 -362 -381 0
101 -169 -449 0
-29 -152 249 0
-54 62 188 0
-167 177 262 0
82 -217 -432 0
43 -125 341 0
167 279 434 0
-168 174 441 0
-81 304 339 0
288 -387 -402 0
-175 236 -305 0
330 359 400 0
-174 276 287 0
116 -359 -442 0
20 -321 -444 0
-93 -176 -249 0
106 -178 299 0
-163 182 288 0
37 83 303 0
-166 -377 402 0
255 -352 -450 0
174 310 -321 0
-38 105 353 0
-48 128 -196 0
-133 -302 -387 0
42 48 -63 0
-17 114 332 0
66 135 393 0
-253 430 -445 0
123 178 289 0
-197 -285 315 0
-4 -243 -311 0
136 222 -336 0
41 -309 365 0
-49 195 386 0
63 -301 -379 0
110 126 -180 0
-102 343 -397 0
-242 -258 -346 0
-147 -248 350 0
31 -140 383 0
127 -137 -305 0
202 -224 230 0
24 -59 -192 0
-63 122 -225 0
-24 29 162 0
43 185 -326 0
-182 320 333 0
24 203 -205 0
14 -95 -125 0
-4 -261 273 0
-206 -331 377 0
218 293 -408 0
263 327 422 0
218 -254 441 0
55 -126 -284 0
192 308 332 0
-188 311 350 0
183 -418 -426 0
-23 219 -334 0
83 -160 -426 0
-235 -357 399 0
-193 -337 -444 0
37 -244 -306 0
134 -354 358 0
-22 -228 345 0
140 -225 -418 0
-322 343 415 0
-170 327 424 0
-195 317 354 0
121 -412 441 0
-29 83 -182 0
11 182 -347 0
-49 221 425 0
39 53 -209 0
35 64 429 0
132 -311 -365 0
-115 164 234 0
-14 -26 237 0
130 -332 -447 0
81 -120 -223 0
-56 267 336 0
-54 -89 -179 0
-204 -217 290 0
-56 388 -420 0
-69 -127 252 0
-178 -230 304 0
132 298 -400 0
-256 401 -415 0
33 81 338 0
-89 94 -127 0
-202 295 413 0
-59 140 361 0
-349 -399 -441 0
-299 -315 -433 0
-5 20 253 0
-78 240 368 0
-11 -406 427 0
-69 296 349 0
394 416 -439 0
-4 217 435 0
83 -179 -404 0
-29 72 -158 0
310 -410 -418 0
68 93 237 0
-48 -304 332 0
45 -218 -224 0
-310 -374 411 0
98 -245 -295 0
220 -257 -298 0
23 90 -301 0
9 -109 -112 0
79 -392 425 0
145 -274 447 0
90 -203 235 0
38 292 -332 0
82 -289 409 0
112 208 -279 0
-210 235 252 0
-208 -296 -390 0
17 50 67 0
-52 113 264 0
75 192 439 0
-11 186 202 0
14 -89 -276 0
60 158 -310 0
233 278 287 0
140 -334 -433 0
-129 -190 269 0
-150 346 -444 0
-6 72 365 0
-260 313 445 0
-233 321 450 0
-187 204 -439 0
106 125 -360 0
-136 215 -448 0
25 213 -259 0
-137 -301 306 0
-40 -342 -426 0
70 125 307 0
-109 -224 -233 0
-9 -286 327 0
-136 419 448 0
-261 -294 366 0
89 300 -432 0
27 183 444 0
90 96 422 0
-95 370 383 0
146 212 448 0
-252 262 -363 0
-45 -372 -396 0
11 -262 440 0
240 255 388 0
-205 -299 449 0
18 -153 298 0
-138 -362 -435 0
218 306 -441 0
22 250 -388 0
-24 126 432 0
101 -304 -427 0
126 -204 -335 0
95 116 337 0
-52 82 -120 0
115 -185 -358 0
5 -43 -196 0
75 77 267 0
-198 287 -429 0
147 416 -433 0
203 -309 -366 0
15 80 202 0
37 -313 359 0
77 -342 -361 0
-7 -133 311 0
68 210 415 0
75 -228 -324 0
-70 -223 -349 0
-171 -372 424 0
36 117 423 0
-222 398 444 0
194 -308 -394 0
147 166 291 0
157 165 -392 0
-20 220 -369 0
163 198 -235 0
-17 130 436 0
-88 -255 447 0
102 -254 330 0
125 300 333 0
-53 84 257 0
38 89 -229 0
-321 345 -349 0
131 288 411 0
-145 191 -339 0
161 -178 365 0
-134 -215 -314 0
-193 197 359 0
-161 -335 351 0
-12 -104 144 0
159 213 217 0
23 25 328 0
-141 252 377 0
80 262 400 0
29 -193 -256 0
115 -121 -257 0
-131 276 404 0
21 146 -209 0
97 -155 410 0
21 29 -89 0
-28 -240 362 0
299 305 -382 0
-29 -48 -167 0
-202 -340 398 0
74 100 193 0
-144 -241 -281 0
31 183 388 0
167 289 -354 0
-182 -252 -293 0
296 374 -437 0
-132 216 -270 0
38 93 -347 0
191 -253 -288 0
-55 -303 -417 0
18 -341 442 0
-102 105 -244 0
84 205 -363 0
183 -252 -281 0
201 236 347 0
200 217 -414 0
112 -141 376 0
-118 -212 228 0
-135 198 275 0
-131 -180 305 0
-172 198 218 0
-101 -248 321 0
207 289 351 0
62 105 -287 0
77 165 400 0
-263 405 433 0
-60 -85 89 0
-158 332 414 0
-8 -296 -417 0
133 158 -432 0
23 -222 333 0
-27 -171 -337 0
258 301 442 0
25 -281 385 0
-236 321 -416 0
231 385 -417 0
-129 132 304 0
368 371 407 0
-113 172 447 0
-109 313 -419 0
-91 156 409 0
214 -330 434 0
306 -392 393 0
13 -151 255 0
195 273 -436 0
-90 99 115 0
9 24 177 0
111 151 409 0
-6 60 -386 0
-330 336 363 0
199 361 -388 0
-113 -332 -333 0
124 -266 420 0
-76 262 351 0
-168 348 446 0
164 -241 -413 0
6 63 225 0
204 -347 348 0
225 -302 371 0
-143 284 -335 0
-43 -179 408 0
-367 370 447 0
-339 370 -388 0
-204 301 424 0
-48 327 390 0
-75 -95 -348 0
-36 -57 416 0
33 128 394 0
84 -126 426 0
-205 -215 237 0
55 -123 -341 0
-118 -199 -373 0
115 -372 434 0
-158 293 440 0
-176 353 448 0
45 131 299 0
-12 -201 -231 0
155 193 199 0
-48 190 -265 0
264 332 -409 0
-226 271 423 0
234 275 -414 0
-54 294 365 0
120 281 -316 0
-218 320 429 0
155 266 -390 0
12 -308 318 0
69 -190 -292 0
212 -227 -253 0
-390 403 438 0
-102 -275 328 0
283 326 381 0
-86 -106 -444 0
-166 -168 398 0
-220 236 -344 0
-129 -313 -421 0
-222 335 -396 0
125 329 -333 0
-31 33 -159 0
-10 -142 -275 0
7 -83 -346 0
291 -386 388 0
-159 -249 272 0
78 -337 -361 0
3 62 374 0
146 198 -420 0
260 312 -324 0
-162 -219 -324 0
192 -256 306 0
44 -159 -435 0
-117 373 -428 0
-143 176 407 0
231 -290 335 0
-176 393 404 0
-15 -146 272 0
38 178 -346 0
-81 353 -407 0
111 153 -183 0
-12 -170 -423 0
147 -370 395 0
-18 -201 -439 0
-80 -143 144 0
-331 402 446 0
-121 -376 415 0
121 152 -256 0
-65 -92 287 0
-11 57 375 0
-129 272 279 0
-187 -263 -287 0
105 -373 382 0
-197 251 335 0
129 -140 -334 0
22 -61 289 0
-78 -93 -305 0
-4 -48 -98 0
44 129 330 0
-62 134 183 0
125 225 241 0
62 105 441 0
169 -301 -320 0
-73 137 -397 0
160 377 415 0
-326 331 -338 0
16 226 -321 0
-158 339 424 0
-35 -325 -423 0
-161 -315 415 0
-63 -411 421 0
-46 -235 -299 0
98 -292 395 0
216 -232 -255 0
91 -158 405 0
277 307 448 0
-146 185 -414 0
178 -218 336 0
59 312 378 0
-152 374 -410 0
10 162 279 0
-186 281 376 0
191 207 -343 0
-155 -320 361 0
-287 293 366 0
-18 70 393 0
-8 41 -235 0
20 21 408 0
-21 -302 -328 0
162 -343 -367 0
12 -86 -439 0
-28 123 -251 0
32 367 410 0
-37 -114 -137 0
37 141 -410 0
49 -71 -76 0
-75 265 366 0
-262 304 -378 0
-66 -281 -446 0
-149 315 -331 0
-202 -370 371 0
113 401 420 0
-332 392 -439 0
302 -373 -375 0
37 -58 -443 0
190 -277 -449 0
267 349 -424 0
106 -177 -438 0
206 -340 350 0
249 298 -432 0
89 111 260 0
83 138 -201 0
-115 333 -405 0
67 -272 -379 0
187 -333 -381 0
154 181 185 0
-323 355 357 0
-395 -416 -429 0
-22 273 406 0
9 -42 -291 0
71 -130 245 0
-56 97 -272 0
-54 -65 210 0
-121 -201 350 0
111 123 279 0
-5 -64 282 0
107 329 428 0
235 -307 -318 0
-118 290 336 0
-143 252 309 0
8 -45 -389 0
-61 84 229 0
81 -134 -216 0
-186 -224 433 0
66 89 -211 0
-270 -313 -450 0
21 365 398 0
-216 267 -441 0
-21 -151 206 0
-102 248 -328 0
31 69 274 0
-101 125 -269 0
168 -372 378 0
-11 15 432 0
12 -34 244 0
-101 111 295 0
321 349 -357 0
-3 255 367 0
-11 -281 -397 0
-206 -331 379 0
-57 302 383 0
232 284 -374 0
83 178 283 0
-315 429 450 0
113 -291 362 0
-145 315 388 0
-36 -270 284 0
-122 310 358 0
-40 -65 -159 0
32 -349 -374 0
230 -256 352 0
-48 -260 -273 0
156 -180 344 0
-56 334 -413 0
-65 261 358 0
65 -161 -448 0
-105 197 257 0
-46 65 -67 0
123 153 -383 0
-112 -230 250 0
277 -309 -333 0
-283 298 362 0
164 -315 -418 0
247 288 298 0
172 294 372 0
261 -294 -324 0
-28 -267 -300 0
-294 -356 436 0
-6 -258 392 0
259 297 349 0
-195 -209 412 0
-18 -172 235 0
266 308 429 0
-25 127 -408 0
48 54 -315 0
-70 250 339 0
89 -255 -449 0
-93 188 -357 0
54 -385 400 0
-52 -209 288 0
-246 274 -283 0
-84 144 177 0
-60 73 -174 0
-220 -222 300 0
4 288 290 0
24 285 -432 0
-45 -97 -421 0
-133 142 426 0
-35 186 190 0
-253 -266 399 0
-67 384 444 0
-87 113 235 0
347 363 449 0
-156 260 -374 0
-245 409 -444 0
-7 96 -424 0
51 -325 -441 0
-111 350 427 0
136 -322 403 0
-68 -298 -306 0
-118 173 -219 0
-73 -108 183 0
-77 172 -272 0
-133 210 -338 0
-72 214 352 0
-304 327 -427 0
-106 -267 -287 0
-79 248 396 0
15 -245 358 0
204 226 -316 0
13 -298 -352 0
52 177 -215 0
-54 -262 -424 0
346 399 -407 0
112 -240 -407 0
-198 -213 234 0
163 -388 -409 0
83 168 -172 0
84 -88 -433 0
65 244 334 0
-14 305 353 0
62 -106 -398 0
291 -293 294 0
-28 41 54 0
99 -130 -300 0
242 -354 -361 0
134 -160 -310 0
93 -282 328 0
104 323 -333 0
-123 166 320 0
1 -311 367 0
236 -270 335 0
-137 154 -283 0
148 -164 -190 0
-156 206 366 0
-155 344 371 0
44 -414 449 0
134 -145 -398 0
-89 -150 -230 0
21 151 -346 0
-25 153 -157 0
-89 92 -442 0
122 212 429 0
-5 -74 -443 0
156 -261 436 0
-24 -96 -439 0
-77 152 417 0
-254 -361 411 0
196 -244 350 0
-107 129 -376 0
-47 -73 -300 0
292 -317 332 0
-210 -323 -406 0
66 306 309 0
-38 42 45 0
86 101 187 0
118 279 -286 0
-80 229 396 0
90 -183 405 0
66 -130 139 0
-207 -316 -441 0
4 24 -117 0
10 131 -447 0
148 -295 -357 0
46 158 -258 0
57 323 -334 0
-72 243 247 0
258 -286 377 0
18 295 -425 0
-145 333 -387 0
255 -288 432 0
-187 207 -281 0
150 -262 -376 0
-40 240 -276 0
-36 -313 443 0
-49 -340 -362 0
-218 -229 -441 0
-278 306 427 0
-94 175 446 0
-73 166 217 0
-17 -243 -446 0
-43 -158 -300 0
-395 -405 432 0
-91 -221 -318 0
-37 -82 272 0
140 277 -324 0
-103 -221 222 0
10 297 -347 0
-197 326 357 0
39 164 -438 0
64 -179 352 0
25 262 -290 0
285 -331 -407 0
-19 29 -428 0
-77 -185 -338 0
12 -91 -112 0
-163 217 -426 0
-51 70 -331 0
284 356 433 0
270 -275 -391 0
-55 161 351 0
2 -155 182 0
-262 320 -404 0
-66 -94 266 0
92 265 343 0
244 -332 -400 0
-177 263 -281 0
87 -238 338 0
-100 193 -433 0
96 -306 446 0
-43 -103 -115 0
164 -298 328 0
45 111 186 0
-227 -267 -322 0
161 317 379 0
52 140 -256 0
-42 277 287 0
1 155 344 0
-83 -303 445 0
-16 345 -359 0
-109 -198 -408 0
82 89 -383 0
-128 -155 254 0
-24 -146 298 0
65 203 -409 0
-166 270 379 0
208 -409 -420 0
191 204 -217 0
108 250 -265 0
-39 236 -374 0
-124 302 354 0
219 -383 -426 0
44 -155 445 0
-21 126 189 0
-173 -236 255 0
167 206 446 0
-14 -364 385 0
-286 335 -347 0
271 319 -340 0
350 -390 399 0
15 178 279 0
-268 319 -396 0
-39 229 339 0
-109 256 -260 0
-1 143 -342 0
-48 50 325 0
-11 -142 323 0
40 54 -141 0
166 204 358 0
-198 -348 362 0
282 369 -444 0
32 -73 94 0
95 132 -317 0
-123 174 -244 0
25 133 172 0
-230 410 434 0
117 -294 308 0
-48 -81 98 0
167 303 -436 0
-94 117 334 0
281 -299 -407 0
146 -175 -198 0
12 187 330 0
-87 184 -341 0
82 373 442 0
22 347 -416 0
-70 -155 -310 0
-11 -45 272 0
101 294 -445 0
282 -358 -430 0
48 -153 -237 0
310 398 421 0
-205 -282 438 0
-3 -41 72 0
156 -324 -403 0
-192 -284 -299 0
-88 -120 -122 0
-240 -259 395 0
-273 404 418 0
-12 -110 287 0
335 -419 442 0
-24 -158 437 0
15 359 -444 0
32 -133 -221 0
-250 278 -414 0
-343 -385 438 0
168 -175 -343 0
-116 230 236 0
60 -82 -149 0
-355 -413 -418 0
-99 -132 -313 0
81 98 -319 0
79 217 -219 0
-132 229 409 0
215 -296 450 0
-39 80 -421 0
205 232 -381 0
141 325 327 0
-87 -242 425 0
120 332 -341 0
95 157 -299 0
-62 -81 134 0
-134 141 312 0
255 349 -414 0
41 -229 450 0
-29 -131 398 0
-237 -269 -347 0
60 278 401 0
1 -228 285 0
107 367 -407 0
-137 -171 -268 0
-25 229 -414 0
89 368 399 0
98 -155 -201 0
-106 276 -401 0
35 91 -312 0
90 -96 354 0
-38 -238 377 0
44 -73 -145 0
265 -344 -445 0
-165 -177 305 0
-230 339 -421 0
-202 -279 -401 0
-166 -387 389 0
40 69 424 0
-265 -310 -406 0
-106 -232 412 0
-26 -178 -346 0
55 -214 -289 0
15 255 305 0
118 432 434 0
152 -389 403 0
89 100 438 0
28 -327 -403 0
-53 -244 -441 0
111 -298 348 0
59 364 419 0
68 -162 -163 0
11 -118 -326 0
64 250 -348 0
-13 -77 -414 0
63 -165 382 0
295 -307 365 0
63 71 -178 0
28 138 300 0
179 244 -388 0
218 -365 -382 0
118 230 391 0
-114 262 -303 0
90 -166 368 0
72 210 -339 0
-21 -127 233 0
50 -113 -176 0
-232 -359 391 0
57 254 -431 0
152 -283 -323 0
-95 -388 -448 0
-17 -130 -318 0
-100 328 442 0
226 272 -307 0
-46 -71 212 0
185 298 391 0
203 209 -440 0
-375 -392 -419 0
-191 241 -405 0
6 -296 -377 0
-126 228 -233 0
-130 -145 -445 0
-54 -148 420 0
-172 272 -285 0
-123 141 174 0
135 146 249 0
66 103 382 0
-57 209 -294 0
15 -137 -171 0
49 217 227 0
-268 -324 379 0
-180 343 365 0
-29 -70 436 0
-55 92 -209 0
139 167 -279 0
9 -85 -238 0
-347 -366 -390 0
-239 346 429 0
-46 -145 340 0
-73 154 -231 0
-151 228 424 0
21 -208 266 0
136 -338 -350 0
-180 -241 -327 0
-399 414 -430 0
-134 317 -446 0
-16 -59 327 0
-192 -250 369 0
31 -241 446 0
-80 133 -255 0
162 -263 359 0
-264 267 -280 0
11 72 231 0
357 -409 -425 0
238 -259 -294 0
228 -279 -358 0
-219 -291 315 0
253 -373 -419 0
149 298 -317 0
106 287 322 0
-69 -132 266 0
87 -299 374 0
174 -272 -338 0
-60 234 294 0
179 315 353 0
-14 -395 -408 0
285 -438 450 0
111 -300 -407 0
-56 281 -370 0
-30 378 -420 0
66 -83 -110 0
96 220 -364 0
38 -80 -415 0
-29 115 -270 0
61 -168 -297 0
-10 217 -286 0
-116 -249 -353 0
-116 -153 -316 0
54 263 296 0
36 -45 -380 0
-209 215 -420 0
-127 -139 330 0
-129 333 -346 0
-227 284 425 0
216 -332 428 0
-216 423 434 0
243 -306 449 0
167 336 378 0
225 -274 -429 0
36 -47 152 0
237 -315 393 0
9 142 -164 0
164 -231 -288 0
-136 160 -431 0
-21 -84 353 0
15 119 300 0
60 198 -238 0
-91 189 -449 0
-193 225 -396 0
220 226 -258 0
-40 174 -309 0
-43 435 -440 0
214 -339 -349 0
-346 -390 422 0
102 -240 -245 0
68 335 414 0
-380 -381 -434 0
-143 -225 448 0
66 248 -254 0
-65 205 -243 0
-141 -212 350 0
209 337 -366 0
74 -355 -372 0
50 -57 283 0
-27 282 343 0
-113 -191 -267 0
177 191 -411 0
14 -70 -191 0
86 156 -256 0
261 -324 -428 0
-286 -328 405 0
121 -388 -450 0
10 -33 -419 0
116 122 -279 0
14 250 408 0
-91 284 412 0
152 -160 442 0
-56 -108 -348 0
-151 187 269 0
-57 -143 -153 0
-88 -186 393 0
5 171 -369 0
129 -306 321 0
5 327 -331 0
189 243 350 0
-101 -137 -323 0
-135 -348 -374 0
1 -259 -361 0
87 -196 383 0
13 -35 309 0
209 355 444 0
88 -222 -386 0
-189 -192 238 0
-198 -279 425 0
53 130 -238 0
294 -391 -407 0
-7 -52 -268 0
153 -199 426 0
-1 -309 381 0
131 -307 -421 0
-37 -137 -337 0
-17 229 419 0
-225 -275 370 0
80 127 -343 0
-125 148 395 0
80 97 -442 0
239 -335 387 0
-193 -310 386 0
152 -214 381 0
-167 -218 347 0
156 426 443 0
221 259 -305 0
37 -101 275 0
21 -111 -387 0
38 -99 176 0
-95 -233 248 0
-162 202 -307 0
-21 -323 439 0
185 257 388 0
-282 -286 -302 0
51 -348 423 0
241 299 357 0
-229 -279 428 0
-69 127 287 0
211 -277 366 0
-283 -362 387 0
-12 214 -285 0
108 -138 -297 0
-4 299 326 0
-172 224 245 0
75 146 365 0
61 99 -364 0
83 -324 356 0
4 183 -372 0
175 -302 -339 0
229 -329 -409 0
-62 -203 231 0
-100 -191 -406 0
80 -298 439 0
-46 -146 394 0
52 140 262 0
21 -256 317 0
-21 27 222 0
-106 167 235 0
-2 -24 144 0
-50 328 346 0
118 -195 -438 0
-269 -325 405 0
-19 -66 315 0
-50 198 239 0
324 -340 -385 0
-137 315 414 0
-10 -214 -420 0
-61 -148 -441 0
-37 97 216 0
19 -39 303 0
54 68 -153 0
-8 -11 449 0
58 128 -182 0
60 -204 219 0
303 -308 -438 0
26 -140 -158 0
-65 -317 343 0
-66 408 440 0
-87 178 191 0
-72 330 -383 0
29 -143 -175 0
-78 -197 -423 0
-64 -140 400 0
-45 -87 265 0
168 -330 -340 0
70 79 114 0
-140 -234 334 0
246 -341 398 0
-115 142 -248 0
212 289 -323 0
149 -188 413 0
101 114 -118 0
271 415 450 0
42 -62 -269 0
80 -133 -423 0
-158 344 -362 0
-33 98 99 0
-107 -113 -129 0
-13 -288 -416 0
-343 418 -420 0
-42 -176 -211 0
2 90 -362 0
-130 -262 -387 0
-54 -215 318 0
91 -134 329 0
83 -106 -444 0
43 -137 -435 0
-142 179 315 0
-83 347 440 0
99 -288 365 0
40 60 67 0
60 -355 -417 0
-58 65 -199 0
55 143 -321 0
182 237 405 0
-8 184 392 0
302 431 443 0
149 417 448 0
23 206 344 0
2 107 220 0
163 -259 393 0
-324 368 -432 0
42 179 202 0
14 163 -338 0
-141 333 380 0
-195 430 -447 0
-205 252 296 0
35 -156 370 0
46 158 381 0
-133 177 367 0
-51 264 -320 0
370 377 -404 0
-28 -176 -397 0
110 254 444 0
-116 -185 -330 0
-126 207 -269 0
108 242 339 0
-122 -183 190 0
140 187 392 0
209 309 442 0
-205 -262 -304 0
2 203 358 0
11 50 -311 0
25 428 433 0
214 352 -371 0
-53 80 338 0
37 -141 306 0
-47 378 432 0
66 201 -447 0
64 -177 299 0
58 236 -306 0
24 -44 251 0
-196 -253 -429 0
91 -95 377 0
-76 -120 -338 0
100 -411 -439 0
-115 -152 238 0
-90 259 271 0
-395 -402 -417 0
-268 374 -442 0
-203 -361 414 0
41 -262 386 0
-242 -281 364 0
-158 -185 404 0
92 97 284 0
-263 300 -416 0
-37 -147 309 0
89 -165 -313 0
-79 -108 -170 0
-89 -98 163 0
130 286 449 0
61 323 358 0
224 284 -313 0
-65 201 -202 0
-384 -423 -432 0
-32 -58 301 0
-286 -323 390 0
-51 -189 224 0
-174 292 337 0
-24 320 -350 0
-27 -210 -250 0
198 384 446 0
-5 213 -274 0
108 200 273 0
-24 212 312 0
-55 -96 189 0
-18 -173 -180 0
-120 180 245 0
-121 276 375 0
-178 332 366 0
102 -108 279 0
29 -142 298 0
-13 253 276 0
20 160 -285 0
-50 -64 -302 0
-43 341 407 0
-167 273 -321 0
-3 42 71 0
50 87 317 0
-109 330 -344 0
-277 302 330 0
53 181 -440 0
119 -155 210 0
-140 -252 320 0
148 271 -399 0
57 -89 350 0
-76 90 248 0
53 111 186 0
-62 82 -263 0
-194 369 -397 0
-323 379 -394 0
-143 -287 308 0
-73 -228 266 0
138 -291 -423 0
-86 -117 -173 0
194 -248 -418 0
-65 230 233 0
-240 376 428 0
167 347 -386 0
65 104 387 0
235 -362 374 0
191 -259 327 0
-29 215 -388 0
17 31 353 0
7 62 446 0
-111 -268 384 0
-127 216 -336 0
-98 -137 -270 0
-31 140 143 0
-14 79 369 0
-35 122 -291 0
132 -179 438 0
-191 202 426 0
-194 -233 412 0
78 -168 228 0
243 407 441 0
61 78 147 0
-42 125 -335 0
179 371 413 0
109 -259 -319 0
-274 293 400 0
-98 -119 210 0
-79 162 -371 0
80 -190 301 0
53 -268 -328 0
149 -311 -331 0
-140 151 -233 0
22 -228 265 0
80 319 -350 0
-199 390 -434 0
-127 -167 267 0
76 299 358 0
-157 265 316 0
75 -218 -436 0
