p cnf 450 1917
68 -193 343 0
-185 334 -407 0
-25 65 364 0
-174 345 -387 0
254 -331 373 0
20 85 206 0
-310 352 -431 0
-16 -189 -206 0
-192 205 -368 0
168 416 -423 0
74 324 385 0
-166 -193 -397 0
-201 -399 429 0
-362 404 425 0
-181 309 -399 0
25 82 399 0
-258 -281 295 0
-172 -226 -334 0
113 -172 335 0
-39 80 -283 0
-113 -138 -325 0
206 215 -302 0
74 -411 439 0
37 154 322 0
-32 -178 -216 0
89 109 390 0
-176 220 349 0
-23 -64 -305 0
-8 -140 -232 0
-27 122 -264 0
-95 -298 332 0
-81 208 392 0
43 316 -375 0
-108 -281 -383 0
-36 -97 133 0
-47 401 -431 0
99 318 -342 0
-27 62 280 0
-11 358 374 0
-89 -101 361 0
12 277 -335 0
109 -138 -327 0
206 318 406 0
166 303 449 0
7 46 -236 0
-103 -181 330 0
59 60 235 0
62 -71 199 0
10 71 260 0
-244 -333 421 0
285 -323 347 0
179 -197 305 0
-204 -227 -404 0
-16 -165 439 0
188 239 317 0
90 -388 394 0
-65 -232 -434 0
104 244 -385 0
202 303 361 0
170 -235 373 0
-54 359 376 0
-326 426 433 0
-49 70 137 0
-160 195 415 0
51 178 -226 0
230 -233 -238 0
-163 166 -180 0
125 -241 328 0
159 -385 408 0
145 -223 -348 0
-151 229 -256 0
-190 321 406 0
-74 243 244 0
-174 183 450 0
-113 -152 251 0
176 -302 -445 0
116 143 -337 0
46 -160 -349 0
171 -202 -286 0
72 154 -398 0
5 -101 289 0
-65 -180 334 0
82 191 -391 0
-14 143 319 0
-172 212 -218 0
250 364 413 0
283 -320 -436 0
-59 165 -281 0
16 -238 413 0
298 303 415 0
215 -315 401 0
-97 195 341 0
105 -240 -444 0
48 82 -123 0
-30 -36 148 0
-87 95 106 0
6 171 434 0
143 -199 -258 0
-127 278 -360 0
113 216 -397 0
37 165 -180 0
112 127 179 0
-26 -312 -399 0
246 -262 323 0
-88 -138 216 0
32 -192 -255 0
224 -285 -437 0
-372 -383 -409 0
20 -411 -419 0
151 -312 389 0
-120 -140 434 0
-122 157 188 0
237 260 421 0
-117 206 -278 0
-138 -182 -183 0
-56 79 -162 0
-169 -290 422 0
-316 -355 397 0
326 -382 411 0
53 124 311 0
75 130 329 0
-172 -188 348 0
-147 264 425 0
-177 273 -278 0
-203 247 362 0
7 141 -417 0
-90 -168 -294 0
26 76 359 0
-22 345 389 0
-109 307 446 0
53 197 -438 0
-174 179 353 0
77 -205 -388 0
192 -337 409 0
17 102 173 0
-247 -261 -360 0
-140 -207 -446 0
267 -288 351 0
36 -328 389 0
41 -54 -262 0
12 -213 380 0
77 349 -444 0
27 385 -393 0
232 362 394 0
-222 -303 -343 0
44 149 -369 0
-56 139 -370 0
202 221 -245 0
180 262 -369 0
-85 -320 401 0
-20 -71 -304 0
23 101 -142 0
22 -364 -423 0
183 -195 396 0
-117 157 371 0
-77 110 181 0
-131 302 -407 0
-169 -241 -293 0
-84 -194 437 0
117 -265 355 0
-38 169 -342 0
46 282 -325 0
-298 352 387 0
64 -220 -255 0
178 -197 -311 0
20 -117 189 0
10 219 445 0
-268 367 442 0
136 159 -222 0
162 280 433 0
-220 -231 320 0
-12 30 -253 0
-146 -315 441 0
235 -302 -446 0
-27 64 -420 0
140 268 -348 0
-270 326 -341 0
-57 -193 270 0
-90 -107 -409 0
-72 304 331 0
193 -270 -365 0
-78 -166 310 0
-3 -300 -313 0
293 -323 363 0
-48 -125 342 0
-89 134 -177 0
34 152 208 0
49 344 -424 0
-179 -317 445 0
11 223 -445 0
43 -239 -400 0
-155 -259 -350 0
-325 326 416 0
-323 374 411 0
37 71 301 0
-174 217 -442 0
-108 -325 358 0
165 243 334 0
-176 299 -404 0
145 -286 296 0
-126 189 290 0
-20 -215 -411 0
72 195 -230 0
-43 363 369 0
-178 -294 -411 0
-297 -357 410 0
71 -232 334 0
-142 155 278 0
69 -185 -445 0
-153 282 352 0
-199 -343 -430 0
244 -298 -357 0
63 328 383 0
252 -349 -396 0
-115 208 352 0
-158 213 314 0
-186 216 -280 0
-141 -164 -242 0
147 -271 -421 0
96 426 -449 0
111 197 -213 0
-144 175 260 0
-131 190 -413 0
169 -170 -379 0
163 319 360 0
-91 -197 444 0
121 239 425 0
14 247 357 0
-63 64 -119 0
-62 388 -448 0
33 -225 -287 0
-97 -219 230 0
-201 377 405 0
7 -234 280 0
-46 -165 254 0
-35 -174 208 0
-119 -121 274 0
-308 368 -397 0
-98 172 226 0
56 -97 -223 0
-34 -201 387 0
-20 -80 -301 0
190 -284 -421 0
-144 332 -384 0
89 103 -439 0
84 -88 206 0
-92 -153 402 0
-67 178 -378 0
-33 -45 -414 0
-268 275 -429 0
-5 -136 429 0
165 -169 335 0
-80 -346 370 0
65 188 215 0
-107 -159 171 0
4 -305 -328 0
216 219 -342 0
-5 33 -44 0
-351 417 -445 0
-75 -297 301 0
251 350 -400 0
58 -138 -240 0
27 -38 69 0
49 109 -269 0
203 -227 -418 0
112 -128 338 0
-344 362 -387 0
-193 311 -355 0
-102 -257 -310 0
-112 160 -161 0
-116 -380 420 0
43 147 248 0
1 128 -249 0
7 -36 110 0
90 -314 359 0
63 -100 -366 0
-214 -318 374 0
351 -363 -407 0
185 282 410 0
-298 342 413 0
75 217 -232 0
66 75 -195 0
6 -54 -65 0
206 232 -266 0
-42 140 -223 0
-130 -181 -381 0
25 50 122 0
-71 168 -260 0
322 -360 -413 0
-74 -376 -382 0
-33 -89 384 0
177 182 -400 0
-136 -260 262 0
-176 -220 223 0
164 -296 333 0
233 238 264 0
-344 -434 436 0
140 160 -299 0
-90 102 -329 0
-195 -242 -368 0
3 -212 292 0
248 338 -362 0
-124 -342 429 0
-68 170 212 0
-81 158 275 0
-117 279 -402 0
-84 129 325 0
163 172 422 0
95 -146 275 0
-77 119 312 0
-227 -334 -430 0
-80 -129 -327 0
-61 -153 -225 0
20 -26 206 0
67 -79 -399 0
168 -216 333 0
-330 -427 440 0
126 -155 -401 0
284 363 -428 0
-110 249 -317 0
8 162 -416 0
17 86 271 0
145 341 375 0
-45 -87 88 0
-93 275 -423 0
-223 -290 -370 0
-173 231 -336 0
-16 237 257 0
28 75 -136 0
218 -279 372 0
241 -297 -432 0
43 -246 -371 0
-35 247 -258 0
28 -98 227 0
160 -271 428 0
-2 -282 -341 0
-2 -142 -258 0
-151 354 -408 0
93 315 359 0
84 191 431 0
-47 144 361 0
218 263 -374 0
18 30 244 0
43 123 356 0
146 284 -328 0
-169 -349 -433 0
135 -224 449 0
7 22 348 0
101 209 -406 0
-44 179 393 0
-95 -96 186 0
114 -348 -404 0
5 106 237 0
-149 -325 376 0
88 138 -376 0
-182 -324 359 0
-197 231 -400 0
124 -158 185 0
29 -181 293 0
5 -13 -23 0
139 -217 416 0
-374 -390 449 0
94 121 162 0
159 -194 -198 0
-113 -193 233 0
-219 241 -381 0
181 226 -448 0
58 74 -174 0
-51 177 -324 0
186 337 435 0
-17 147 162 0
50 215 288 0
-5 112 -140 0
-111 -180 313 0
-50 257 277 0
-151 304 -376 0
7 201 -352 0
27 -111 -311 0
-24 -137 225 0
163 221 -406 0
-95 245 -401 0
-116 181 -304 0
61 -64 -189 0
134 321 360 0
257 -330 -356 0
144 214 -396 0
10 67 -261 0
-162 266 -366 0
61 62 353 0
202 265 420 0
101 178 -237 0
234 248 -257 0
-163 -189 204 0
-98 -271 351 0
-78 -311 -385 0
-181 325 -346 0
120 234 -411 0
-123 -209 214 0
44 -311 -416 0
280 -284 364 0
178 -350 -438 0
351 416 435 0
-146 294 315 0
130 137 -303 0
62 -190 425 0
224 252 -317 0
50 -58 -449 0
15 135 -412 0
-274 -338 -374 0
86 336 -363 0
-280 317 -424 0
100 -219 -309 0
21 -402 429 0
1 -52 -330 0
-80 97 272 0
-73 -428 445 0
123 359 -444 0
26 -174 345 0
134 320 -362 0
-111 129 210 0
33 316 392 0
-23 -102 368 0
-14 -57 356 0
138 343 -424 0
80 156 311 0
86 -107 -380 0
-90 202 -255 0
128 -218 274 0
-111 181 199 0
123 178 -336 0
-73 -307 -400 0
45 112 -382 0
125 -370 392 0
-44 -234 -282 0
-32 174 -426 0
231 325 -423 0
-168 -172 -398 0
-281 -358 450 0
-63 301 369 0
-2 214 326 0
36 233 376 0
223 357 374 0
-83 -195 322 0
61 -183 240 0
-184 -217 -420 0
-165 -350 -443 0
-86 163 -190 0
-89 -274 301 0
-32 -291 302 0
-205 222 431 0
3 5 -320 0
-35 -164 235 0
85 -94 -134 0
-148 235 379 0
45 -206 -419 0
105 -265 -285 0
83 144 -326 0
209 227 -248 0
-53 -214 -345 0
120 -247 290 0
114 243 -356 0
228 -395 407 0
31 -173 -250 0
-45 -52 -305 0
-84 167 -303 0
-98 112 -273 0
-263 290 -378 0
313 334 -384 0
123 -244 -420 0
-145 -161 322 0
16 149 316 0
-40 211 403 0
38 149 -150 0
-53 275 -294 0
-204 -209 -339 0
-109 289 322 0
-221 259 -288 0
90 -161 263 0
156 -187 408 0
70 387 -411 0
1 192 -400 0
80 231 -253 0
-52 136 -300 0
187 -228 307 0
165 -180 -428 0
-98 -277 279 0
-140 -244 320 0
213 -296 -322 0
-170 257 -384 0
-150 -314 -420 0
-92 -203 -243 0
-97 -212 297 0
-7 11 184 0
-276 -313 347 0
88 137 445 0
48 226 387 0
-48 155 268 0
10 87 -182 0
25 66 -393 0
17 -331 418 0
-17 -87 -178 0
-39 -151 189 0
-63 -334 -358 0
-26 142 150 0
215 -370 449 0
184 229 -245 0
-86 -238 327 0
305 -436 447 0
-230 245 -272 0
58 332 -356 0
-235 -281 428 0
-143 274 -276 0
71 -171 -398 0
155 234 431 0
-69 -89 91 0
8 -95 -144 0
93 -213 265 0
18 -110 -359 0
161 271 353 0
-236 315 -362 0
-61 137 -140 0
173 314 -399 0
102 218 381 0
-107 -263 317 0
271 -399 405 0
42 127 181 0
4 57 371 0
-260 -383 -410 0
253 -316 418 0
-178 355 -401 0
45 339 383 0
-79 94 285 0
-188 404 -408 0
220 -324 -381 0
-214 -361 429 0
-345 397 -418 0
96 258 448 0
139 -273 362 0
-146 407 425 0
86 -332 408 0
-56 151 -170 0
345 -432 -447 0
-9 -108 -436 0
-66 -85 -132 0
-7 360 -397 0
118 -219 328 0
-99 -273 392 0
-128 -171 -253 0
32 -76 343 0
-34 -76 346 0
127 -150 -161 0
-74 -155 -362 0
-15 -203 -367 0
33 -108 -185 0
-141 -195 -326 0
-70 204 436 0
89 253 258 0
65 183 389 0
-23 28 -252 0
161 166 406 0
139 224 296 0
-24 146 240 0
40 -132 -340 0
65 -149 365 0
3 53 -297 0
-169 -216 378 0
59 374 -434 0
-78 299 -392 0
-86 182 -324 0
-105 192 -213 0
93 176 -257 0
-64 171 275 0
-297 -355 -425 0
-154 168 -370 0
30 -164 -219 0
-82 -117 -219 0
-22 140 -177 0
-76 173 325 0
-12 -259 330 0
36 346 -360 0
167 -193 -246 0
92 323 392 0
-59 323 -357 0
-53 -196 221 0
370 374 -426 0
48 -75 -90 0
62 -82 368 0
-32 331 449 0
3 51 146 0
40 340 446 0
-113 366 422 0
-46 -134 -271 0
-21 -24 450 0
187 -248 270 0
52 114 -294 0
-21 -53 -165 0
-2 -122 -195 0
91 -159 196 0
-38 -345 -434 0
24 -93 -394 0
-132 -212 449 0
25 -70 -263 0
75 -287 -342 0
252 -354 379 0
-221 -234 421 0
176 198 304 0
-108 395 434 0
169 -255 -439 0
-18 247 -259 0
-127 253 365 0
-93 349 -397 0
-27 48 52 0
128 180 317 0
196 251 -337 0
118 156 281 0
-43 150 -346 0
-7 148 -325 0
-333 -361 387 0
-10 -82 87 0
-100 303 385 0
110 -369 -416 0
-31 -71 -100 0
-31 -74 -426 0
189 -208 429 0
218 -274 -442 0
-248 -318 -405 0
-120 133 -147 0
-75 185 -405 0
32 -116 -128 0
37 114 -450 0
-17 -156 -261 0
-72 -81 111 0
-15 316 389 0
-64 67 -314 0
242 -252 -430 0
122 192 370 0
-56 57 330 0
82 334 -352 0
50 198 -433 0
11 -38 394 0
-81 118 135 0
-119 348 -374 0
164 -240 -371 0
32 -48 144 0
-104 206 -438 0
-57 -71 -351 0
320 -344 -400 0
170 -374 -421 0
45 252 -316 0
-218 -263 -442 0
268 299 434 0
-94 374 423 0
328 343 404 0
-83 -359 -360 0
45 74 -272 0
-141 391 411 0
-241 -283 -364 0
100 -227 -415 0
-73 334 -425 0
48 311 -378 0
-53 -300 -362 0
39 -73 -183 0
-239 279 392 0
-171 209 -364 0
35 -127 -334 0
3 164 201 0
-30 -123 134 0
73 219 -431 0
-162 -229 -275 0
14 172 327 0
-60 78 -355 0
-205 -249 -279 0
25 217 240 0
196 350 374 0
-250 -311 -376 0
1 223 296 0
-65 74 118 0
-163 221 -386 0
87 114 -437 0
74 -194 307 0
85 121 339 0
297 -440 448 0
-40 -334 383 0
-3 141 -373 0
3 -53 319 0
-70 -283 376 0
-74 -232 -298 0
68 267 -360 0
2 -128 283 0
33 -71 347 0
37 53 -348 0
-97 -137 -446 0
86 141 -228 0
-188 276 -436 0
137 411 -444 0
-242 -380 -405 0
123 -204 368 0
-23 64 191 0
215 -270 318 0
185 391 -408 0
-251 387 -417 0
33 -54 -284 0
190 203 386 0
221 -434 438 0
20 -67 -165 0
42 -64 300 0
105 191 -366 0
49 120 -439 0
-40 233 449 0
51 325 -416 0
27 -94 -162 0
-150 256 319 0
-30 -69 170 0
-65 72 -345 0
-72 257 329 0
-43 84 450 0
-44 -70 -267 0
-229 -316 -399 0
361 -362 386 0
-121 159 378 0
29 -38 -262 0
-13 122 322 0
119 314 423 0
205 235 -411 0
327 412 429 0
-16 31 -46 0
-229 -234 424 0
224 294 -349 0
-133 -207 430 0
135 199 302 0
-72 196 387 0
29 -228 341 0
-67 -77 81 0
202 315 -369 0
3 293 -305 0
-71 -162 172 0
9 316 -364 0
-2 -13 -347 0
-67 -119 367 0
204 -212 -214 0
13 -275 -417 0
6 -58 -74 0
151 -289 -402 0
-3 40 -340 0
-120 121 -134 0
78 -89 -234 0
59 -109 -278 0
60 -227 283 0
87 281 412 0
65 382 -423 0
19 -187 351 0
-10 49 401 0
50 -112 -308 0
197 -251 432 0
37 249 301 0
-183 236 -251 0
159 -241 388 0
-336 -373 -414 0
72 -154 -361 0
-102 262 427 0
87 370 -403 0
64 169 388 0
-96 435 -437 0
-50 -338 394 0
194 -210 -267 0
-139 228 434 0
-169 -299 363 0
-223 -233 -372 0
-39 -166 -387 0
-27 -62 450 0
-127 184 314 0
145 181 -420 0
-59 -112 -160 0
-149 -308 319 0
99 143 -240 0
13 -265 -320 0
5 -21 34 0
-169 310 403 0
-53 -175 -345 0
-30 -87 -335 0
10 -121 -345 0
-220 306 -423 0
-102 -291 337 0
186 248 -310 0
-143 -420 438 0
-50 -204 -217 0
-36 78 332 0
32 -65 301 0
20 161 -212 0
191 -253 -277 0
-220 -291 430 0
70 79 112 0
-109 -391 -436 0
-162 361 430 0
-132 -255 -257 0
-158 269 -399 0
26 40 53 0
-71 232 -320 0
244 260 -283 0
12 -48 -425 0
-29 -54 -84 0
-330 340 -364 0
-107 292 308 0
162 423 -431 0
92 195 -378 0
-291 -335 -391 0
-162 -230 -414 0
-63 150 -390 0
159 -183 -311 0
9 211 -299 0
196 330 -395 0
278 -326 -379 0
-3 -68 -441 0
91 -220 -350 0
55 94 -307 0
60 168 -277 0
-202 -358 398 0
-214 284 -286 0
-218 266 -306 0
-84 160 -166 0
57 293 355 0
-93 -158 438 0
-344 -393 409 0
-41 66 409 0
-57 -291 -302 0
292 335 -340 0
-220 352 -376 0
274 -295 -439 0
-81 -113 140 0
236 -257 -333 0
144 -271 299 0
-251 388 -449 0
209 -219 293 0
-40 99 105 0
-17 39 149 0
-15 -137 -287 0
102 -292 -382 0
-2 -142 -289 0
-20 397 416 0
-86 -195 259 0
-126 291 -385 0
-63 250 359 0
-133 -212 336 0
-224 -292 445 0
8 33 -163 0
-107 -135 -328 0
92 176 -269 0
-116 -389 -432 0
-62 -231 242 0
-151 -195 434 0
-268 -285 -338 0
20 54 163 0
79 -270 -431 0
3 36 -180 0
23 -232 329 0
36 211 213 0
22 62 -418 0
132 302 -307 0
-279 -364 -449 0
37 302 427 0
51 -102 -204 0
-137 301 -348 0
120 -158 -272 0
75 -100 -159 0
59 -237 245 0
199 234 266 0
112 350 390 0
87 -208 352 0
16 57 -100 0
63 -209 233 0
184 -389 390 0
52 -135 -277 0
137 138 -360 0
233 349 -449 0
-60 293 -362 0
-85 116 -436 0
-247 -408 -442 0
121 267 -278 0
7 -21 -365 0
-71 -98 -154 0
9 -127 -368 0
-201 218 300 0
205 253 399 0
30 -257 331 0
-166 -352 -404 0
91 -92 -407 0
23 -296 -301 0
-128 -138 447 0
-352 -424 -436 0
-38 90 -244 0
-109 197 380 0
-32 -245 -425 0
101 -381 440 0
-93 243 264 0
17 -220 -412 0
200 -251 327 0
-266 284 387 0
166 390 -416 0
-33 182 -372 0
193 -286 316 0
-2 -91 -178 0
-11 -87 -241 0
-163 247 388 0
43 391 -419 0
-39 180 220 0
-49 -160 -336 0
-26 -205 345 0
6 7 56 0
36 182 -256 0
-194 254 -342 0
75 82 401 0
186 259 -312 0
-31 -203 339 0
-333 413 -435 0
-23 -226 354 0
-215 256 -282 0
-23 -243 -427 0
-142 197 -352 0
33 214 -300 0
-7 393 -413 0
-40 -223 -375 0
-266 -294 399 0
24 83 -316 0
-7 -314 -347 0
52 256 416 0
141 -324 402 0
-37 109 271 0
-65 -307 -311 0
-57 139 198 0
-138 -200 -329 0
227 -238 426 0
-1 -127 -387 0
-28 97 237 0
-163 -194 343 0
66 79 -430 0
176 -213 -366 0
-115 -291 -362 0
-1 168 -347 0
-38 -283 -315 0
81 -91 -178 0
-128 224 428 0
-1 224 250 0
-116 247 383 0
-102 -125 246 0
-86 -131 -206 0
-62 -383 -434 0
155 180 432 0
-132 148 279 0
-97 -166 -201 0
121 381 -401 0
-71 186 345 0
134 219 422 0
-52 -285 -309 0
-234 254 -382 0
240 -371 -384 0
-47 -73 151 0
228 -236 413 0
-70 93 -298 0
-27 52 -293 0
124 -221 -287 0
-14 231 -420 0
-120 344 368 0
-193 255 -323 0
59 250 -363 0
249 288 -399 0
117 135 421 0
173 282 421 0
99 -228 -325 0
-48 -317 -435 0
-59 -60 -271 0
-220 -371 -374 0
-29 295 331 0
-34 -122 346 0
-13 -134 -187 0
223 -374 398 0
179 -260 343 0
-200 280 420 0
289 -343 413 0
-39 206 -366 0
-226 -271 -276 0
-58 316 441 0
112 190 -222 0
37 -285 -321 0
245 -259 364 0
220 -238 321 0
64 194 -352 0
-12 225 -427 0
-40 57 -408 0
224 -309 -354 0
221 362 442 0
-179 -322 449 0
236 -251 293 0
-159 183 312 0
111 363 395 0
89 -134 -296 0
40 -117 -238 0
-211 347 418 0
88 217 435 0
84 285 422 0
-280 313 -320 0
235 238 -298 0
-20 -66 -318 0
-276 -391 421 0
55 127 -396 0
113 199 432 0
-242 -252 348 0
-154 256 444 0
-45 -203 395 0
347 -386 -444 0
-103 163 -255 0
57 236 -328 0
39 -95 430 0
239 295 -315 0
-103 -333 376 0
-45 -161 -403 0
162 254 371 0
-110 -250 284 0
119 192 338 0
-185 -405 430 0
22 -32 99 0
-46 117 374 0
108 144 -168 0
-184 -265 -385 0
-93 117 231 0
44 -155 258 0
17 -174 418 0
-119 -285 -346 0
216 260 271 0
-48 -160 -274 0
66 148 282 0
-94 -137 -214 0
-18 335 409 0
270 397 402 0
-37 142 -430 0
133 -191 -400 0
-177 -248 370 0
108 138 -177 0
-86 -217 -403 0
105 -207 215 0
-113 138 -143 0
-20 29 418 0
-106 -343 -414 0
-50 -232 445 0
192 247 -273 0
13 -74 -323 0
-301 -352 388 0
295 357 396 0
29 254 297 0
-122 145 -237 0
60 186 -398 0
156 -200 256 0
119 280 -294 0
-182 -214 218 0
-14 62 -115 0
-78 -162 -417 0
-239 -362 411 0
89 -146 247 0
-16 25 224 0
-126 162 -440 0
46 87 -195 0
211 408 -411 0
82 190 -227 0
-50 -290 -418 0
-1 -119 121 0
84 171 -276 0
32 -63 -336 0
-164 -192 221 0
-133 -333 405 0
-130 -226 443 0
35 -245 -360 0
247 258 397 0
91 96 -398 0
-5 -258 358 0
-97 -162 -248 0
38 -345 -411 0
29 293 -424 0
-178 190 400 0
-19 23 257 0
229 -245 -345 0
82 255 326 0
97 -187 347 0
-239 325 -411 0
121 172 -175 0
31 71 232 0
-10 25 -334 0
-28 103 449 0
118 367 -368 0
-105 -197 -249 0
-262 -303 -356 0
-122 -239 391 0
69 -284 -304 0
-311 325 -384 0
191 192 -375 0
-101 -259 303 0
-22 149 -398 0
307 -333 -350 0
7 -403 -414 0
24 -68 109 0
-125 -212 -305 0
58 -257 421 0
-117 122 -401 0
-142 253 -262 0
221 -256 -419 0
-34 176 -270 0
-25 380 -399 0
-9 305 -339 0
-93 -151 -174 0
-196 304 335 0
-26 47 347 0
-115 -380 437 0
-41 74 215 0
-38 -43 225 0
-105 -245 -399 0
109 -260 271 0
-33 -207 -350 0
-114 225 -340 0
89 231 357 0
-137 -309 320 0
164 226 -275 0
22 218 370 0
-218 286 -394 0
-363 444 449 0
7 -225 -344 0
75 153 -429 0
45 89 210 0
-111 -386 429 0
87 318 427 0
-38 -284 -421 0
-88 173 206 0
20 -281 297 0
-91 -247 -423 0
-116 324 393 0
82 341 379 0
-111 240 309 0
95 -393 -398 0
-235 -293 -314 0
154 253 -386 0
-195 -208 308 0
132 284 -447 0
13 200 -349 0
-73 -87 -418 0
-188 -221 -325 0
-10 -300 408 0
127 -271 337 0
6 287 -349 0
11 -137 -157 0
60 -138 389 0
210 -232 -446 0
244 -255 -396 0
-89 -180 295 0
33 -37 123 0
-45 -298 419 0
17 241 299 0
169 -248 281 0
-216 271 363 0
70 -106 267 0
92 215 -243 0
203 254 365 0
-51 202 -448 0
217 223 -306 0
65 175 279 0
168 342 -344 0
-5 139 -309 0
-201 311 356 0
-99 332 347 0
97 260 389 0
-137 -180 394 0
101 -316 425 0
-38 128 255 0
60 -94 -96 0
-27 -85 395 0
106 193 -414 0
-168 -275 -278 0
303 306 -366 0
19 34 -291 0
349 -354 358 0
-2 151 -194 0
-54 -225 -327 0
120 179 -378 0
-148 307 -372 0
222 338 384 0
182 -343 -435 0
-188 233 391 0
27 -390 -427 0
-189 205 303 0
-49 181 -256 0
95 189 -347 0
-75 331 -419 0
-69 -260 261 0
-117 251 363 0
-33 86 -220 0
-152 267 -426 0
47 -90 -155 0
-142 -151 -348 0
-39 -97 -283 0
20 146 378 0
-86 273 -345 0
71 212 441 0
-287 307 317 0
-16 -374 427 0
-81 139 374 0
-86 248 -419 0
-82 -180 -228 0
11 329 385 0
112 -236 418 0
311 348 -394 0
138 236 318 0
51 -205 -370 0
-114 -254 -416 0
8 13 -330 0
92 420 -438 0
-86 -116 233 0
94 -244 -324 0
-203 -207 246 0
-126 231 -387 0
10 -190 371 0
144 -189 -235 0
-95 -101 141 0
43 -93 -147 0
-171 -255 429 0
70 -134 -393 0
69 159 -265 0
-135 194 -286 0
-33 78 444 0
-31 188 251 0
-50 -71 -84 0
127 393 -405 0
-193 -304 -439 0
176 -334 -426 0
-65 -264 275 0
333 -381 436 0
-48 185 215 0
141 264 271 0
45 95 -186 0
303 -319 -399 0
12 -136 -214 0
-27 168 -324 0
192 203 -277 0
-114 -160 -340 0
-43 58 82 0
-206 -218 -306 0
64 311 411 0
32 -210 348 0
85 -343 432 0
132 -137 432 0
-129 -143 -236 0
-232 -353 388 0
134 -160 195 0
-41 274 446 0
122 161 -367 0
-48 124 190 0
70 -71 147 0
-75 314 -407 0
-95 208 225 0
-54 169 -229 0
-15 -210 -330 0
-105 143 -212 0
186 288 -330 0
286 -293 322 0
-76 216 -342 0
-123 -144 289 0
-74 113 -251 0
193 297 413 0
-46 -187 -450 0
-86 -206 -247 0
272 -299 -391 0
290 -300 349 0
-15 218 -372 0
-178 -192 -389 0
-396 407 435 0
187 -272 351 0
-27 -147 -412 0
-156 228 351 0
-21 26 438 0
-201 -256 -392 0
-111 212 -434 0
196 324 -338 0
308 -333 386 0
175 -203 383 0
-349 -394 -408 0
234 -334 -405 0
145 151 -428 0
192 357 365 0
-110 -184 391 0
72 195 411 0
-137 143 231 0
17 37 390 0
-219 306 -307 0
-136 -325 -366 0
4 39 -75 0
-39 -113 428 0
-119 162 396 0
156 -413 434 0
-106 174 259 0
-175 -343 415 0
-162 -215 -250 0
-17 -80 -308 0
367 405 433 0
-100 -131 433 0
53 237 334 0
-39 -255 -403 0
-15 -59 -266 0
-11 194 235 0
149 255 258 0
246 337 447 0
131 -182 -418 0
-154 414 426 0
228 -332 363 0
263 330 -347 0
-192 321 425 0
51 -145 262 0
-2 4 -338 0
-47 -379 -422 0
-80 -215 -434 0
24 -181 -431 0
-43 -101 350 0
146 345 -397 0
114 -169 233 0
148 190 -225 0
31 -363 -396 0
83 -193 -202 0
169 -273 -436 0
163 359 -374 0
29 100 -406 0
225 247 -248 0
53 140 -432 0
-26 -315 -365 0
151 -420 433 0
109 267 387 0
78 267 -277 0
24 48 -55 0
-238 386 -396 0
-1 -11 360 0
39 -120 -436 0
-52 196 -386 0
-200 316 -415 0
-59 -151 -428 0
2 -376 383 0
-211 224 -447 0
26 -213 -265 0
-35 150 266 0
-23 124 160 0
-66 355 418 0
-57 259 -409 0
-222 -395 -398 0
87 285 -382 0
-72 276 -327 0
9 -226 -307 0
-81 -110 348 0
10 11 14 0
279 -288 347 0
-107 207 416 0
-48 -114 -404 0
154 240 415 0
-96 -119 188 0
-115 -329 -439 0
235 -336 -376 0
-44 145 -379 0
181 244 415 0
24 -50 -243 0
-166 361 -389 0
79 114 -432 0
-213 224 -321 0
-131 329 425 0
129 140 355 0
84 -351 -423 0
110 -267 428 0
-163 -239 327 0
35 -114 255 0
-149 -201 -246 0
-32 53 275 0
-233 -250 -351 0
-11 30 -236 0
102 336 -429 0
82 -138 -174 0
169 -393 424 0
24 120 355 0
59 -115 442 0
-15 208 -239 0
-58 127 330 0
-66 -336 426 0
39 309 -393 0
326 -354 -367 0
-130 -337 422 0
39 -126 197 0
-36 -50 -195 0
13 247 -268 0
227 -344 -425 0
-44 184 -414 0
139 -380 389 0
11 -203 -336 0
88 -96 449 0
123 -159 428 0
150 -213 375 0
66 -402 405 0
198 338 -348 0
-75 -384 432 0
18 171 397 0
-68 -208 378 0
171 -182 -371 0
178 201 432 0
-27 -162 341 0
-38 -299 -321 0
-127 264 349 0
45 -210 -305 0
143 269 301 0
-9 21 -212 0
99 -247 -305 0
-167 -298 -442 0
-27 28 -309 0
-53 -261 -441 0
-237 262 -263 0
19 398 -434 0
129 -314 332 0
-113 250 -409 0
-26 -273 -386 0
141 328 369 0
-103 246 -424 0
236 -406 -434 0
66 95 -102 0
-94 294 -342 0
-86 256 -380 0
-13 209 284 0
172 230 -231 0
-84 396 -437 0
-156 -172 -317 0
336 -411 443 0
121 144 -310 0
-93 -162 298 0
46 -254 428 0
39 -69 330 0
-168 171 194 0
111 241 426 0
-29 -122 250 0
182 -186 -277 0
-61 260 -392 0
-188 189 -386 0
172 377 -447 0
-74 369 388 0
-136 187 -260 0
-81 195 198 0
120 -273 376 0
-38 82 -431 0
-67 -232 -329 0
157 316 383 0
188 -402 449 0
-82 285 -381 0
132 -266 357 0
14 -191 309 0
18 -95 264 0
99 114 -386 0
198 203 -426 0
-116 -193 303 0
60 -170 -330 0
-40 389 423 0
-16 116 -428 0
-51 213 -435 0
34 -141 331 0
-168 -319 384 0
21 108 176 0
149 198 -299 0
23 322 -435 0
-110 -371 418 0
76 -92 -287 0
145 342 343 0
-204 -251 -291 0
243 -293 -387 0
174 -206 425 0
188 249 305 0
-29 -77 415 0
-117 -316 -432 0
-222 232 358 0
97 -191 -339 0
-285 -393 443 0
26 -331 -430 0
8 -278 318 0
199 316 -347 0
-8 -11 -161 0
124 -443 448 0
112 -202 -321 0
-325 -369 -393 0
-166 240 -300 0
183 -356 414 0
55 195 293 0
42 -112 -196 0
170 355 -446 0
-23 -83 -387 0
233 297 363 0
182 -215 -355 0
-187 235 -325 0
-58 -151 -265 0
-80 147 405 0
68 -185 -425 0
-6 303 343 0
-299 328 335 0
34 -167 402 0
119 156 -165 0
-88 -98 -185 0
212 285 426 0
212 302 442 0
164 202 -390 0
106 232 -258 0
86 -177 -378 0
231 -293 -313 0
86 111 -224 0
-179 -255 360 0
124 -328 -340 0
17 -238 -377 0
189 305 -381 0
-218 -318 -433 0
62 -373 430 0
-51 228 367 0
74 233 306 0
-10 403 432 0
-90 245 366 0
-8 149 449 0
120 237 351 0
171 -386 446 0
70 -83 -379 0
-83 134 262 0
-161 -180 -252 0
-198 -304 -342 0
-113 127 -203 0
-259 313 -423 0
107 354 -427 0
69 97 229 0
-110 -330 -429 0
144 284 441 0
160 -392 421 0
60 -376 -445 0
-49 151 205 0
-40 353 413 0
192 -278 -376 0
-175 -251 279 0
130 241 -342 0
-96 -231 -393 0
19 187 215 0
95 268 -442 0
259 304 -401 0
-3 -347 -440 0
161 193 -313 0
-8 -223 374 0
130 227 343 0
16 -169 205 0
145 -231 -280 0
189 -344 450 0
269 -288 -328 0
-322 -421 -441 0
98 -103 114 0
9 -119 -353 0
-178 187 -360 0
-132 215 -234 0
-109 177 -257 0
76 229 367 0
96 259 395 0
-86 -239 374 0
-167 236 -419 0
197 221 -256 0
-86 103 -309 0
-412 -424 -449 0
45 -128 150 0
-52 149 194 0
-149 -401 440 0
52 359 -406 0
-142 -200 -370 0
115 -321 -450 0
146 -163 327 0
-33 -172 -209 0
-9 -111 -185 0
190 -272 -413 0
-59 -169 405 0
-7 -121 142 0
45 -80 -448 0
86 147 447 0
113 -280 436 0
-137 -259 373 0
70 -294 358 0
166 425 -442 0
135 144 -184 0
81 112 -234 0
59 -300 381 0
-242 383 431 0
-253 -300 352 0
192 -293 437 0
140 -166 -442 0
-40 -151 -182 0
-147 364 -371 0
104 -105 -187 0
217 221 373 0
-170 319 356 0
73 162 -428 0
-182 -278 298 0
-204 227 -285 0
80 -161 391 0
166 -273 330 0
-105 149 -361 0
76 179 288 0
-25 215 275 0
2 -9 -401 0
229 -415 -421 0
95 -230 -340 0
62 248 -340 0
184 -397 431 0
113 304 -389 0
-74 -86 382 0
184 227 -355 0
102 -146 -378 0
7 -149 164 0
-167 -301 -405 0
-138 230 449 0
-94 348 -373 0
181 -325 393 0
408 416 -422 0
-335 -366 421 0
-12 169 180 0
337 367 371 0
-216 -315 -450 0
-240 -385 -435 0
-224 -276 412 0
-7 181 329 0
-132 -312 325 0
-149 174 -289 0
73 -353 357 0
-61 -225 -450 0
164 253 -318 0
-55 -58 -302 0
-91 132 287 0
-273 -295 320 0
93 -175 406 0
98 -287 -410 0
-7 339 445 0
-18 278 -403 0
-91 366 -389 0
49 140 -199 0
-14 -91 -242 0
17 -52 361 0
-28 139 326 0
-28 -315 361 0
78 -238 280 0
-30 -131 -299 0
-19 151 356 0
43 369 -425 0
-55 349 392 0
-215 293 335 0
-195 -322 -343 0
334 397 -401 0
-78 95 -281 0
209 213 223 0
151 363 -378 0
234 403 411 0
63 -191 423 0
-227 -304 348 0
34 -80 112 0
-237 315 -360 0
165 -307 -396 0
201 -237 -360 0
25 82 288 0
10 -89 151 0
-348 -397 -421 0
189 375 424 0
-27 -243 -413 0
-87 166 171 0
149 -247 371 0
39 -179 301 0
-275 -276 310 0
-16 -166 350 0
47 -176 421 0
-114 -195 -297 0
-202 285 -445 0
234 -333 362 0
-104 241 -293 0
10 19 200 0
-142 -163 355 0
106 -214 245 0
-261 -392 -446 0
-13 53 241 0
-277 -423 -440 0
102 127 -353 0
248 -289 -377 0
245 346 415 0
142 151 344 0
-84 137 -218 0
-139 -282 409 0
149 302 -337 0
69 -115 400 0
-40 183 -346 0
42 -56 -444 0
-11 -57 -133 0
-2 7 -30 0
88 -223 338 0
-111 -159 -218 0
101 -127 398 0
-169 232 433 0
62 -83 150 0
138 208 250 0
100 201 -367 0
118 -124 -200 0
345 -407 -435 0
-128 -140 229 0
84 316 447 0
-69 -154 -322 0
-79 131 -294 0
277 -328 -417 0
187 222 -298 0
72 -177 -336 0
186 303 432 0
-58 333 -355 0
341 437 443 0
-338 -405 440 0
276 -298 332 0
77 -98 -380 0
-164 -287 447 0
319 365 -448 0
146 -334 -440 0
242 -419 434 0
-84 193 -385 0
66 -195 261 0
78 94 98 0
10 -31 424 0
164 -177 -321 0
84 -102 431 0
96 129 -333 0
-10 39 -151 0
103 115 325 0
-13 -223 430 0
98 300 441 0
252 -311 371 0
-55 -88 -342 0
-267 -321 -343 0
-46 -438 444 0
-126 275 -369 0
41 -61 -94 0
184 289 -323 0
102 216 445 0
233 -252 352 0
13 -159 -386 0
99 134 -434 0
76 342 -437 0
219 359 -432 0
-68 179 -268 0
-39 -287 322 0
219 -291 324 0
-32 106 186 0
8 55 268 0
-7 165 353 0
-140 -392 -402 0
-41 -290 -400 0
71 100 118 0
5 166 -356 0
-81 87 -256 0
70 241 -344 0
74 75 446 0
-8 -111 240 0
25 -111 -449 0
-82 301 436 0
-220 301 394 0
-65 -275 -313 0
180 347 -374 0
-24 -119 -139 0
65 332 441 0
278 352 -429 0
176 -210 233 0
191 259 294 0
-81 113 -309 0
111 222 281 0
183 -192 -248 0
-39 197 -270 0
403 -433 435 0
15 129 -163 0
109 -367 406 0
-35 213 394 0
219 -234 435 0
-81 106 -118 0
174 327 -400 0
-35 130 -369 0
43 115 -284 0
66 79 -178 0
42 -298 302 0
83 -179 -304 0
159 -253 359 0
5 -39 417 0
-119 -327 -443 0
67 117 -259 0
91 -355 -444 0
213 370 -380 0
-188 -211 355 0
33 37 356 0
131 -388 399 0
314 349 -435 0
30 -194 238 0
159 243 424 0
-76 107 -148 0
4 86 182 0
88 371 448 0
-152 201 203 0
-24 -166 428 0
185 274 -351 0
-63 346 -417 0
31 127 -372 0
249 -250 -257 0
-27 -210 -215 0
-98 172 343 0
-133 262 -332 0
-96 -166 355 0
173 255 -262 0
246 -272 339 0
-14 -53 -407 0
-34 240 280 0
57 -315 352 0
343 -419 435 0
-162 352 408 0
-346 -370 -381 0
39 213 240 0
-70 203 -286 0
19 212 -328 0
-142 -145 -306 0
83 108 170 0
-153 185 -449 0
-4 183 233 0
-78 152 402 0
141 -268 -436 0
-62 -196 284 0
166 -388 -447 0
-83 -88 -137 0
-89 98 -340 0
-65 161 395 0
62 168 -241 0
15 -90 -149 0
70 -167 -354 0
-241 -362 -443 0
152 -301 -353 0
181 -313 353 0
11 396 424 0
46 56 -138 0
-149 191 -306 0
11 51 -169 0
256 -276 -288 0
-57 -387 392 0
37 -137 -274 0
-107 234 266 0
-43 62 -235 0
-102 182 229 0
-157 -235 -274 0
-195 -209 417 0
80 137 -144 0
-241 275 369 0
296 -334 374 0
222 324 -368 0
116 254 433 0
69 178 -377 0
122 199 396 0
146 165 -239 0
227 302 -369 0
41 -93 -337 0
70 214 223 0
-89 -245 -313 0
-7 -103 439 0
79 -249 360 0
110 134 323 0
-77 221 438 0
-15 -315 -399 0
92 -236 310 0
-76 281 303 0
155 -177 190 0
58 -78 -420 0
-64 -164 309 0
-6 356 386 0
-213 402 -425 0
-11 19 39 0
-115 133 -401 0
-127 151 210 0
-99 -308 388 0
-68 188 305 0
58 273 283 0
-148 240 -323 0
-167 -204 374 0
52 -136 -183 0
16 18 -444 0
-37 209 -409 0
-63 174 242 0
4 -185 436 0
80 171 -218 0
197 217 315 0
87 -252 -289 0
103 -396 -407 0
-27 -351 -411 0
222 272 445 0
6 72 -359 0
36 -91 -92 0
-221 244 -259 0
-142 288 431 0
117 -190 349 0
221 273 -391 0
250 -303 -304 0
332 -340 422 0
-183 -248 -307 0
122 -231 234 0
-41 -263 -400 0
82 215 -449 0
-139 150 306 0
134 -377 442 0
274 -288 343 0
98 102 168 0
-147 -253 388 0
-89 133 -359 0
120 355 367 0
95 148 197 0
10 60 287 0
-133 -313 406 0
8 318 391 0
130 -269 -292 0
29 290 -440 0
313 342 -421 0
-172 -175 435 0
121 -189 400 0
161 254 429 0
-19 32 91 0
