p cnf 450 1917
149 277 -414 0
25 193 -204 0
4 125 268 0
-307 -418 432 0
-13 -128 206 0
143 -328 -346 0
-67 -159 425 0
-71 125 359 0
-210 259 384 0
-170 -242 -331 0
11 -35 -336 0
-130 134 246 0
-96 -263 424 0
-110 -190 -245 0
-196 -321 -339 0
71 -159 -266 0
11 -97 353 0
-130 284 -298 0
-4 -74 -337 0
225 265 -422 0
-38 271 384 0
209 244 -296 0
-33 -128 195 0
-2 -162 176 0
-183 251 391 0
-125 171 248 0
103 245 -379 0
-59 82 89 0
-389 -397 438 0
77 180 307 0
63 -74 227 0
-85 98 -155 0
-13 -369 416 0
-205 420 -428 0
-51 140 -215 0
-23 39 123 0
-59 70 247 0
-94 -180 -263 0
209 232 322 0
13 89 310 0
-90 162 -322 0
-182 355 357 0
272 280 -433 0
-58 142 -152 0
-36 -59 339 0
-188 -268 291 0
23 -318 432 0
-82 -191 240 0
265 -356 369 0
10 130 172 0
-12 162 257 0
78 313 423 0
-58 327 359 0
-17 -25 270 0
115 -131 260 0
170 439 449 0
178 254 362 0
116 314 -318 0
285 -306 376 0
-106 -127 -245 0
166 333 -365 0
-20 -128 -364 0
-83 295 -314 0
215 325 376 0
-2 -45 -352 0
127 273 347 0
-19 62 -270 0
-10 -55 -317 0
86 217 -355 0
-136 -154 -199 0
69 -186 -342 0
65 121 -350 0
-163 -330 405 0
205 -232 -348 0
-35 -250 -417 0
-140 182 -213 0
-55 -62 162 0
-6 283 -436 0
-24 94 378 0
29 -180 -416 0
-272 -306 340 0
-168 -199 242 0
72 73 316 0
111 114 -297 0
-256 370 438 0
174 -259 -334 0
116 228 262 0
-180 -196 440 0
30 60 -204 0
-31 210 -399 0
-13 -36 -423 0
16 -43 245 0
-15 -335 382 0
381 404 425 0
-59 -302 -315 0
129 -218 -320 0
-72 -251 -385 0
-48 -102 -283 0
-126 152 195 0
147 367 -427 0
-77 164 -190 0
-323 336 -430 0
40 410 -411 0
-168 -320 -346 0
1 -44 311 0
-11 -130 -438 0
129 312 392 0
194 254 440 0
272 -277 304 0
-215 385 -429 0
-24 57 231 0
138 -383 396 0
214 -226 -442 0
44 166 291 0
52 64 -103 0
15 307 339 0
-119 329 -424 0
-230 -322 -418 0
-121 272 -392 0
-72 -176 376 0
100 155 427 0
86 -346 391 0
-121 -214 446 0
238 -268 293 0
172 -360 398 0
-21 157 -423 0
23 32 264 0
-160 429 446 0
12 -176 331 0
34 -192 300 0
-86 -195 -404 0
15 -146 -287 0
-54 -330 446 0
-116 123 -341 0
-203 -270 -382 0
-255 -343 -383 0
49 291 426 0
130 329 448 0
203 -255 -270 0
-4 16 -220 0
217 -266 -363 0
82 -140 -413 0
-253 -296 411 0
51 -158 192 0
-13 -160 -295 0
56 -166 394 0
-55 118 366 0
11 -199 -436 0
25 -60 -350 0
-28 190 290 0
-47 -77 132 0
19 161 -248 0
-164 256 426 0
8 139 314 0
36 268 294 0
-152 227 -444 0
-45 -133 -145 0
38 210 -225 0
70 215 301 0
-191 378 -413 0
-117 -256 370 0
-73 -229 360 0
108 232 387 0
-7 88 -122 0
215 -382 384 0
-126 249 449 0
167 -190 330 0
-164 226 384 0
-59 -155 185 0
-204 -384 -404 0
-45 -89 -269 0
91 -96 -371 0
90 -148 -195 0
318 399 401 0
-27 -357 -450 0
252 265 -432 0
59 -110 312 0
202 291 303 0
-9 113 183 0
48 49 -393 0
263 325 436 0
-351 422 -446 0
-270 -297 -431 0
-91 146 -218 0
131 293 423 0
-22 49 -109 0
13 147 343 0
-105 -188 201 0
-61 -246 361 0
-158 302 418 0
1 112 -347 0
-198 412 428 0
-153 175 180 0
-74 -106 253 0
251 314 348 0
58 96 -113 0
-145 327 -355 0
-375 -376 -399 0
192 394 -397 0
-76 -137 -377 0
-45 -308 405 0
69 175 278 0
69 -153 341 0
29 86 347 0
67 148 286 0
-24 -213 -303 0
158 297 -322 0
-155 -271 -395 0
41 -80 364 0
-160 182 -308 0
76 -364 -440 0
34 324 -415 0
88 143 197 0
-91 178 -261 0
-88 -211 333 0
148 -350 -446 0
223 286 343 0
-139 151 263 0
19 127 -394 0
166 -360 368 0
-186 330 -355 0
132 169 -357 0
-167 -275 334 0
-172 -235 435 0
-50 -178 424 0
-290 -315 450 0
-98 100 378 0
4 187 -426 0
-105 197 -390 0
180 -182 -190 0
-140 190 408 0
49 294 -413 0
-70 -125 -303 0
-153 320 -330 0
-159 200 -418 0
180 -195 259 0
-179 -305 -313 0
-161 174 -276 0
-181 279 343 0
57 -266 -430 0
-207 -236 -329 0
46 -76 -372 0
-94 -313 -382 0
-124 165 -229 0
-116 160 -169 0
-253 -288 295 0
80 160 -272 0
-254 322 448 0
-167 217 -347 0
-13 78 267 0
-183 -299 312 0
-90 -276 437 0
-207 -209 337 0
-81 118 -232 0
143 -175 402 0
68 127 -166 0
-179 306 370 0
-107 -426 438 0
-93 288 -409 0
-91 96 333 0
109 225 411 0
116 -134 -350 0
-93 101 380 0
-50 -124 255 0
-37 -342 364 0
35 369 -406 0
-39 -214 -434 0
116 -345 374 0
56 148 436 0
-88 -139 -283 0
251 313 -355 0
91 -261 425 0
39 268 -329 0
-182 -276 301 0
-23 -338 -429 0
135 189 214 0
31 119 -163 0
19 140 -194 0
-221 272 -445 0
113 119 -288 0
-181 252 -416 0
-138 167 255 0
-372 -386 -401 0
-86 119 -266 0
138 -199 364 0
13 -192 -262 0
-165 279 -416 0
142 426 441 0
227 386 419 0
-52 60 -91 0
145 206 312 0
-12 112 295 0
244 -335 -398 0
38 307 380 0
-29 -153 397 0
-12 309 -356 0
-136 -412 -431 0
25 105 318 0
145 175 -227 0
236 290 -432 0
10 188 -263 0
-83 155 -365 0
95 -302 384 0
66 -138 -252 0
248 319 429 0
6 88 -440 0
-90 227 305 0
-42 251 348 0
-205 297 -409 0
-125 198 -220 0
100 -248 -277 0
-273 -322 -324 0
-134 -213 232 0
-20 -100 -219 0
-78 -141 401 0
305 -373 433 0
29 237 -381 0
-25 190 378 0
-194 -352 382 0
79 121 336 0
225 339 440 0
-165 197 211 0
209 391 433 0
-14 79 193 0
98 318 -387 0
183 -244 322 0
-109 -191 -210 0
-135 -186 306 0
-108 212 -310 0
44 -73 -284 0
135 -259 -297 0
23 78 405 0
228 -268 -378 0
65 -206 306 0
141 425 444 0
-66 226 -325 0
40 50 321 0
164 -171 207 0
69 240 397 0
86 -275 -303 0
4 -252 383 0
-140 -252 391 0
99 179 -227 0
7 -56 -220 0
248 -362 370 0
70 -189 -252 0
164 266 350 0
-92 266 -346 0
77 -93 -255 0
87 205 -413 0
-25 -97 367 0
-66 -96 -267 0
3 218 -227 0
-45 67 -318 0
104 -154 286 0
-10 141 175 0
-22 68 69 0
32 176 209 0
175 -268 -312 0
6 307 -386 0
121 370 395 0
-74 167 -181 0
-8 -325 -443 0
108 -163 307 0
51 -124 -278 0
-30 -54 -124 0
-65 -353 -425 0
63 319 -446 0
101 -143 220 0
324 -363 450 0
-53 -257 352 0
245 342 358 0
-122 -445 -450 0
42 -71 360 0
-64 187 -244 0
82 342 407 0
48 -245 356 0
-90 106 -212 0
-265 352 382 0
186 -401 441 0
37 -311 -372 0
-28 242 307 0
-84 -230 -315 0
-33 85 314 0
-72 114 -342 0
-105 -112 -242 0
-210 -248 419 0
-164 222 367 0
27 231 -381 0
-51 222 -269 0
-29 -102 434 0
94 234 309 0
-193 329 -380 0
81 -113 -180 0
-44 184 -228 0
18 -122 127 0
-297 -395 444 0
-67 255 -440 0
-124 285 -292 0
32 36 133 0
147 167 214 0
209 -294 299 0
23 238 -305 0
12 263 380 0
110 -122 -194 0
146 -353 -404 0
27 294 -370 0
-49 253 436 0
229 289 -387 0
-13 -36 -305 0
-256 -330 342 0
-56 160 -301 0
296 -405 -434 0
161 -266 393 0
-52 70 -175 0
336 -357 -437 0
-96 164 -441 0
7 -51 123 0
-139 302 -435 0
-22 290 325 0
-5 -230 -403 0
-40 -62 -322 0
-61 -72 136 0
192 -216 268 0
-130 -294 -322 0
71 403 -440 0
66 -134 406 0
56 65 406 0
-90 162 -422 0
-199 -206 271 0
-160 -264 397 0
-25 -136 267 0
142 -268 438 0
-248 418 -422 0
226 -334 445 0
-27 66 410 0
-223 245 384 0
195 -216 399 0
95 159 165 0
-140 -260 -361 0
-116 422 439 0
50 270 -332 0
-13 323 -337 0
-37 74 425 0
-148 -327 363 0
-148 -196 -298 0
-67 229 370 0
-230 300 -369 0
-96 -136 -158 0
115 -329 360 0
61 71 292 0
-253 -351 -400 0
94 172 -313 0
106 115 344 0
-95 -105 -240 0
-163 -361 -450 0
41 83 -135 0
-42 228 358 0
-53 -250 -266 0
283 306 -442 0
-94 -111 259 0
152 215 417 0
-112 318 -406 0
-195 218 449 0
104 -172 341 0
165 -242 280 0
220 -362 -413 0
72 211 345 0
118 -254 -335 0
127 210 -373 0
74 144 -151 0
-202 -245 416 0
93 -254 413 0
-60 -308 346 0
-54 168 430 0
-115 -207 -425 0
-208 -291 -353 0
-210 -350 -394 0
90 227 420 0
154 -389 449 0
99 298 -408 0
-83 -291 -393 0
-18 -96 -446 0
-72 159 265 0
-25 169 -312 0
-124 140 378 0
-84 272 -421 0
176 -268 -419 0
-134 211 -392 0
-99 355 361 0
294 -381 -392 0
134 -268 420 0
-88 -338 -360 0
65 118 -214 0
-118 -348 380 0
-56 122 -141 0
-400 -431 -434 0
-52 -420 -431 0
275 -301 -313 0
31 -113 246 0
20 73 -330 0
-85 -144 222 0
23 -156 213 0
-65 -104 354 0
-122 314 -386 0
27 36 71 0
129 -166 324 0
-228 -359 -436 0
-51 153 434 0
-47 -308 442 0
4 375 -388 0
-30 -52 -442 0
-9 -125 -178 0
-6 133 -182 0
-7 -225 436 0
-187 289 341 0
247 -311 -416 0
154 -223 273 0
-130 -202 -364 0
130 -167 361 0
-254 -327 -358 0
51 -132 -173 0
42 224 259 0
41 42 330 0
113 -134 -439 0
-331 384 -394 0
-89 241 301 0
-92 129 -215 0
115 330 -434 0
101 196 334 0
-235 307 -350 0
27 -268 419 0
312 -324 405 0
-187 -285 -417 0
-137 282 313 0
-103 -167 -383 0
-53 59 -110 0
-58 183 364 0
196 -238 270 0
59 -375 -394 0
107 -117 -336 0
19 -82 360 0
-58 136 -226 0
-38 -327 361 0
-174 182 285 0
28 -37 94 0
-140 221 249 0
-275 -403 421 0
143 360 -365 0
-17 -22 -239 0
-17 -114 -127 0
18 92 219 0
-10 -237 400 0
21 -217 -270 0
-85 -183 -360 0
-18 33 308 0
184 -235 379 0
2 -151 390 0
29 33 -202 0
-364 -402 444 0
19 52 -431 0
57 -154 307 0
-57 155 421 0
273 344 -362 0
-33 -71 -298 0
146 197 386 0
-91 361 389 0
113 -180 -221 0
139 140 -203 0
-144 -162 -234 0
166 -239 -407 0
-153 399 450 0
28 315 -320 0
-42 -104 -375 0
-39 -140 182 0
137 175 406 0
-157 168 -351 0
122 -325 -388 0
173 191 317 0
-144 231 -408 0
172 -213 -239 0
54 -330 421 0
60 -97 -277 0
73 137 358 0
-223 299 -423 0
27 37 88 0
11 -99 -415 0
173 -331 348 0
-102 424 427 0
173 197 -398 0
266 -294 318 0
98 407 -423 0
-96 -159 163 0
72 193 -342 0
31 71 -111 0
-222 -276 -430 0
-40 -46 406 0
203 -320 -397 0
-79 -136 -405 0
291 -340 -405 0
151 -237 405 0
-175 276 -393 0
158 171 426 0
50 -363 -431 0
-138 222 -301 0
13 98 -236 0
3 -11 -323 0
89 147 396 0
105 -150 260 0
-261 -265 343 0
126 187 404 0
-249 317 -425 0
-24 -153 -443 0
25 62 317 0
10 -298 305 0
-58 -114 -247 0
-16 177 -327 0
-257 -348 434 0
153 -159 447 0
-2 -59 -179 0
-66 259 431 0
-284 328 -365 0
60 183 -223 0
43 -276 -306 0
-252 -256 -406 0
-72 -275 -374 0
-26 349 439 0
108 343 401 0
226 -276 -361 0
-12 83 -311 0
82 -88 -379 0
-62 -342 -343 0
136 267 324 0
90 -182 -233 0
148 -336 347 0
7 91 -133 0
-74 266 -353 0
6 -196 -233 0
-37 297 386 0
212 -215 327 0
-145 -283 -333 0
7 -195 335 0
-128 -355 405 0
259 281 344 0
279 320 381 0
131 229 332 0
-6 78 -147 0
-3 -76 112 0
209 -246 287 0
-172 353 -409 0
73 -143 -397 0
-78 -301 310 0
83 -207 -239 0
-177 -196 -245 0
-106 -167 -278 0
-274 359 442 0
-12 125 -427 0
-188 -209 255 0
-10 -59 -288 0
96 -199 357 0
-193 328 435 0
-123 -194 -331 0
-67 -166 173 0
-124 -175 -208 0
184 -319 328 0
143 -203 410 0
-147 -299 -357 0
-16 33 -430 0
-47 57 418 0
246 251 -328 0
121 -292 -338 0
103 138 -395 0
105 -228 339 0
-43 -136 -174 0
-71 403 449 0
-99 249 -291 0
-4 -16 153 0
-167 -222 247 0
35 69 -142 0
-336 349 396 0
-152 184 250 0
18 124 369 0
72 435 449 0
-123 132 -152 0
277 -284 417 0
120 309 361 0
275 -293 -415 0
-146 -247 -286 0
-276 -308 -443 0
82 99 420 0
71 105 -387 0
-301 409 -416 0
-126 -227 334 0
106 -207 -288 0
165 281 -433 0
-106 163 303 0
22 -116 192 0
-271 -301 -362 0
185 -309 -358 0
-179 268 -409 0
32 52 -79 0
-3 -111 417 0
21 237 -414 0
-162 -209 -320 0
35 -37 -111 0
-14 -117 -196 0
109 207 -309 0
-117 137 -189 0
-37 72 441 0
46 132 433 0
-46 137 -159 0
-40 85 -168 0
206 329 -389 0
-62 -116 278 0
23 -50 -356 0
263 324 352 0
-9 160 440 0
-171 -324 -360 0
-237 389 -439 0
-352 -391 -415 0
-39 -126 292 0
118 249 -308 0
280 407 412 0
189 -243 260 0
220 -242 -328 0
-30 -79 -429 0
-66 -113 -120 0
-135 257 386 0
71 -90 -198 0
6 -325 443 0
-20 325 410 0
-64 74 291 0
-221 -250 297 0
-23 212 -336 0
231 278 428 0
150 247 296 0
300 -405 -418 0
-98 201 348 0
134 -382 401 0
109 159 285 0
-142 -268 -375 0
-271 298 -330 0
17 105 -392 0
158 -299 425 0
112 -280 315 0
144 -172 -396 0
268 289 433 0
-160 -169 -387 0
-28 -227 256 0
-50 -87 351 0
12 50 -215 0
100 -193 238 0
307 -332 370 0
125 202 340 0
92 -131 243 0
-212 -251 262 0
-110 -403 431 0
-91 99 -333 0
-131 -378 414 0
152 -340 -429 0
259 410 415 0
-77 -226 243 0
-52 -70 -171 0
96 199 235 0
-170 239 413 0
-2 354 -389 0
18 239 -368 0
-54 201 -422 0
177 262 -288 0
-81 -149 386 0
-18 -213 -279 0
-35 -92 -140 0
-41 124 372 0
-38 -60 169 0
-283 305 337 0
-85 175 -399 0
-128 -181 206 0
110 173 355 0
-170 196 329 0
35 -154 238 0
283 355 -408 0
159 364 -443 0
-178 253 -346 0
23 114 333 0
-131 -325 -429 0
-227 250 447 0
-181 -237 -356 0
-93 151 -288 0
-28 51 189 0
-142 -224 361 0
5 -209 -295 0
-235 -323 412 0
-16 -171 -207 0
3 224 263 0
94 216 -376 0
-85 -250 407 0
-6 58 316 0
-5 278 -448 0
125 141 295 0
114 140 -141 0
-74 315 -447 0
-120 150 -349 0
9 102 -235 0
-29 71 229 0
13 -28 406 0
-6 206 267 0
-307 327 420 0
42 -382 394 0
6 31 -443 0
29 166 -205 0
14 -85 -345 0
55 -314 -371 0
211 358 -449 0
-3 -21 -364 0
-3 -273 387 0
223 -248 -345 0
16 -330 -395 0
-318 332 -360 0
-18 153 279 0
119 -321 -409 0
-29 124 -268 0
-152 174 396 0
9 90 142 0
378 -413 -414 0
-30 -91 -295 0
68 -294 411 0
-33 290 -394 0
113 -166 290 0
128 -153 169 0
-70 -271 280 0
-41 -139 369 0
79 -169 246 0
244 399 401 0
67 -78 -91 0
-31 -48 -399 0
-103 -298 303 0
315 -378 403 0
-3 313 -396 0
-53 85 -191 0
12 -400 -434 0
117 -182 416 0
208 -362 405 0
-103 181 223 0
83 170 -311 0
-36 419 426 0
-8 97 -373 0
190 -282 -428 0
193 -321 422 0
3 18 -313 0
-144 -303 -352 0
-50 99 -358 0
11 341 418 0
6 -188 -368 0
-155 157 -423 0
160 270 -332 0
-378 -396 -445 0
68 -210 -449 0
1 102 -246 0
-56 -291 -393 0
-20 243 307 0
91 -145 -233 0
8 -197 -245 0
-30 -302 -385 0
-118 255 387 0
-25 37 299 0
55 56 127 0
19 223 -318 0
-171 -275 402 0
-57 -216 -420 0
229 271 314 0
-162 188 413 0
28 128 134 0
86 -213 -414 0
43 -151 -414 0
-10 229 435 0
-54 334 350 0
-194 271 -293 0
-34 -320 -372 0
27 -109 290 0
-11 -199 -408 0
-144 -265 447 0
2 113 407 0
136 -349 -434 0
-259 281 304 0
155 204 -422 0
-65 -289 418 0
-278 390 -407 0
-239 289 338 0
-58 -96 381 0
65 -122 128 0
-80 -92 248 0
87 382 436 0
-106 -130 -433 0
171 301 322 0
-36 -261 324 0
225 258 -376 0
-105 -147 215 0
39 86 -313 0
86 -138 -206 0
301 356 -417 0
20 -54 -103 0
-39 56 437 0
-89 -116 -346 0
248 -412 -431 0
186 -253 398 0
-102 318 403 0
-248 -250 -431 0
4 152 192 0
311 -327 377 0
-55 196 -430 0
-248 282 -398 0
17 274 -430 0
72 136 -286 0
83 -431 -437 0
-2 -71 -108 0
-9 -236 -416 0
-130 -277 446 0
-7 -308 -442 0
-45 174 379 0
87 102 157 0
231 -289 363 0
-4 237 -362 0
33 -225 394 0
141 227 326 0
-108 211 258 0
-125 -233 -288 0
37 -202 426 0
12 165 -391 0
88 99 192 0
53 -221 -234 0
-36 187 -424 0
-15 260 450 0
70 -113 -167 0
174 325 366 0
-363 388 -399 0
12 233 358 0
34 -224 -358 0
33 -331 -387 0
154 355 -416 0
14 -231 444 0
156 289 394 0
42 -182 -252 0
-115 -325 395 0
82 319 -387 0
86 176 -279 0
-11 -113 210 0
-135 -244 414 0
135 214 -220 0
-27 -34 429 0
229 -396 437 0
-220 -383 -402 0
279 324 443 0
-104 -249 -338 0
72 -150 -296 0
168 348 390 0
206 291 371 0
-56 -121 -418 0
-45 -97 212 0
-368 -377 448 0
177 262 -357 0
50 -93 234 0
-5 -186 427 0
-13 -51 -411 0
-55 -77 348 0
-221 316 -373 0
182 252 407 0
-6 -76 146 0
-86 -277 301 0
-141 -205 428 0
-4 116 -439 0
-233 279 284 0
-94 -168 314 0
-3 -231 -333 0
14 60 -353 0
148 245 -418 0
113 -234 -429 0
94 -222 -237 0
-114 -115 -354 0
-16 93 -155 0
-318 334 -420 0
68 -234 -311 0
54 -257 -427 0
-7 85 307 0
223 -338 -363 0
115 306 371 0
-110 -180 331 0
-298 -347 413 0
88 -192 -417 0
-215 375 400 0
-274 297 -410 0
143 -242 370 0
265 -273 -275 0
-74 100 -163 0
-70 -155 -250 0
-192 387 -405 0
-166 261 -407 0
-77 -178 -227 0
-263 -339 -397 0
-47 -131 247 0
-126 -172 -242 0
113 -205 223 0
-280 -316 -367 0
114 -171 375 0
205 -228 -296 0
61 249 361 0
40 -195 408 0
90 386 -389 0
147 -174 275 0
-66 130 445 0
39 338 -413 0
-216 -373 414 0
253 -300 301 0
5 -309 443 0
13 -248 430 0
276 342 -411 0
14 -50 -447 0
-77 -287 446 0
-211 320 -408 0
4 -104 283 0
-153 306 382 0
243 -333 442 0
34 250 -377 0
105 -172 389 0
-212 -291 309 0
-177 -186 -230 0
-254 372 -428 0
44 244 389 0
76 -185 -216 0
257 -264 -282 0
25 -290 -379 0
-211 342 438 0
-11 -224 261 0
-131 -138 433 0
140 254 334 0
85 392 -409 0
75 -313 -351 0
-137 -232 -291 0
46 82 -336 0
4 -96 408 0
52 126 -145 0
86 126 368 0
-40 220 -423 0
130 354 445 0
-31 154 210 0
80 -289 -354 0
-119 -160 194 0
-15 143 230 0
166 -294 323 0
-3 21 -382 0
-195 256 410 0
-304 -305 446 0
-95 -204 296 0
16 73 358 0
38 194 -425 0
-74 167 435 0
13 128 -197 0
-287 -318 -336 0
-205 222 433 0
-52 -75 226 0
-75 -151 262 0
50 -155 -251 0
-67 313 -403 0
70 219 -377 0
-261 365 404 0
-317 -343 -428 0
74 162 -412 0
128 -180 -434 0
26 80 -379 0
-26 -168 -424 0
23 -145 243 0
86 -217 231 0
-40 181 445 0
79 -161 278 0
-48 -63 160 0
57 72 -109 0
-227 -302 -356 0
-22 -167 341 0
120 -236 -270 0
-79 -137 -432 0
31 215 362 0
27 76 -81 0
15 237 243 0
-70 -137 229 0
-60 -370 404 0
-33 47 -246 0
-38 186 -195 0
41 89 118 0
148 349 -381 0
40 194 377 0
55 122 -276 0
-201 334 426 0
-62 -170 186 0
118 194 -265 0
84 258 -347 0
109 139 426 0
35 -343 -425 0
-108 -233 -332 0
-212 -214 341 0
-76 348 -419 0
143 -254 -307 0
-132 139 -183 0
-37 242 246 0
-15 281 383 0
-65 162 -393 0
27 -350 -392 0
11 -283 -290 0
213 -262 264 0
46 -387 -412 0
140 -309 395 0
-161 -229 307 0
-100 162 -184 0
1 -148 -253 0
36 142 -449 0
-105 -179 299 0
-66 299 -325 0
-335 -388 395 0
113 -209 -218 0
-190 -368 403 0
-21 225 431 0
-62 68 151 0
52 -224 -293 0
-181 346 -371 0
-2 240 259 0
56 102 -214 0
-142 -198 437 0
-43 -263 -352 0
9 -189 450 0
-15 -188 -197 0
-234 -247 395 0
50 242 -438 0
109 -192 -247 0
181 250 -291 0
-56 161 -375 0
166 -309 368 0
-109 151 -438 0
265 274 283 0
-92 119 -129 0
-66 -89 264 0
142 -307 -369 0
132 284 364 0
148 341 -409 0
42 84 390 0
-19 -23 -422 0
26 129 -433 0
-86 -212 272 0
95 354 -429 0
15 -321 -394 0
-127 -168 304 0
18 -276 -384 0
-178 -215 -243 0
124 -173 -299 0
-160 269 -403 0
309 -401 -448 0
127 -252 -427 0
-160 -244 -422 0
-221 -345 442 0
196 -352 -385 0
169 198 -397 0
68 350 -369 0
-70 -87 -264 0
-30 -286 -327 0
121 -248 348 0
-41 -76 -90 0
-22 -67 -389 0
224 270 -411 0
-24 -296 341 0
10 32 348 0
21 54 122 0
162 -246 -351 0
75 249 423 0
99 212 320 0
315 371 423 0
97 -193 -226 0
78 -293 300 0
195 336 418 0
-27 98 -227 0
-7 -164 -340 0
-20 293 -425 0
-9 17 -340 0
-123 252 -349 0
-2 -242 345 0
5 -157 -358 0
104 -142 437 0
54 -60 -174 0
94 130 290 0
63 -86 -258 0
2 213 -376 0
34 -41 -105 0
33 267 272 0
110 -391 448 0
-164 -198 357 0
-237 -342 387 0
165 379 409 0
-79 100 -182 0
76 327 -373 0
-155 293 315 0
191 211 -327 0
-347 391 435 0
-260 -320 -372 0
-228 310 -324 0
82 -156 249 0
-1 193 -254 0
30 -88 381 0
-234 -294 386 0
-195 -209 -214 0
34 225 353 0
98 -118 129 0
-171 -212 284 0
51 229 -349 0
111 -138 -172 0
-66 365 380 0
99 -192 -388 0
195 -250 -427 0
15 337 -402 0
-107 -270 313 0
59 -365 429 0
39 -123 374 0
190 -231 -297 0
-75 190 -414 0
-18 -314 -432 0
91 -102 -306 0
74 116 343 0
-9 -108 -248 0
63 334 391 0
59 -136 -303 0
45 -407 435 0
62 76 79 0
-224 -297 349 0
-7 -50 -107 0
123 -284 -352 0
91 -99 -233 0
-67 -203 -209 0
52 242 285 0
-366 -382 439 0
177 -205 -286 0
-162 210 -292 0
68 -217 -426 0
325 404 -424 0
-233 266 314 0
-27 122 -169 0
-159 -200 418 0
-67 206 286 0
-104 -290 -395 0
69 88 -420 0
38 -153 235 0
-42 262 417 0
83 -243 345 0
117 -189 376 0
191 218 -408 0
-85 -255 348 0
293 -315 -361 0
-39 -61 134 0
-66 -99 -321 0
100 173 -382 0
92 -93 370 0
1 -277 393 0
2 148 214 0
173 -251 404 0
-200 241 290 0
188 311 -324 0
-20 -396 443 0
-239 -248 -400 0
-247 340 447 0
256 349 -385 0
-74 294 379 0
-254 -386 -391 0
-180 195 355 0
109 -115 -383 0
92 -209 290 0
-94 112 -126 0
-16 -244 398 0
-311 -331 -439 0
136 208 -222 0
4 -30 191 0
-296 -334 438 0
75 -248 307 0
-101 108 409 0
-162 244 284 0
31 137 446 0
9 405 -424 0
144 324 403 0
123 -125 230 0
17 -127 -157 0
-20 -236 -357 0
-117 172 410 0
-23 -227 255 0
25 217 447 0
-36 254 282 0
112 -121 220 0
-45 96 413 0
182 -364 428 0
-98 402 443 0
181 -247 318 0
57 -61 368 0
25 -120 -133 0
-3 -135 -284 0
-32 111 -388 0
-173 -216 327 0
-2 183 303 0
12 149 183 0
-178 280 -382 0
-45 162 -291 0
75 -162 202 0
22 -71 -352 0
-107 -168 196 0
77 99 -246 0
102 -207 347 0
13 308 439 0
54 67 294 0
55 -81 -87 0
-9 -51 -95 0
145 -338 -383 0
162 288 -438 0
-179 248 258 0
-30 -141 -414 0
149 265 -291 0
144 304 -324 0
-23 -93 -269 0
-197 -246 271 0
284 323 -431 0
63 -374 -440 0
-106 359 382 0
-109 -390 -418 0
-213 -226 273 0
-138 -269 450 0
141 -257 -425 0
-90 144 356 0
94 -122 351 0
-104 -191 -417 0
143 -263 -417 0
-84 -158 377 0
2 203 -318 0
6 25 -183 0
-175 -324 435 0
-143 296 304 0
-183 -292 348 0
-304 369 -400 0
13 -26 70 0
-229 441 445 0
-134 -170 420 0
-72 -123 270 0
-122 -153 198 0
50 276 -348 0
-114 359 441 0
85 392 424 0
-117 -173 -325 0
-256 -310 416 0
57 166 -233 0
-73 -89 367 0
109 141 -431 0
-9 68 280 0
-6 -378 -407 0
-61 -296 375 0
22 -71 -397 0
-177 -226 -260 0
7 -58 -141 0
-179 200 -295 0
-74 -95 102 0
-56 91 -159 0
56 -163 355 0
-183 319 375 0
108 -279 -319 0
235 -256 421 0
-332 389 443 0
-78 -112 366 0
11 -96 -133 0
25 92 433 0
91 279 -309 0
59 127 -206 0
168 296 400 0
-180 -382 -426 0
-205 -225 -404 0
-17 -69 -138 0
6 -15 -403 0
-162 205 309 0
-99 133 -353 0
19 -139 -264 0
238 -277 291 0
3 -149 -175 0
-180 -243 -397 0
282 336 -431 0
96 117 -329 0
-112 126 -365 0
-26 146 157 0
-31 118 -172 0
35 116 -442 0
84 212 269 0
-22 280 -312 0
31 -37 -278 0
-8 -355 -377 0
-6 42 424 0
3 -395 -440 0
-3 -27 -191 0
-175 -243 -353 0
-231 -361 406 0
116 179 278 0
34 359 390 0
188 315 -325 0
64 -81 -145 0
111 155 -239 0
-110 403 433 0
53 -297 -311 0
204 244 296 0
-239 -297 -323 0
-153 -314 415 0
-7 -34 151 0
164 234 375 0
60 133 -389 0
24 323 -435 0
51 -113 -370 0
-17 165 223 0
44 -254 340 0
206 -248 275 0
20 -218 -430 0
-136 -152 -384 0
174 258 312 0
126 -242 -263 0
-119 289 323 0
91 275 -351 0
-31 -205 246 0
151 -249 -327 0
-60 -311 -375 0
-24 -178 362 0
-71 73 -138 0
92 172 422 0
23 -140 191 0
-2 -158 -215 0
-52 55 296 0
41 227 324 0
99 369 -384 0
-73 379 440 0
-82 -106 448 0
313 -315 -367 0
-103 -162 263 0
39 -289 421 0
21 60 192 0
-112 130 139 0
-84 376 -405 0
-118 200 429 0
-305 -329 424 0
90 172 449 0
-145 224 379 0
-102 376 409 0
-152 237 447 0
-81 -332 -347 0
-122 -258 404 0
-61 -144 205 0
-173 -212 290 0
-129 397 449 0
18 -423 -433 0
54 -64 322 0
92 -350 -387 0
-224 -265 -365 0
70 -313 -354 0
20 165 203 0
132 171 -299 0
-166 -387 395 0
-86 -350 357 0
170 304 -386 0
122 -159 -314 0
-12 -147 305 0
8 -63 140 0
-11 29 402 0
-317 359 449 0
61 78 -417 0
29 -211 344 0
1 212 -357 0
193 210 396 0
-43 -124 -186 0
358 -363 425 0
209 325 388 0
194 201 -269 0
76 120 249 0
-19 -54 229 0
-249 -277 -321 0
-12 -388 448 0
14 430 433 0
3 85 410 0
-129 -320 404 0
109 -130 393 0
135 379 -408 0
-18 89 -417 0
175 -186 -403 0
-259 -419 448 0
-20 45 100 0
-152 252 317 0
-120 283 405 0
80 -399 -419 0
-137 186 -269 0
217 -435 436 0
26 192 -388 0
92 -153 -320 0
-173 -273 350 0
-77 384 -419 0
7 -268 -380 0
-96 -337 432 0
-259 420 422 0
-96 203 -305 0
198 -258 425 0
44 51 319 0
120 -236 -386 0
-107 225 349 0
-83 -87 303 0
37 -71 -427 0
-257 -355 -430 0
74 285 -429 0
-183 -309 348 0
-283 -297 -302 0
-96 -243 391 0
79 -361 -427 0
-51 -170 249 0
181 340 349 0
-109 -190 -246 0
19 -182 310 0
-1 -309 379 0
283 429 440 0
-144 335 -449 0
231 234 433 0
-135 242 -368 0
157 -186 300 0
303 348 -428 0
-229 -324 341 0
-80 -184 -282 0
-65 -308 425 0
138 412 -414 0
19 -325 -368 0
94 -248 359 0
41 -142 368 0
59 389 -421 0
-28 -110 268 0
-162 -256 -433 0
75 151 -259 0
-142 -252 -346 0
59 -86 308 0
-172 -181 -449 0
3 -4 70 0
-210 269 448 0
237 -393 -445 0
-24 134 -408 0
-22 -43 -371 0
93 142 417 0
43 69 -152 0
-20 -289 393 0
-325 -359 -402 0
92 -166 262 0
-136 303 -424 0
-223 370 426 0
326 -340 -432 0
147 -318 386 0
-20 -156 -356 0
-166 -220 -247 0
37 190 313 0
-40 53 193 0
91 272 -410 0
-126 -165 -237 0
-1 143 205 0
-36 164 274 0
50 221 -394 0
-359 -431 -448 0
-151 322 385 0
136 196 -435 0
-194 -265 298 0
-186 -203 -294 0
155 -275 -445 0
22 -88 -420 0
69 -285 -368 0
-6 -320 -341 0
-199 -311 447 0
-15 -79 380 0
64 94 405 0
90 -163 208 0
-10 77 132 0
26 -264 -395 0
-85 -279 349 0
31 -138 292 0
-202 232 426 0
-64 269 -342 0
59 103 437 0
229 264 325 0
17 256 -260 0
309 -404 426 0
-60 196 200 0
31 -175 209 0
-13 62 116 0
49 -108 171 0
-100 165 424 0
41 347 -384 0
-7 -42 276 0
254 409 434 0
-14 -327 -435 0
-276 332 342 0
39 -180 347 0
-116 -308 -422 0
-137 210 -416 0
161 174 -218 0
49 56 -142 0
163 297 -379 0
240 -267 -361 0
22 276 -326 0
185 -364 387 0
60 -276 434 0
-283 364 434 0
-316 -351 -369 0
-109 -123 -276 0
-197 -370 381 0
-92 -136 -360 0
-231 -271 -420 0
-98 -253 -312 0
176 271 -447 0
-17 196 -381 0
-62 -107 -301 0
106 110 177 0
26 348 -413 0
13 184 220 0
101 -399 411 0
79 202 318 0
-11 104 132 0
170 332 445 0
189 208 -412 0
11 150 -337 0
-79 -302 -308 0
105 196 -297 0
81 209 260 0
-12 -172 -373 0
25 77 256 0
27 -389 -424 0
367 383 431 0
-183 -277 -356 0
-129 167 433 0
-45 383 -443 0
-245 -262 383 0
-45 -141 -364 0
-35 197 -203 0
121 -267 376 0
-103 -429 -444 0
-80 -169 -402 0
36 200 205 0
75 242 -413 0
-61 73 -97 0
7 -280 -346 0
81 138 -203 0
-74 -241 431 0
-113 165 -350 0
-296 -435 444 0
2 -327 334 0
-69 -273 401 0
118 292 404 0
187 -287 -404 0
-121 -249 -423 0
-141 -232 -412 0
-111 141 -178 0
-200 218 385 0
-126 203 216 0
-17 50 -315 0
-73 -248 250 0
33 -114 186 0
46 -97 -98 0
-73 299 -337 0
235 -269 360 0
-108 -215 417 0
-49 -182 220 0
-177 272 365 0
11 -78 -210 0
-169 -213 238 0
44 -170 282 0
118 264 424 0
-76 154 415 0
-137 351 441 0
344 387 -417 0
129 206 424 0
229 300 326 0
-4 -207 229 0
211 -248 -450 0
228 -247 291 0
-35 202 -410 0
-75 -171 184 0
-142 244 -310 0
6 -49 79 0
65 -145 -350 0
73 337 -403 0
-25 -117 217 0
46 189 253 0
89 278 376 0
119 -252 -269 0
6 -160 177 0
-15 199 229 0
-59 -289 -415 0
-58 215 267 0
23 78 -261 0
12 -26 380 0
-250 320 428 0
4 398 -421 0
-15 178 326 0
-112 -292 -300 0
-22 105 -373 0
204 -225 442 0
-144 -254 368 0
371 -375 425 0
-15 190 314 0
102 148 214 0
17 198 326 0
7 359 425 0
15 -47 129 0
-32 -134 -373 0
33 338 429 0
261 297 427 0
15 98 296 0
69 -368 -449 0
192 -285 427 0
-28 171 -212 0
-333 -416 425 0
-73 -130 294 0
45 340 348 0
-297 -375 -413 0
15 -26 131 0
192 252 321 0
-119 -305 446 0
62 72 198 0
139 172 394 0
-9 135 -157 0
14 58 121 0
-17 -22 -41 0
-148 -244 -328 0
-97 -110 338 0
-210 288 -386 0
-92 -162 -193 0
-84 327 -397 0
-48 -96 213 0
-105 228 -404 0
-167 -283 -383 0
-151 -191 -299 0
47 118 -232 0
-235 295 -425 0
-257 382 432 0
17 297 436 0
-3 -307 352 0
-84 -120 432 0
-8 -343 383 0
236 241 -395 0
123 169 -311 0
-308 395 427 0
-294 -339 -446 0
-40 280 -342 0
157 -281 -362 0
66 203 -371 0
-6 137 -435 0
-86 163 364 0
237 -310 -426 0
70 374 -444 0
-9 216 -389 0
231 271 397 0
136 202 -234 0
211 317 -327 0
-75 239 261 0
28 130 -450 0
-5 171 -260 0
37 277 394 0
180 291 418 0
-22 193 -273 0
-64 -235 -405 0
-120 -267 -376 0
-12 -366 -375 0
-30 -37 -371 0
-73 189 -402 0
-15 86 371 0
34 -85 -360 0
-259 343 -361 0
200 -233 347 0
47 -246 346 0
11 -182 212 0
-259 -356 -413 0
169 207 -380 0
-137 -313 -325 0
-3 -65 206 0
-164 -226 385 0
-271 314 354 0
-38 314 -353 0
-116 264 -435 0
32 -232 273 0
-58 -266 -322 0
293 420 421 0
-94 -140 -401 0
-11 -287 -346 0
-107 149 356 0
196 -198 246 0
-27 36 -294 0
108 260 -282 0
-35 -118 277 0
203 -235 -378 0
-62 -145 417 0
63 196 333 0
-44 -252 -270 0
-91 126 -286 0
263 -294 356 0
40 263 342 0
-140 403 404 0
30 88 -247 0
-88 -377 -399 0
-39 331 -352 0
-41 51 207 0
-194 198 -304 0
90 -198 -274 0
-43 -75 166 0
-63 77 371 0
-28 -180 -386 0
68 -101 312 0
-81 236 -370 0
289 369 411 0
103 130 -235 0
-50 416 421 0
71 -261 -326 0
16 24 -283 0
-130 -165 -223 0
-212 249 353 0
-145 -283 347 0
-96 -157 427 0
-51 -186 326 0
28 -77 184 0
89 105 391 0
-303 416 449 0
74 -252 342 0
-27 149 -270 0
-20 -151 -311 0
101 -114 -169 0
-63 133 220 0
-58 145 -330 0
141 376 -427 0
121 260 -352 0
46 -75 160 0
-14 -137 322 0
153 160 407 0
113 158 -294 0
-293 363 -431 0
198 242 273 0
33 -173 -382 0
42 397 417 0
-238 -319 -420 0
-172 330 383 0
-121 208 270 0
123 184 331 0
30 -35 350 0
67 -88 445 0
279 285 423 0
-21 370 394 0
-137 154 356 0
-245 287 320 0
-275 -318 -401 0
20 -297 -433 0
-233 254 -258 0
-246 -383 -386 0
69 93 209 0
40 239 -446 0
-162 344 372 0
25 327 -353 0
-116 -181 295 0
-59 266 -365 0
-18 -258 430 0
145 178 -312 0
-44 -141 -321 0
4 -306 377 0
-164 -387 415 0
-149 -221 277 0
-160 175 -333 0
81 158 221 0
-120 -176 375 0
-18 -193 -432 0
3 379 435 0
-94 122 -371 0
225 -302 -449 0
82 -114 -282 0
-47 -349 -384 0
-87 -240 246 0
264 -340 -428 0
91 107 -230 0
-74 -334 -427 0
-229 294 -317 0
107 203 280 0
-138 354 -381 0
197 -279 355 0
-114 -261 435 0
-56 313 344 0
-195 215 236 0
-24 -43 370 0
256 351 -436 0
112 -362 -374 0
16 -154 172 0
-35 -177 -297 0
232 -300 -323 0
-193 288 342 0
-181 240 -266 0
20 -226 308 0
72 -135 325 0
-223 285 429 0
-205 -289 293 0
-196 264 -334 0
267 -421 447 0
-138 -297 361 0
-232 363 -426 0
224 -401 414 0
-109 121 -353 0
-31 -189 -296 0
56 -323 -438 0
-225 -319 -399 0
-226 277 -393 0
-233 -385 400 0
11 98 219 0
-209 258 301 0
31 -438 444 0
-296 -319 440 0
43 -210 298 0
-15 337 -424 0
-130 137 -182 0
58 -291 -434 0
-225 -271 445 0
-21 -134 241 0
-20 79 256 0
-208 -312 -433 0
