p cnf 450 1917
-95 122 -320 0
261 303 -437 0
62 -257 -403 0
-123 207 -221 0
-79 332 385 0
-107 114 317 0
30 98 -181 0
-59 142 341 0
34 -309 -404 0
192 -225 230 0
-10 -301 360 0
32 108 277 0
314 -363 -394 0
54 309 -314 0
386 392 -422 0
131 152 -232 0
169 -439 441 0
-172 -421 427 0
102 259 374 0
226 338 -395 0
40 138 -435 0
17 205 321 0
161 -305 -307 0
-222 396 424 0
-51 -175 250 0
1 -181 393 0
-129 -198 -235 0
-74 148 -253 0
67 -175 295 0
-49 -375 381 0
8 -146 166 0
-29 329 401 0
-202 -212 -310 0
-73 133 370 0
4 -31 -131 0
-62 313 391 0
-122 289 414 0
-145 268 -413 0
-325 -360 415 0
51 -72 427 0
-161 -289 -387 0
164 -295 -399 0
55 -368 -391 0
-18 -186 -320 0
-104 -125 136 0
13 -367 368 0
161 -392 -399 0
-14 -70 -408 0
-202 232 414 0
55 -169 -317 0
78 -110 -431 0
107 236 -408 0
2 5 -82 0
-66 -176 -441 0
-73 -74 -90 0
99 -282 -405 0
-81 226 -403 0
-108 358 391 0
-8 -121 -296 0
23 155 400 0
-47 253 -438 0
58 -195 -415 0
-100 -383 -406 0
-86 318 -400 0
49 258 438 0
-19 -323 405 0
-29 336 -360 0
-210 309 -439 0
-112 -331 -438 0
108 -123 -221 0
-78 219 -250 0
44 -132 391 0
-58 -295 -443 0
264 339 -410 0
255 -316 338 0
126 -174 281 0
225 -353 -437 0
61 70 267 0
-66 -202 327 0
185 -243 -371 0
158 -311 -381 0
6 -51 -349 0
-13 25 164 0
51 -133 -216 0
244 -345 443 0
-2 -18 -69 0
-23 -203 -313 0
249 263 367 0
369 -381 413 0
201 271 -413 0
-118 317 436 0
-84 -315 377 0
65 -118 194 0
-188 -332 369 0
-70 326 -328 0
208 341 -399 0
-256 -261 -444 0
226 409 417 0
-34 250 412 0
149 -218 -300 0
53 370 384 0
-21 -38 114 0
-127 146 235 0
80 -134 199 0
-63 -175 -366 0
10 -164 -372 0
-18 -289 -301 0
-57 125 309 0
-27 -173 274 0
-99 -357 430 0
103 -211 340 0
31 259 -412 0
260 347 -423 0
91 -281 -343 0
226 377 -389 0
-24 -351 373 0
-31 -61 304 0
97 -302 336 0
54 -255 350 0
101 218 -328 0
42 56 -377 0
-69 81 -179 0
10 34 161 0
3 -34 -399 0
18 354 -421 0
-18 -278 -384 0
4 -11 306 0
53 -254 435 0
191 -339 -362 0
156 186 357 0
-159 236 -428 0
-53 112 365 0
22 -153 -159 0
-125 215 -234 0
-253 -260 -442 0
186 -224 -365 0
-238 268 394 0
-56 350 432 0
-4 -193 -369 0
-16 250 415 0
-139 -325 436 0
-38 74 -162 0
-85 -276 434 0
120 275 357 0
34 -307 -313 0
-204 392 -431 0
266 -270 383 0
-44 199 -332 0
-114 -262 -268 0
107 -284 347 0
282 -295 -419 0
-130 201 -212 0
12 113 -395 0
27 118 -200 0
-47 260 -305 0
59 212 404 0
73 -128 263 0
-81 202 -337 0
-95 274 -392 0
128 151 -410 0
-80 116 120 0
-30 -93 -256 0
81 -131 -422 0
-77 256 350 0
-297 412 -424 0
139 152 230 0
-63 -151 -254 0
-214 371 -404 0
202 347 370 0
-8 -148 318 0
-86 -206 -295 0
-173 319 362 0
188 -277 363 0
298 -393 425 0
2 -68 -292 0
90 -200 -218 0
-10 -295 -357 0
-4 -69 -110 0
-256 -363 364 0
-135 214 -322 0
-47 291 428 0
327 401 449 0
-127 236 -392 0
-55 126 -225 0
-41 153 -247 0
-55 -213 295 0
18 372 -399 0
98 -115 255 0
-250 -341 401 0
-163 261 417 0
-31 84 189 0
247 -380 -424 0
11 13 -433 0
-187 -348 366 0
-28 308 437 0
260 348 386 0
163 183 -360 0
97 105 -329 0
146 -225 -301 0
204 -218 396 0
-71 -218 347 0
71 -106 -162 0
-91 -375 -436 0
129 133 213 0
194 -206 324 0
-156 -196 289 0
-94 95 -239 0
-58 -267 -440 0
-55 -346 418 0
-142 286 -422 0
-160 -210 419 0
-28 -144 429 0
-145 -251 437 0
-256 -284 407 0
-13 264 -446 0
296 -402 446 0
167 -398 435 0
243 -256 355 0
53 56 315 0
12 -382 410 0
-108 -320 -364 0
22 251 361 0
19 259 425 0
-132 180 260 0
-86 -153 427 0
-232 303 336 0
-117 -295 -439 0
-205 268 -305 0
37 -48 143 0
-12 34 212 0
127 -207 240 0
235 -376 -449 0
90 295 -380 0
-141 -167 390 0
-13 261 433 0
-132 264 336 0
-158 332 343 0
46 256 -282 0
-35 -63 242 0
41 -265 -400 0
-172 311 442 0
29 -392 -421 0
-24 58 103 0
67 235 307 0
160 -277 -374 0
1 6 -158 0
145 -159 -160 0
-128 297 434 0
-12 39 -77 0
116 292 -410 0
-38 -140 175 0
127 209 244 0
-145 224 417 0
139 -153 348 0
-42 276 -394 0
77 231 245 0
140 -210 354 0
60 -88 226 0
72 -141 262 0
57 -81 99 0
-77 -79 -346 0
-136 -315 -403 0
128 217 242 0
34 160 407 0
224 327 408 0
259 -326 -396 0
279 319 -435 0
-198 222 327 0
-123 198 -404 0
93 159 -447 0
118 -343 -380 0
316 -341 418 0
-91 -251 -386 0
196 264 -317 0
193 -286 -375 0
83 220 281 0
-214 334 -393 0
-14 305 -310 0
-25 -260 289 0
-106 -256 357 0
-47 309 -419 0
-133 -137 189 0
-96 -384 398 0
-190 238 275 0
-216 -239 -347 0
247 327 353 0
220 311 -339 0
42 -140 323 0
84 280 -298 0
55 90 -248 0
37 337 432 0
88 -325 388 0
-12 52 -413 0
-254 298 317 0
-33 -104 -191 0
77 90 423 0
-136 -233 243 0
-3 331 435 0
66 73 430 0
43 -122 -288 0
14 -206 -392 0
-33 -175 351 0
51 -190 -305 0
-149 309 -422 0
91 -250 -280 0
53 155 251 0
-117 -140 376 0
-248 442 -448 0
61 -93 -189 0
-19 -90 220 0
187 241 397 0
27 76 -228 0
102 104 126 0
24 187 293 0
81 -320 -357 0
86 314 426 0
61 -122 208 0
-85 -133 444 0
-194 342 402 0
44 -147 362 0
-121 127 358 0
116 -214 388 0
143 -170 236 0
49 -220 -419 0
21 134 -312 0
53 -181 -214 0
164 198 -307 0
188 -212 270 0
-37 -306 413 0
-169 247 319 0
-241 -269 353 0
-62 -76 -361 0
246 354 -448 0
317 325 433 0
272 322 -415 0
334 335 414 0
-107 200 405 0
38 153 392 0
-123 383 396 0
135 -268 -396 0
99 126 -138 0
167 -270 -376 0
78 202 -302 0
-58 -143 188 0
47 174 -231 0
-143 -224 -399 0
-192 383 419 0
-69 -400 -421 0
370 391 404 0
-43 246 336 0
-179 183 352 0
163 380 -413 0
78 126 -426 0
5 54 -411 0
-115 239 -399 0
36 113 319 0
38 -54 -117 0
-22 319 -417 0
128 -339 -412 0
151 -156 -357 0
159 210 321 0
9 149 152 0
257 -262 -428 0
152 -166 -422 0
-162 -194 203 0
-30 135 303 0
58 66 -167 0
130 283 356 0
47 -134 336 0
45 -151 283 0
-141 -148 -158 0
-113 304 -421 0
54 148 -419 0
-228 231 378 0
-5 -128 -343 0
-30 134 -376 0
-280 -388 433 0
-45 -216 405 0
-174 206 259 0
-19 241 332 0
46 68 -293 0
249 366 -434 0
-114 142 329 0
-183 -384 -399 0
40 -87 199 0
150 -273 -426 0
-72 223 258 0
214 -339 -388 0
-231 378 380 0
19 177 249 0
-49 -110 -141 0
331 334 422 0
-14 -323 -444 0
140 279 -398 0
-168 344 389 0
-52 -410 435 0
64 216 245 0
44 -179 217 0
-230 333 -403 0
-14 291 344 0
-166 -273 -412 0
248 -280 -364 0
96 -222 231 0
-100 -116 -135 0
-60 99 413 0
-23 64 -433 0
-34 236 273 0
-227 -264 -325 0
-118 236 366 0
-134 181 296 0
-66 97 394 0
164 284 341 0
-87 -124 141 0
21 129 -320 0
28 -205 -416 0
-6 195 293 0
144 359 434 0
-249 327 -429 0
104 147 -381 0
59 160 -204 0
-160 -238 -408 0
62 -177 284 0
-241 -248 282 0
-115 225 -353 0
205 -288 -388 0
-230 257 300 0
59 -61 342 0
-31 257 -342 0
-51 154 197 0
-9 61 -307 0
41 311 362 0
172 -305 402 0
-185 258 420 0
159 -302 347 0
-181 -219 -273 0
-127 139 382 0
196 -442 -445 0
-75 -145 389 0
216 -239 -329 0
-59 -151 -337 0
163 334 -368 0
6 -48 127 0
-217 229 448 0
35 -125 349 0
-355 -387 444 0
10 -177 348 0
-305 -419 -440 0
132 290 -324 0
7 -34 260 0
206 376 449 0
242 -394 432 0
-242 325 -429 0
79 -161 -275 0
-205 246 362 0
140 238 -280 0
-63 -275 349 0
173 -243 298 0
-251 367 -409 0
-24 54 -180 0
44 -246 -428 0
126 -230 -449 0
39 -115 -270 0
78 -194 409 0
-91 -232 -319 0
-12 -26 -237 0
-254 -314 418 0
-5 270 -394 0
130 -155 449 0
22 105 136 0
-13 -159 310 0
111 -374 -376 0
-82 -151 -341 0
106 290 334 0
-72 84 -433 0
15 -349 404 0
15 -69 174 0
-52 260 -286 0
-36 326 388 0
-145 303 407 0
248 -298 -364 0
-128 -185 -276 0
172 235 -284 0
-160 196 -433 0
-99 -270 -341 0
-161 180 317 0
-25 359 365 0
172 278 -444 0
143 -175 -267 0
194 235 -359 0
-58 191 -413 0
69 -197 376 0
256 -363 -423 0
-20 -239 280 0
-132 -250 -281 0
-19 -246 250 0
-36 284 -448 0
-56 167 -202 0
-9 55 153 0
-166 -327 -360 0
-71 183 -324 0
318 336 377 0
91 214 405 0
-30 -406 439 0
-157 -428 -433 0
-155 -162 -285 0
-116 222 -263 0
131 201 321 0
-283 298 -415 0
180 189 330 0
73 -205 241 0
-274 318 -398 0
-157 -168 441 0
51 104 255 0
-44 -337 -368 0
-127 318 -400 0
109 184 -246 0
-131 173 -367 0
45 181 242 0
-91 203 -339 0
-249 -281 415 0
-293 -299 362 0
-258 -279 -288 0
-193 -343 -389 0
62 -65 -358 0
-162 359 -380 0
53 392 404 0
347 -368 -389 0
29 -218 295 0
56 241 295 0
109 265 277 0
-85 -271 390 0
-12 54 -121 0
-28 -221 332 0
-118 -206 430 0
-2 47 177 0
87 135 418 0
24 -237 314 0
102 319 372 0
-33 249 -426 0
34 239 -383 0
-167 304 -382 0
244 253 -316 0
-22 -366 -435 0
-47 233 -278 0
-115 -122 -438 0
-58 -208 250 0
157 -175 -220 0
42 247 -371 0
-100 171 -390 0
-308 349 372 0
-38 302 -313 0
-329 -382 -432 0
256 -389 -392 0
62 71 -166 0
156 -252 -417 0
-104 121 -294 0
16 -322 -420 0
276 -414 -429 0
16 -161 291 0
-102 271 283 0
136 -140 -378 0
45 -271 -398 0
173 280 373 0
57 -249 -426 0
184 262 412 0
-263 -343 376 0
-352 354 -375 0
108 -187 371 0
243 334 -423 0
6 -143 -200 0
-143 -337 -402 0
-182 -222 368 0
-118 159 357 0
75 -96 -256 0
100 -149 208 0
36 -263 267 0
115 -260 -381 0
-21 -83 287 0
-146 291 352 0
-15 61 -414 0
-54 -251 352 0
-67 286 -439 0
34 161 404 0
9 -160 -235 0
165 166 -294 0
-109 121 241 0
305 -371 -404 0
-247 445 -450 0
-103 187 -310 0
-25 306 438 0
-98 -207 249 0
69 -111 -310 0
83 -405 425 0
190 -224 411 0
-118 -220 383 0
106 244 -424 0
116 294 -404 0
-24 105 -443 0
-222 296 443 0
-75 -108 -391 0
27 80 -443 0
71 -288 -446 0
75 204 -444 0
-41 112 128 0
249 253 -436 0
125 202 329 0
-380 388 -417 0
-35 172 -292 0
-176 -232 -328 0
-322 -343 358 0
-361 -364 398 0
-24 -61 -419 0
-14 245 393 0
-34 200 -412 0
84 -335 -447 0
-146 155 375 0
10 -300 420 0
-185 232 -364 0
-104 157 -293 0
-27 231 270 0
129 -271 416 0
137 328 444 0
282 -325 -343 0
-282 -291 366 0
-9 28 41 0
221 -275 358 0
227 -288 311 0
47 -345 -450 0
-24 -59 -250 0
-221 290 439 0
-176 -310 315 0
-222 -341 441 0
73 208 390 0
207 -231 423 0
104 -405 -429 0
-157 227 272 0
373 389 -407 0
-55 195 -295 0
24 -64 -77 0
134 361 -411 0
-99 -300 329 0
56 181 -379 0
66 -259 281 0
15 166 -289 0
-10 63 379 0
-95 -167 333 0
-57 362 382 0
-193 -249 -433 0
90 -193 -283 0
-4 -82 -194 0
42 326 378 0
203 358 -366 0
-24 114 -376 0
332 352 -415 0
-133 -310 320 0
39 412 -413 0
104 230 369 0
-41 -166 -210 0
211 244 281 0
-46 161 -419 0
25 181 372 0
95 102 449 0
-265 -281 -420 0
-78 -263 -293 0
-267 355 -421 0
169 255 -415 0
-31 114 119 0
-83 -330 417 0
-112 361 363 0
-37 -132 403 0
-32 155 255 0
38 -402 -434 0
-22 313 -356 0
-52 -200 -205 0
240 357 -401 0
146 194 208 0
-7 139 170 0
100 225 410 0
-48 -357 417 0
-180 216 308 0
61 312 441 0
-94 -197 257 0
-10 83 240 0
51 -384 -409 0
-80 -123 -256 0
267 306 -329 0
-166 -287 390 0
-178 -418 -436 0
207 -432 -444 0
7 -104 269 0
348 426 -427 0
-219 -304 -334 0
40 74 218 0
95 -268 -306 0
36 -191 241 0
-4 144 246 0
-131 -134 -447 0
-24 84 -279 0
219 -407 -429 0
4 -23 324 0
-86 -119 -325 0
-6 116 161 0
225 -258 -291 0
48 171 -238 0
-3 -21 -200 0
208 -343 -412 0
-85 -114 -143 0
47 -90 -370 0
-72 184 -434 0
-181 -298 350 0
-62 275 392 0
222 -344 -420 0
-73 160 -303 0
272 -407 -430 0
250 -288 -339 0
107 -241 268 0
-144 -266 -267 0
-83 121 -203 0
-60 154 -412 0
-252 -391 -422 0
-98 -102 248 0
19 244 -358 0
83 294 -295 0
-147 312 403 0
-3 215 240 0
-224 261 264 0
84 311 314 0
120 -253 -423 0
37 128 268 0
-109 -146 -226 0
-172 -397 422 0
-126 -131 253 0
-9 11 206 0
38 211 324 0
49 -177 -417 0
-60 -161 255 0
-47 -400 443 0
146 420 429 0
166 366 -448 0
-132 281 -288 0
-263 -268 -312 0
-15 -180 -246 0
248 -404 438 0
145 -163 -346 0
-56 178 -224 0
182 261 339 0
-143 -164 437 0
116 195 -205 0
146 -259 -435 0
-142 296 -326 0
-17 -114 255 0
164 266 -429 0
-86 -288 -313 0
-231 -428 -443 0
186 307 357 0
-268 -317 387 0
110 -119 348 0
-59 -117 -324 0
139 195 -398 0
-114 276 297 0
207 290 -306 0
5 -112 442 0
-233 349 395 0
-7 -91 297 0
276 -340 432 0
-146 338 385 0
-76 131 -420 0
228 326 -370 0
31 -155 407 0
40 145 386 0
96 142 353 0
50 -403 -419 0
-61 190 309 0
205 286 -335 0
45 -80 351 0
379 418 441 0
-151 -157 322 0
151 179 400 0
2 127 321 0
30 -74 -396 0
-309 -348 -391 0
43 -80 -140 0
-152 188 246 0
64 -102 396 0
175 386 -398 0
168 212 -414 0
-96 351 -397 0
85 315 344 0
127 -160 434 0
61 145 178 0
98 -133 -135 0
22 45 107 0
376 399 438 0
-90 199 363 0
-95 175 293 0
63 113 -421 0
63 173 -442 0
115 -164 -290 0
-130 -235 -351 0
-96 354 434 0
-24 -28 -396 0
-139 217 445 0
-1 -8 179 0
-14 134 339 0
-52 53 446 0
-223 230 357 0
42 331 -426 0
-46 -85 -280 0
-136 -336 408 0
-76 -375 388 0
188 224 -400 0
39 174 416 0
-67 -93 148 0
26 -248 293 0
86 -155 411 0
55 188 -396 0
43 269 -438 0
-44 -90 -274 0
-82 -130 352 0
-65 68 -214 0
211 -228 312 0
86 -402 -437 0
73 -78 -101 0
71 -108 113 0
83 183 -381 0
-82 -96 -353 0
49 323 442 0
3 35 342 0
-134 -251 -357 0
-11 157 207 0
-64 -242 -328 0
144 -154 410 0
-354 -372 -394 0
-25 202 -409 0
80 336 -401 0
65 317 -397 0
40 248 297 0
-131 -409 -411 0
-54 132 355 0
160 -252 -336 0
163 429 -435 0
-119 219 -244 0
-2 -328 -425 0
40 -212 380 0
-159 381 -407 0
182 268 -385 0
-112 -287 -352 0
148 -204 358 0
-27 -222 348 0
-21 258 262 0
-230 -264 -383 0
-14 -213 -342 0
-201 217 -392 0
-215 -360 -364 0
-131 -206 353 0
-43 -86 -277 0
-24 -250 402 0
84 -133 165 0
-139 -188 409 0
180 -245 -327 0
191 194 -416 0
65 -85 294 0
-119 288 351 0
151 189 243 0
-86 -323 -448 0
230 234 -360 0
-210 -385 419 0
-18 -100 347 0
-30 343 -438 0
-125 242 -427 0
161 -264 -342 0
313 389 -423 0
70 74 347 0
-227 -394 441 0
81 -132 -325 0
-4 -12 439 0
35 -92 356 0
218 -336 423 0
172 -238 -301 0
100 -166 297 0
93 141 -161 0
-86 93 152 0
224 -240 -294 0
81 -130 246 0
248 -269 -277 0
-17 200 436 0
10 48 330 0
-55 -113 -379 0
8 28 343 0
-187 -359 -380 0
-69 118 -389 0
-26 28 80 0
-47 -139 -273 0
303 390 -391 0
-222 269 -361 0
-363 366 -400 0
162 -169 213 0
-181 -194 378 0
-3 98 251 0
194 -237 440 0
94 266 392 0
101 -114 150 0
88 -292 349 0
65 187 215 0
12 -189 272 0
-221 337 -383 0
-108 353 450 0
122 -229 -300 0
227 -238 -318 0
-38 328 345 0
-89 378 393 0
-80 134 -233 0
106 279 -304 0
68 239 -296 0
-274 -324 -423 0
312 -317 -424 0
-36 -253 369 0
-89 -170 419 0
100 252 -361 0
210 247 360 0
334 -400 -403 0
176 354 396 0
269 274 298 0
-186 240 -267 0
51 -133 -348 0
-161 -189 449 0
245 296 415 0
230 428 442 0
23 -153 384 0
-28 108 298 0
104 -405 411 0
39 -147 -351 0
168 -386 -413 0
193 214 -256 0
-133 -145 380 0
63 -119 -390 0
-96 201 327 0
38 -164 237 0
-53 74 424 0
-152 -241 413 0
189 -215 385 0
32 -33 407 0
-75 -185 390 0
-198 350 353 0
-82 292 347 0
-4 129 168 0
268 312 -348 0
-159 245 336 0
-236 -319 327 0
-45 84 -108 0
5 343 396 0
380 -382 438 0
61 201 448 0
-41 -99 201 0
-337 348 436 0
25 299 336 0
-312 368 427 0
224 -332 381 0
-1 83 -156 0
-40 -156 -215 0
-244 -391 -449 0
-50 59 252 0
147 331 -353 0
233 -277 442 0
-1 -320 414 0
-85 341 435 0
-16 126 -140 0
97 -239 -336 0
137 410 -415 0
-250 282 297 0
-352 -353 -414 0
77 -151 -388 0
-33 -42 -423 0
-47 -197 300 0
83 126 -311 0
87 116 -292 0
-36 295 395 0
-101 198 292 0
22 -31 -325 0
-208 -218 328 0
-1 285 413 0
14 113 -263 0
-124 -181 -396 0
213 241 -255 0
168 -218 377 0
72 192 265 0
16 22 42 0
101 363 -448 0
-258 315 -399 0
26 44 -98 0
79 111 -407 0
-79 -81 -270 0
-182 221 347 0
-133 -321 374 0
-115 281 -347 0
118 -190 201 0
57 -266 -350 0
61 -264 375 0
-184 261 -335 0
-352 -427 446 0
-92 -105 -221 0
-177 -246 330 0
4 -78 -316 0
69 -144 -159 0
152 -326 411 0
92 -322 -380 0
-105 -109 399 0
4 72 -78 0
170 397 425 0
-117 -192 389 0
-240 253 339 0
-180 -277 -299 0
-189 -245 -312 0
-62 125 229 0
-87 -90 -150 0
21 330 -421 0
55 154 -430 0
113 -296 -360 0
245 353 450 0
48 52 -106 0
-238 -271 369 0
-37 -168 359 0
-125 213 439 0
-360 365 395 0
89 -231 337 0
-92 -140 408 0
201 -252 -310 0
-200 -326 -331 0
113 -334 406 0
-34 374 -450 0
36 118 -448 0
-126 -157 331 0
32 -53 -402 0
-318 395 441 0
-53 77 150 0
-37 141 -163 0
175 -268 310 0
169 -173 -375 0
17 -179 327 0
133 -258 389 0
198 228 384 0
107 -114 -156 0
-192 231 424 0
-130 -230 -406 0
-2 -200 242 0
-10 -201 218 0
-182 383 -387 0
-152 165 208 0
-68 330 444 0
-14 225 -316 0
109 150 207 0
209 -289 -441 0
215 330 386 0
-136 209 -271 0
-236 -245 -356 0
-176 -211 217 0
18 111 -395 0
8 -145 187 0
266 340 342 0
93 -99 236 0
122 324 -447 0
-93 -94 -170 0
210 -221 303 0
-80 282 -352 0
133 -272 -375 0
46 -52 398 0
217 -275 366 0
168 -250 269 0
65 -91 424 0
-68 151 194 0
88 345 -443 0
-131 -221 -237 0
242 -407 448 0
166 231 -293 0
-261 389 -396 0
63 193 445 0
-20 174 218 0
195 -345 -432 0
-26 192 -400 0
-186 -230 238 0
40 -41 105 0
99 -199 332 0
-169 -175 231 0
-19 -124 195 0
-229 348 419 0
191 227 -385 0
-65 -103 359 0
90 92 -120 0
155 192 -389 0
-13 -106 330 0
189 -204 384 0
214 -220 392 0
5 -104 -394 0
28 -138 430 0
-11 43 -328 0
-220 -394 423 0
-47 335 -344 0
-76 389 439 0
108 133 -376 0
132 -252 431 0
184 -204 446 0
-93 277 -370 0
-201 323 378 0
31 -95 243 0
-39 -158 425 0
129 328 396 0
-16 17 -400 0
-49 224 262 0
13 370 430 0
-243 -307 -324 0
-220 340 -414 0
144 -188 -317 0
-5 -97 319 0
222 -230 -322 0
-24 49 439 0
-146 231 379 0
21 98 420 0
-22 -186 196 0
109 126 -272 0
-98 266 304 0
-169 340 394 0
-157 -169 -242 0
23 -24 108 0
253 266 337 0
-107 -196 242 0
-65 281 298 0
55 142 -389 0
10 -346 -363 0
-23 -107 237 0
-73 -376 405 0
-168 236 255 0
266 276 -377 0
-135 149 -326 0
26 -84 356 0
-115 -192 386 0
-167 -177 248 0
8 -247 -272 0
27 -282 -324 0
-153 -163 206 0
392 -426 441 0
-106 294 -346 0
7 26 130 0
139 432 449 0
-176 235 404 0
-67 305 -345 0
31 39 62 0
-184 -268 -269 0
65 309 -333 0
-98 -135 202 0
-2 -19 -134 0
-266 288 -420 0
82 -197 249 0
-145 203 -303 0
-21 280 -423 0
143 186 -354 0
-247 272 371 0
-213 -232 -247 0
264 -369 -413 0
-125 -334 400 0
-46 126 204 0
-5 103 145 0
-22 142 -152 0
279 351 -409 0
315 420 433 0
196 297 398 0
26 96 386 0
105 -211 -316 0
-193 382 -398 0
10 -343 412 0
-69 377 387 0
197 -328 402 0
4 -98 -350 0
-30 -45 -343 0
4 -83 198 0
117 -169 332 0
-37 106 -368 0
20 -222 -300 0
-113 -417 450 0
191 -227 239 0
-185 -272 291 0
-71 102 -151 0
-65 154 446 0
-44 -268 274 0
-179 -379 -444 0
73 183 371 0
111 184 358 0
-55 227 -267 0
93 167 272 0
284 341 353 0
-83 84 -272 0
-12 -191 -294 0
135 -349 -379 0
24 -144 294 0
155 233 328 0
-281 368 374 0
-147 199 320 0
128 -354 -355 0
-97 -132 275 0
-252 -286 -332 0
123 -137 -203 0
30 -260 436 0
-12 193 -389 0
211 221 325 0
75 167 -208 0
-220 -260 411 0
-109 194 -317 0
32 102 -143 0
-46 314 -388 0
-43 -100 -284 0
144 150 -259 0
217 258 -375 0
-58 -126 -147 0
-80 362 378 0
276 391 428 0
39 -269 412 0
6 -305 -340 0
-2 -88 274 0
-148 -286 351 0
-173 -196 -288 0
17 207 383 0
178 -180 375 0
46 -61 -66 0
-239 -265 -295 0
27 -262 -399 0
386 -422 -430 0
72 295 -333 0
50 -200 -292 0
160 -296 -414 0
101 -127 294 0
-149 -296 410 0
234 318 323 0
-257 -344 -402 0
-63 -175 356 0
379 -402 431 0
-20 159 377 0
186 -212 -374 0
156 204 449 0
250 -262 -292 0
42 -277 342 0
-6 58 386 0
205 211 -377 0
299 -348 399 0
186 223 393 0
16 -218 421 0
90 -97 -183 0
140 151 -232 0
28 63 441 0
19 -95 -218 0
-20 349 -448 0
-151 -387 425 0
-144 227 -265 0
-234 414 -430 0
77 -150 -228 0
-55 -118 -198 0
136 199 291 0
253 -331 -421 0
-247 -407 -446 0
-78 -129 149 0
-187 314 -439 0
75 -314 -338 0
-4 -279 -404 0
153 -283 -436 0
122 170 363 0
-141 -219 345 0
-103 -129 -335 0
-52 -192 285 0
-12 -71 357 0
5 -8 -363 0
-167 232 265 0
-239 -249 -334 0
-27 -65 -238 0
43 -315 422 0
75 -368 431 0
134 269 388 0
37 114 -291 0
-14 153 -215 0
72 -306 348 0
351 -381 450 0
-221 223 376 0
22 -106 366 0
-42 -136 205 0
-59 152 -348 0
-54 273 -297 0
-255 -312 -327 0
-310 -411 414 0
-127 -317 -419 0
1 -152 391 0
78 211 264 0
172 416 -422 0
-64 198 -276 0
44 64 450 0
-7 338 383 0
90 106 -195 0
-20 -184 -429 0
105 -344 -413 0
-166 346 -399 0
-108 122 257 0
157 -181 -317 0
59 -88 113 0
59 219 -363 0
-4 -370 392 0
-51 -101 262 0
69 -197 282 0
92 -115 -365 0
-35 -262 -360 0
122 -158 217 0
63 -329 -384 0
262 -344 374 0
-54 -107 125 0
193 270 -341 0
264 -314 -397 0
-14 -183 230 0
-1 -53 -350 0
374 -387 424 0
-37 54 221 0
135 -174 -305 0
-33 113 -309 0
-112 -140 -329 0
1 -252 -436 0
-29 -430 -439 0
-219 -382 -415 0
-37 241 305 0
-66 180 -387 0
25 207 -388 0
203 297 -314 0
-230 291 -436 0
13 -315 -438 0
-193 212 -219 0
-38 207 315 0
-49 187 431 0
-233 261 296 0
35 259 -401 0
-16 -41 -262 0
234 -254 -312 0
81 -259 369 0
-22 82 180 0
-18 -203 264 0
167 231 -307 0
105 120 314 0
136 -379 418 0
16 -102 143 0
90 -130 -427 0
86 -306 353 0
224 -237 -416 0
61 236 416 0
-177 -211 377 0
253 264 -325 0
60 -268 -374 0
55 66 424 0
103 -179 -411 0
194 275 386 0
47 -118 -310 0
217 -322 449 0
115 -365 -381 0
69 167 -348 0
-28 -325 -336 0
216 367 -405 0
99 -217 439 0
-41 173 237 0
256 364 367 0
148 -230 -279 0
-296 334 421 0
-46 -186 237 0
-68 -126 304 0
34 72 123 0
-94 202 280 0
-198 -239 349 0
-19 210 -337 0
9 -183 320 0
131 299 413 0
-56 122 180 0
-40 -261 313 0
112 -269 327 0
42 -43 -233 0
-190 259 -312 0
36 -246 370 0
-100 -351 420 0
-66 184 254 0
-152 -165 -217 0
344 -366 -399 0
-43 159 -335 0
-29 198 -354 0
25 148 -153 0
225 285 -377 0
-74 107 -192 0
-17 -291 437 0
-76 132 -201 0
-72 227 -246 0
284 328 -399 0
1 175 -400 0
285 -331 404 0
105 297 -301 0
66 -85 218 0
-16 -144 -305 0
-134 375 389 0
161 207 244 0
-135 162 -242 0
-114 224 -307 0
-23 296 -437 0
91 -414 435 0
-71 204 -319 0
-119 269 -350 0
-11 -330 -402 0
29 -235 342 0
75 -279 288 0
-202 223 398 0
-128 162 -398 0
-196 360 418 0
-253 351 -375 0
253 -311 385 0
150 -152 343 0
34 -237 300 0
6 29 -413 0
-6 317 -408 0
-133 -137 -438 0
46 306 316 0
9 26 356 0
-34 255 -355 0
-101 -177 261 0
42 206 -449 0
43 252 344 0
-240 -313 414 0
173 223 -387 0
53 -85 -201 0
-9 -215 313 0
-242 288 437 0
-159 308 334 0
290 -310 404 0
-48 -225 -329 0
37 -44 448 0
-14 -300 348 0
192 -397 444 0
-155 298 -361 0
-220 -320 -407 0
150 -287 405 0
-231 -349 -428 0
-78 -390 429 0
-93 118 356 0
-12 178 213 0
212 348 390 0
-106 -216 -305 0
-109 -157 -257 0
168 175 253 0
-146 -342 390 0
-88 251 264 0
24 -91 227 0
-6 -42 419 0
-138 -185 -436 0
-54 -75 220 0
-124 -151 -301 0
-186 256 350 0
-34 -139 233 0
344 -346 441 0
106 -110 -123 0
14 -173 -379 0
176 299 -320 0
-123 242 -264 0
-246 253 -302 0
78 283 284 0
315 -352 392 0
21 262 447 0
-196 -215 -304 0
291 -351 441 0
-243 -382 -388 0
-296 332 -399 0
14 88 171 0
-251 313 -371 0
188 219 -355 0
26 115 -275 0
217 356 358 0
-7 54 -225 0
45 -112 -295 0
25 144 -281 0
-77 -216 257 0
16 90 241 0
-377 -413 416 0
-16 60 253 0
-173 273 -302 0
-271 328 424 0
-248 -288 359 0
30 -219 449 0
-2 9 -40 0
133 165 -443 0
-15 -97 360 0
93 239 278 0
35 57 -189 0
-7 -296 377 0
-150 333 -374 0
187 242 284 0
-16 96 -412 0
53 59 -333 0
-186 -240 308 0
-8 65 450 0
-35 -236 291 0
-266 -313 -433 0
43 -55 -62 0
34 159 -430 0
-108 -189 -317 0
24 42 278 0
257 -391 411 0
43 -254 291 0
-126 303 -338 0
12 -165 -376 0
-177 408 -443 0
105 337 346 0
-13 94 414 0
205 236 -387 0
149 258 -278 0
141 -285 322 0
-47 -190 -269 0
-268 311 332 0
-17 -214 450 0
230 -313 416 0
197 -267 -358 0
86 -107 -265 0
99 223 -385 0
-30 -367 386 0
210 233 261 0
-67 136 411 0
124 324 332 0
-125 -249 334 0
326 409 447 0
-16 281 -340 0
172 -225 -370 0
6 -220 -299 0
43 208 281 0
91 -320 -331 0
-69 139 -336 0
-45 152 -362 0
270 -277 -433 0
-17 234 -358 0
-5 -36 333 0
95 317 350 0
8 -28 -431 0
48 281 -362 0
-23 112 335 0
13 -392 413 0
-58 204 360 0
175 348 -370 0
122 -183 -287 0
-2 -6 -399 0
-247 343 -419 0
96 100 -283 0
-175 278 -393 0
-8 84 159 0
28 -46 -226 0
-180 194 407 0
21 375 385 0
-136 -153 361 0
-214 215 328 0
-67 -113 445 0
113 -233 -355 0
-138 -317 364 0
226 282 -349 0
-298 357 -419 0
-213 259 327 0
47 283 410 0
305 -359 -439 0
66 228 416 0
77 210 -232 0
146 -269 -358 0
-48 -112 -225 0
-177 185 -186 0
108 122 -198 0
27 351 -446 0
79 -194 -321 0
144 -164 363 0
197 230 -251 0
-126 -169 -402 0
-40 271 383 0
47 -198 -259 0
-182 -225 -359 0
-162 -188 419 0
145 -293 -317 0
229 -233 393 0
7 100 154 0
-42 146 343 0
-71 -164 265 0
-60 -140 -341 0
-17 51 -424 0
58 159 -177 0
-55 -92 -270 0
-245 392 -430 0
-228 -351 -444 0
-119 -251 383 0
-222 309 -407 0
96 214 421 0
-146 219 441 0
-261 337 390 0
214 308 -339 0
324 -342 -377 0
4 53 357 0
-126 148 -293 0
-12 -331 -373 0
-87 198 230 0
154 192 306 0
-236 364 390 0
206 251 276 0
27 201 330 0
-208 -255 360 0
61 -339 361 0
-149 -196 -306 0
138 -194 -282 0
-271 296 -390 0
74 -205 -278 0
20 82 -173 0
-93 -349 413 0
-140 241 401 0
-46 53 -60 0
-129 139 -153 0
29 -149 -390 0
-14 258 389 0
-3 316 322 0
-260 276 400 0
-95 -380 -446 0
-242 -252 -278 0
24 48 -127 0
115 -129 232 0
-94 -314 -383 0
54 -63 217 0
128 -175 -371 0
292 308 -435 0
-21 63 316 0
-78 -271 406 0
-222 -367 -398 0
-20 -245 247 0
-21 158 -302 0
-65 -265 385 0
-78 -128 260 0
-42 151 258 0
-64 173 385 0
62 -85 394 0
219 278 -340 0
-223 -321 -340 0
-51 102 -393 0
-272 -295 391 0
40 80 393 0
-148 -303 312 0
192 -291 440 0
-56 317 -428 0
-150 327 -358 0
-88 315 361 0
-92 153 376 0
209 -303 412 0
136 -197 -210 0
306 438 -447 0
84 161 -291 0
-215 -225 -402 0
54 -127 -348 0
48 240 -391 0
-31 -46 144 0
312 -339 411 0
-215 -223 -359 0
108 185 388 0
-234 -358 442 0
-84 -178 -351 0
-41 -182 449 0
25 156 252 0
40 139 -415 0
-88 125 -381 0
116 371 -384 0
33 140 190 0
66 79 -212 0
-39 -250 -252 0
172 -275 -407 0
-38 -134 -205 0
30 89 -303 0
207 335 445 0
17 159 -422 0
-104 -252 432 0
-45 271 -300 0
142 343 374 0
280 319 -398 0
44 377 380 0
-173 312 -371 0
-424 -433 -439 0
177 208 389 0
14 -313 -437 0
-4 -266 332 0
-166 383 -396 0
44 -278 334 0
-154 357 420 0
-118 163 -266 0
74 346 445 0
-13 296 -300 0
23 413 427 0
48 -56 -381 0
-28 -68 235 0
-223 -252 393 0
-136 -260 -427 0
-129 203 362 0
106 -241 -320 0
211 287 375 0
68 -296 419 0
9 198 -334 0
-3 -179 -220 0
274 -295 418 0
-56 -123 -195 0
149 164 172 0
286 -370 -373 0
-4 45 81 0
186 236 -350 0
5 46 -131 0
-200 -337 350 0
84 116 -375 0
-289 304 328 0
308 373 417 0
-54 -117 -349 0
57 -291 -369 0
34 -51 303 0
-34 -41 344 0
-90 -106 391 0
-207 253 269 0
174 384 -439 0
90 117 -156 0
11 -119 -416 0
38 402 449 0
159 163 406 0
-1 321 330 0
-84 95 117 0
15 140 235 0
-64 -93 98 0
362 -428 -446 0
-6 -241 312 0
241 -333 -380 0
-110 202 -298 0
192 289 -350 0
47 -307 -364 0
122 154 -369 0
-42 -96 -433 0
-77 134 354 0
102 -128 308 0
-59 -313 400 0
-51 191 -236 0
254 333 337 0
-172 259 329 0
-84 232 373 0
-33 -101 -216 0
-109 334 -344 0
265 -277 -364 0
354 -376 -426 0
-47 88 -324 0
103 174 -242 0
-52 67 -267 0
359 -366 383 0
59 182 -302 0
-54 208 -245 0
32 290 -298 0
-139 337 -422 0
111 121 213 0
203 -395 -415 0
-13 132 -425 0
84 -231 -415 0
246 -309 -397 0
-126 -392 431 0
-28 260 -450 0
-116 123 418 0
190 -204 -212 0
-227 -249 -349 0
257 -343 -388 0
185 -275 -290 0
49 119 -230 0
37 -134 -141 0
-58 316 415 0
-168 294 -303 0
239 257 422 0
-178 306 394 0
-273 303 -372 0
47 -75 354 0
-29 142 377 0
11 -270 432 0
184 314 352 0
64 141 364 0
87 -223 -323 0
121 349 -366 0
140 342 419 0
-21 -118 159 0
-246 248 329 0
7 213 -260 0
-45 -231 -333 0
-180 -271 -400 0
-151 221 343 0
102 -238 445 0
26 80 141 0
-145 -216 318 0
-28 -84 -105 0
102 263 -438 0
-118 155 245 0
49 -202 327 0
29 148 197 0
-15 378 437 0
-101 213 -287 0
132 -189 -402 0
-123 280 315 0
97 266 413 0
95 -355 -419 0
76 -124 318 0
-253 417 -426 0
185 307 -368 0
-205 265 -340 0
-73 115 -132 0
285 -292 347 0
204 -214 -224 0
-16 183 365 0
216 -311 -341 0
82 -97 -353 0
-176 -279 427 0
80 169 -226 0
-198 -364 -367 0
42 -307 -426 0
-147 -206 251 0
176 184 -292 0
-218 -322 404 0
-147 397 445 0
-2 25 -359 0
92 -312 -414 0
102 -153 445 0
121 -144 -300 0
220 -221 390 0
-112 -144 -202 0
256 269 356 0
194 275 -382 0
-66 106 -203 0
78 -253 358 0
-80 -245 -363 0
-37 273 347 0
-190 -258 -284 0
-40 -75 168 0
303 354 -444 0
-93 161 -178 0
107 132 -329 0
-2 171 408 0
-56 -177 -447 0
-38 222 -417 0
-13 113 -214 0
243 277 -380 0
-37 286 -395 0
-114 -220 361 0
-283 -310 -421 0
121 -377 412 0
-5 305 -338 0
-10 -60 -242 0
158 -333 -358 0
-48 -80 -212 0
-46 142 -185 0
-162 -192 -305 0
-23 117 244 0
85 357 -392 0
2 -18 306 0
-15 -258 -349 0
35 -66 421 0
-109 328 376 0
-125 321 375 0
6 -136 -353 0
170 198 -316 0
90 -234 -358 0
104 195 434 0
-28 165 268 0
-277 -297 342 0
-268 310 -321 0
71 192 -252 0
-129 147 224 0
265 -318 -343 0
276 381 -398 0
155 -217 -424 0
123 257 342 0
-3 -30 397 0
72 246 -339 0
-159 248 -259 0
-53 126 -267 0
-29 -339 360 0
-191 195 -258 0
21 -415 445 0
108 -111 -431 0
-49 -56 445 0
-255 366 -418 0
-102 -235 327 0
91 243 248 0
226 326 -430 0
-30 -260 -346 0
196 371 -374 0
-24 -77 194 0
24 -237 337 0
-161 217 363 0
-197 245 -282 0
-382 396 -435 0
-152 -173 251 0
119 -348 371 0
45 60 290 0
50 223 300 0
-431 434 440 0
-300 441 446 0
-6 -76 211 0
23 121 156 0
-30 -112 -237 0
-122 -228 334 0
-106 -115 -140 0
-371 419 -445 0
59 -352 442 0
235 -358 372 0
129 285 -335 0
-20 183 226 0
-190 317 -333 0
234 -360 416 0
-40 -83 -262 0
9 -311 441 0
-24 -187 -260 0
25 -401 446 0
-98 -147 323 0
93 -124 395 0
61 -136 275 0
29 169 -250 0
-84 100 -313 0
-7 -155 448 0
296 368 415 0
52 151 401 0
98 -155 216 0
